21
DEC_00112 MMFF geometry for GFN2-xTB preoptimization
C  -4.035010000563 -0.215657005724 -0.697941762176
C  -2.847735943850 -0.719134349802  0.099434569666
O  -1.687431418105  0.011863703814 -0.315585272963
C  -0.539949699060 -0.344628243421  0.328015854022
O  -0.457999960037 -1.207088119974  1.191300763632
C   0.604393826355  0.483618276064 -0.186075643186
C   1.900753126925  0.110767451915  0.511845221625
O   2.947269965205  0.927933650595 -0.016617941508
C   4.197797369698  0.633237302566  0.593181854110
H  -4.183322001070  0.856680305543 -0.533020301388
H  -3.864530910500 -0.352165272594 -1.770977501676
H  -4.948377468764 -0.746291954001 -0.414990078230
H  -2.699473081045 -1.787723494497 -0.092416957942
H  -3.024190589042 -0.556387420888  1.168568798919
H   0.385053226980  1.543932250175 -0.018212868376
H   0.706267042323  0.325897758573 -1.265565980347
H   1.816910252680  0.278329405281  1.592398380642
H   2.139661912675 -0.945534592084  0.339074181707
H   4.957343940255  1.284610914316  0.152714009734
H   4.153685228452  0.825445814108  1.669504915798
H   4.478885180487 -0.407706379963  0.406669418603
