21
 energy: -32.509731640532 gnorm: 0.000226489515 xtb: 6.7.1 (edcfbbe)
C            3.47313708862651        0.16370182106666        0.30158907300234
C            2.16836085161684       -0.52721349782904       -0.00200759261235
O            2.06087296353852       -1.61091696928121       -0.50575644451104
O            1.14106913355989        0.25232777585373        0.37099559019125
C           -0.17519338156234       -0.19073794410218        0.24367633156542
C           -0.56658001077307       -1.44648371602411        0.67657229329068
C           -1.89496106672522       -1.82093673938393        0.56920259572818
C           -2.82117346020739       -0.94112471611862        0.03994754988536
C           -2.42041538481450        0.31525632421208       -0.38187265896951
C           -1.09544187902315        0.71329240214709       -0.29092724331283
C           -0.64025040072101        2.06403003245045       -0.74869695755621
H            3.71475939687103        0.00460563975712        1.35096712981945
H            4.26172345934180       -0.26256798266641       -0.31076069425021
H            3.38348001622235        1.23172285328869        0.12691474830442
H            0.16359730140025       -2.12540594123762        1.08758659974513
H           -2.20091216742327       -2.80079547260655        0.90222239112923
H           -3.85768427569690       -1.23116162208342       -0.04499800707895
H           -3.14652187459895        1.00092949002693       -0.79398199196255
H           -1.47959161459989        2.65211640365410       -1.10953186029841
H            0.08995576053372        1.96326259379431       -1.55120255786629
H           -0.15823045556517        2.59609926507926        0.07006170575616
