      -----------------------------------------------------------      
     |                   =====================                   |     
     |                           x T B                           |     
     |                   =====================                   |     
     |                         S. Grimme                         |     
     |          Mulliken Center for Theoretical Chemistry        |     
     |                    University of Bonn                     |     
      -----------------------------------------------------------      

   * xtb version 6.7.1 (edcfbbe) compiled by 'conda@5dfe00f5fb80' on 2026-06-10

   xtb is free software: you can redistribute it and/or modify it under
   the terms of the GNU Lesser General Public License as published by
   the Free Software Foundation, either version 3 of the License, or
   (at your option) any later version.
   
   xtb is distributed in the hope that it will be useful,
   but WITHOUT ANY WARRANTY; without even the implied warranty of
   MERCHANTABILITY or FITNESS FOR A PARTICULAR PURPOSE.  See the
   GNU Lesser General Public License for more details.
   
   Cite this work as:
   * C. Bannwarth, E. Caldeweyher, S. Ehlert, A. Hansen, P. Pracht,
     J. Seibert, S. Spicher, S. Grimme, WIREs Comput. Mol. Sci., 2020, 11,
     e01493. DOI: 10.1002/wcms.1493
   
   for GFN2-xTB:
   * C. Bannwarth, S. Ehlert and S. Grimme., J. Chem. Theory Comput., 2019,
     15, 1652-1671. DOI: 10.1021/acs.jctc.8b01176
   for GFN1-xTB:
   * S. Grimme, C. Bannwarth, P. Shushkov, J. Chem. Theory Comput., 2017,
     13, 1989-2009. DOI: 10.1021/acs.jctc.7b00118
   for GFN0-xTB:
   * P. Pracht, E. Caldeweyher, S. Ehlert, S. Grimme, ChemRxiv, 2019, preprint.
     DOI: 10.26434/chemrxiv.8326202.v1
   for GFN-FF:
   * S. Spicher and S. Grimme, Angew. Chem. Int. Ed., 2020, 59, 15665-15673.
     DOI: 10.1002/anie.202004239
   
   for ALPB and GBSA implicit solvation:
   * S. Ehlert, M. Stahn, S. Spicher, S. Grimme, J. Chem. Theory Comput.,
     2021, 17, 4250-4261. DOI: 10.1021/acs.jctc.1c00471
   
   for ddCOSMO and CPCM-X implicit solvation:
   * M. Stahn, S. Ehlert, S. Grimme, J. Phys. Chem. A,
     2023, XX, XXXX-XXXX. DOI: 10.1021/acs.jpca.3c04382
   
   for DFT-D4:
   * E. Caldeweyher, C. Bannwarth and S. Grimme, J. Chem. Phys., 2017,
     147, 034112. DOI: 10.1063/1.4993215
   * E. Caldeweyher, S. Ehlert, A. Hansen, H. Neugebauer, S. Spicher,
     C. Bannwarth and S. Grimme, J. Chem. Phys., 2019, 150, 154122.
     DOI: 10.1063/1.5090222
   * E. Caldeweyher, J.-M. Mewes, S. Ehlert and S. Grimme, Phys. Chem. Chem. Phys.
     2020, 22, 8499-8512. DOI: 10.1039/D0CP00502A
   
   for sTDA-xTB:
   * S. Grimme and C. Bannwarth, J. Chem. Phys., 2016, 145, 054103.
     DOI: 10.1063/1.4959605
   
   in the mass-spec context:
   * V. Asgeirsson, C. Bauer and S. Grimme, Chem. Sci., 2017, 8, 4879.
     DOI: 10.1039/c7sc00601b
   * J. Koopman and S. Grimme, ACS Omega 2019, 4, 12, 15120-15133.
     DOI: 10.1021/acsomega.9b02011
   
   for metadynamics refer to:
   * S. Grimme, J. Chem. Theory Comput., 2019, 155, 2847-2862
     DOI: 10.1021/acs.jctc.9b00143
   
   for SPH calculations refer to:
   * S. Spicher and S. Grimme, J. Chem. Theory Comput., 2021, 17, 1701-1714
     DOI: 10.1021/acs.jctc.0c01306
   
   for ONIOM refer to:
   * C. Plett, A. Katbashev, S. Ehlert, S. Grimme, M. Bursch,
     Phys. Chem. Chem. Phys., 2023, 25, 17860-17868. DOI: 10.1039/D3CP02178E
   
   for DIPRO refer to:
   * J. Kohn, N. Gildemeister, S. Grimme, D. Fazzi, A. Hansen,
     J. Chem. Phys., 2023, just accepted.
   
   for PTB refer to:
   * S. Grimme, M. Mueller, A. Hansen, J. Chem. Phys., 2023, 158, 124111.
     DOI: 10.1063/5.0137838
   
   with help from (in alphabetical order)
   P. Atkinson, C. Bannwarth, F. Bohle, G. Brandenburg, E. Caldeweyher
   M. Checinski, S. Dohm, S. Ehlert, S. Ehrlich, I. Gerasimov, C. Hölzer
   A. Katbashev, J. Kohn, J. Koopman, C. Lavigne, S. Lehtola, F. März, M. Müller,
   F. Musil, H. Neugebauer, J. Pisarek, C. Plett, P. Pracht, F. Pultar,
   J. Seibert, P. Shushkov, S. Spicher, M. Stahn, M. Steiner, T. Strunk,
   J. Stückrath, T. Rose, and J. Unsleber
   
 * started run on 2026/07/06 at 19:24:24.351     
   ID    Z sym.   atoms
    1    6 C      1-7, 10, 12-14, 16-21, 23-32
    2    7 N      8
    3    8 O      9, 11, 22
    4   17 Cl     15
    5    1 H      33-76

           -------------------------------------------------
          |                Calculation Setup                |
           -------------------------------------------------

          program call               : /home/ws/xd2484/miniforge3/envs/p3z_dft/bin/xtb xtb_input.xyz --gfn 2 --opt tight --cycles 500 --chrg 0 --uhf 0
          hostname                   : gpu10
          coordinate file            : xtb_input.xyz
          omp threads                :                    16


           -------------------------------------------------
          |                 G F N 2 - x T B                 |
           -------------------------------------------------

        Reference                      10.1021/acs.jctc.8b01176
      * Hamiltonian:
        H0-scaling (s, p, d)           1.850000    2.230000    2.230000
        zeta-weighting                 0.500000
      * Dispersion:
        s8                             2.700000
        a1                             0.520000
        a2                             5.000000
        s9                             5.000000
      * Repulsion:
        kExp                           1.500000    1.000000
        rExp                           1.000000
      * Coulomb:
        alpha                          2.000000
        third order                    shell-resolved
        anisotropic                    true
        a3                             3.000000
        a5                             4.000000
        cn-shift                       1.200000
        cn-exp                         4.000000
        max-rad                        5.000000


          ...................................................
          :                      SETUP                      :
          :.................................................:
          :  # basis functions                 178          :
          :  # atomic orbitals                 177          :
          :  # shells                          109          :
          :  # electrons                       182          :
          :  max. iterations                   250          :
          :  Hamiltonian                  GFN2-xTB          :
          :  restarted?                      false          :
          :  GBSA solvation                  false          :
          :  PC potential                    false          :
          :  electronic temp.          300.0000000     K    :
          :  accuracy                    1.0000000          :
          :  -> integral cutoff          0.2500000E+02      :
          :  -> integral neglect         0.1000000E-07      :
          :  -> SCF convergence          0.1000000E-05 Eh   :
          :  -> wf. convergence          0.1000000E-03 e    :
          :  Broyden damping             0.4000000          :
          :  net charge                          0          :
          :  unpaired electrons                  0          :
          ...................................................

 iter      E             dE          RMSdq      gap      omega  full diag
   1   -100.9270167 -0.100927E+03  0.352E+00    3.99       0.0  T
   2   -101.0983003 -0.171284E+00  0.205E+00    3.31       1.0  T
   3   -101.0955295  0.277084E-02  0.115E+00    3.32       1.0  T
   4   -101.1190632 -0.235337E-01  0.519E-01    3.03       1.0  T
   5   -101.1282361 -0.917291E-02  0.125E-01    3.05       1.0  T
   6   -101.1287639 -0.527755E-03  0.684E-02    3.08       1.0  T
   7   -101.1288267 -0.627766E-04  0.444E-02    3.09       1.0  T
   8   -101.1288621 -0.354908E-04  0.259E-02    3.09       1.0  T
   9   -101.1288786 -0.164375E-04  0.180E-02    3.09       1.0  T
  10   -101.1288845 -0.590614E-05  0.134E-02    3.09       1.0  T
  11   -101.1288905 -0.599405E-05  0.750E-03    3.09       1.5  T
  12   -101.1288926 -0.208985E-05  0.324E-03    3.09       3.5  T
  13   -101.1288928 -0.211313E-06  0.199E-03    3.09       5.8  T
  14   -101.1288929 -0.126609E-06  0.110E-03    3.09      10.5  T
  15   -101.1288929 -0.253377E-07  0.509E-04    3.09      22.5  T
  16   -101.1288929 -0.501703E-08  0.308E-04    3.09      37.2  T

   *** convergence criteria satisfied after 16 iterations ***

         #    Occupation            Energy/Eh            Energy/eV
      -------------------------------------------------------------
         1        2.0000           -1.0502302             -28.5782
       ...           ...                  ...                  ...
        85        2.0000           -0.4124194             -11.2225
        86        2.0000           -0.4109025             -11.1812
        87        2.0000           -0.4097951             -11.1511
        88        2.0000           -0.3910964             -10.6423
        89        2.0000           -0.3885597             -10.5732
        90        2.0000           -0.3738840             -10.1739
        91        2.0000           -0.3690614             -10.0427 (HOMO)
        92                         -0.2556124              -6.9556 (LUMO)
        93                         -0.2271114              -6.1800
        94                         -0.2090044              -5.6873
        95                         -0.1928237              -5.2470
        96                         -0.1891187              -5.1462
       ...                                ...                  ...
       177                          0.6079657              16.5436
      -------------------------------------------------------------
                  HL-Gap            0.1134490 Eh            3.0871 eV
             Fermi-level           -0.3123369 Eh           -8.4991 eV

 SCC (total)                   0 d,  0 h,  0 min,  0.444 sec
 SCC setup                      ...        0 min,  0.005 sec (  1.156%)
 Dispersion                     ...        0 min,  0.010 sec (  2.251%)
 classical contributions        ...        0 min,  0.005 sec (  1.050%)
 integral evaluation            ...        0 min,  0.015 sec (  3.316%)
 iterations                     ...        0 min,  0.336 sec ( 75.659%)
 molecular gradient             ...        0 min,  0.073 sec ( 16.483%)
 printout                       ...        0 min,  0.000 sec (  0.076%)

         :::::::::::::::::::::::::::::::::::::::::::::::::::::
         ::                     SUMMARY                     ::
         :::::::::::::::::::::::::::::::::::::::::::::::::::::
         :: total energy             -99.866659057100 Eh    ::
         :: gradient norm              0.108976927112 Eh/a0 ::
         :: HOMO-LUMO gap              3.087103371730 eV    ::
         ::.................................................::
         :: SCC energy              -101.127957931405 Eh    ::
         :: -> isotropic ES            0.074394029818 Eh    ::
         :: -> anisotropic ES          0.016213699975 Eh    ::
         :: -> anisotropic XC          0.052035194923 Eh    ::
         :: -> dispersion             -0.069510579296 Eh    ::
         :: repulsion energy           1.261298874305 Eh    ::
         :: add. restraining           0.000000000000 Eh    ::
         :: total charge              -0.000000000000 e     ::
         :::::::::::::::::::::::::::::::::::::::::::::::::::::

      ----------------------------------------------------------- 
     |                   =====================                   |
     |                        A N C O P T                        |
     |                   =====================                   |
     |               Approximate Normal Coordinate               |
     |                Rational Function Optimizer                |
      ----------------------------------------------------------- 
      ----------------------------------------------------------- 
     |                   =====================                   |
     |                        A N C O P T                        |
     |                   =====================                   |
     |               Approximate Normal Coordinate               |
     |                Rational Function Optimizer                |
      ----------------------------------------------------------- 

          ...................................................
          :                      SETUP                      :
          :.................................................:
          :   optimization level             tight          :
          :   max. optcycles                   500          :
          :   ANC micro-cycles                  20          :
          :   degrees of freedom               222          :
          :.................................................:
          :   RF solver                   davidson          :
          :   write xtbopt.log                true          :
          :   linear?                        false          :
          :   energy convergence         0.1000000E-05 Eh   :
          :   grad. convergence          0.8000000E-03 Eh/α :
          :   maxmium RF displ.          1.0000000          :
          :   Hlow (freq-cutoff)         0.1000000E-01      :
          :   Hmax (freq-cutoff)         5.0000000          :
          :   S6 in model hess.         20.0000000          :
          ...................................................

generating ANC from exact Hessian ...
Using Lindh-Hessian (1995)
 Shifting diagonal of input Hessian by    9.9596579836030846E-003
 Lowest  eigenvalues of input Hessian
    0.000000    0.000000    0.000000    0.000000    0.000000    0.000000
    0.010000    0.010006    0.010073    0.010144    0.010205    0.010257
    0.010473    0.010510    0.010609    0.010736    0.011043    0.011292
 Highest eigenvalues
    1.672443    1.836692    1.839077    1.914336    1.975902    2.244027


........................................................................
.............................. CYCLE    1 ..............................
........................................................................

 iter      E             dE          RMSdq      gap      omega  full diag
   1   -101.1288929 -0.101129E+03  0.181E-04    3.09       0.0  T
   2   -101.1288929 -0.325130E-09  0.145E-04    3.09      79.2  T
   3   -101.1288929 -0.276600E-09  0.989E-05    3.09     116.0  T
     SCC iter.                  ...        0 min,  0.080 sec
     gradient                   ...        0 min,  0.092 sec
 * total energy  :   -99.8666591 Eh     change       -0.2404249E-08 Eh
   gradient norm :     0.1089752 Eh/α   predicted     0.0000000E+00 (-100.00%)
   displ. norm   :     0.2970579 α      lambda       -0.1619912E-01
   maximum displ.:     0.0620566 α      in ANC's #42, #31, #101, ...

........................................................................
.............................. CYCLE    2 ..............................
........................................................................

 iter      E             dE          RMSdq      gap      omega  full diag
   1   -101.1931911 -0.101193E+03  0.160E-01    3.35       0.0  T
   2   -101.1933218 -0.130681E-03  0.969E-02    3.31       1.0  T
   3   -101.1932589  0.628655E-04  0.513E-02    3.34       1.0  T
   4   -101.1933505 -0.915852E-04  0.129E-02    3.32       1.0  T
   5   -101.1933592 -0.865975E-05  0.409E-03    3.32       2.8  T
   6   -101.1933595 -0.326712E-06  0.256E-03    3.32       4.5  T
   7   -101.1933596 -0.548642E-07  0.147E-03    3.32       7.8  T
   8   -101.1933596 -0.722710E-07  0.686E-04    3.32      16.7  T
   9   -101.1933596 -0.782727E-08  0.487E-04    3.32      23.5  T
     SCC iter.                  ...        0 min,  0.278 sec
     gradient                   ...        0 min,  0.090 sec
 * total energy  :   -99.8770695 Eh     change       -0.1041045E-01 Eh
   gradient norm :     0.0299620 Eh/α   predicted    -0.8819762E-02 ( -15.28%)
   displ. norm   :     0.2597923 α      lambda       -0.2868953E-02
   maximum displ.:     0.0879440 α      in ANC's #31, #43, #16, ...

........................................................................
.............................. CYCLE    3 ..............................
........................................................................

 iter      E             dE          RMSdq      gap      omega  full diag
   1   -101.2161714 -0.101216E+03  0.748E-02    3.40       0.0  T
   2   -101.2161934 -0.219579E-04  0.453E-02    3.39       1.0  T
   3   -101.2161787  0.146567E-04  0.262E-02    3.41       1.0  T
   4   -101.2162040 -0.253067E-04  0.492E-03    3.40       2.3  T
   5   -101.2162050 -0.996618E-06  0.198E-03    3.40       5.8  T
   6   -101.2162051 -0.533162E-07  0.119E-03    3.40       9.7  T
   7   -101.2162051 -0.159133E-07  0.672E-04    3.40      17.1  T
   8   -101.2162051 -0.961262E-08  0.404E-04    3.40      28.4  T
     SCC iter.                  ...        0 min,  0.227 sec
     gradient                   ...        0 min,  0.065 sec
 * total energy  :   -99.8788111 Eh     change       -0.1741563E-02 Eh
   gradient norm :     0.0095640 Eh/α   predicted    -0.1537799E-02 ( -11.70%)
   displ. norm   :     0.2232782 α      lambda       -0.6663846E-03
   maximum displ.:     0.0930860 α      in ANC's #11, #16, #20, ...

........................................................................
.............................. CYCLE    4 ..............................
........................................................................

 iter      E             dE          RMSdq      gap      omega  full diag
   1   -101.2189680 -0.101219E+03  0.427E-02    3.39       0.0  T
   2   -101.2189717 -0.372196E-05  0.252E-02    3.39       1.0  T
   3   -101.2189666  0.513930E-05  0.116E-02    3.40       1.0  T
   4   -101.2189731 -0.652087E-05  0.214E-03    3.39       5.4  T
   5   -101.2189733 -0.171691E-06  0.975E-04    3.39      11.8  T
   6   -101.2189733 -0.176152E-07  0.593E-04    3.39      19.3  T
     SCC iter.                  ...        0 min,  0.131 sec
     gradient                   ...        0 min,  0.062 sec
 * total energy  :   -99.8793122 Eh     change       -0.5011592E-03 Eh
   gradient norm :     0.0063925 Eh/α   predicted    -0.3498075E-03 ( -30.20%)
   displ. norm   :     0.3311628 α      lambda       -0.5981303E-03
   maximum displ.:     0.1622012 α      in ANC's #11, #16, #20, ...

........................................................................
.............................. CYCLE    5 ..............................
........................................................................

 iter      E             dE          RMSdq      gap      omega  full diag
   1   -101.2184563 -0.101218E+03  0.601E-02    3.37       0.0  T
   2   -101.2184600 -0.369400E-05  0.352E-02    3.38       1.0  T
   3   -101.2184574  0.261309E-05  0.796E-03    3.38       1.4  T
   4   -101.2184606 -0.324361E-05  0.246E-03    3.38       4.7  T
   5   -101.2184609 -0.255757E-06  0.111E-03    3.38      10.3  T
   6   -101.2184609 -0.171634E-07  0.682E-04    3.38      16.8  T
   7   -101.2184609 -0.952377E-08  0.419E-04    3.38      27.4  T
     SCC iter.                  ...        0 min,  0.135 sec
     gradient                   ...        0 min,  0.049 sec
 * total energy  :   -99.8797211 Eh     change       -0.4088376E-03 Eh
   gradient norm :     0.0051328 Eh/α   predicted    -0.3318658E-03 ( -18.83%)
   displ. norm   :     0.2631744 α      lambda       -0.2847407E-03
   maximum displ.:     0.1390788 α      in ANC's #11, #16, #20, ...

........................................................................
.............................. CYCLE    6 ..............................
........................................................................

 iter      E             dE          RMSdq      gap      omega  full diag
   1   -101.2177255 -0.101218E+03  0.475E-02    3.37       0.0  T
   2   -101.2177265 -0.101584E-05  0.279E-02    3.38       1.0  T
   3   -101.2177256  0.866825E-06  0.450E-03    3.38       2.5  T
   4   -101.2177268 -0.113897E-05  0.144E-03    3.38       8.0  T
   5   -101.2177268 -0.649267E-07  0.640E-04    3.38      17.9  T
   6   -101.2177268 -0.151051E-08  0.314E-04    3.38      36.5  T
     SCC iter.                  ...        0 min,  0.105 sec
     gradient                   ...        0 min,  0.062 sec
 * total energy  :   -99.8799368 Eh     change       -0.2157328E-03 Eh
   gradient norm :     0.0052507 Eh/α   predicted    -0.1522352E-03 ( -29.43%)
   displ. norm   :     0.2914735 α      lambda       -0.2711709E-03
   maximum displ.:     0.1569522 α      in ANC's #11, #16, #6, ...

........................................................................
.............................. CYCLE    7 ..............................
........................................................................

 iter      E             dE          RMSdq      gap      omega  full diag
   1   -101.2174679 -0.101217E+03  0.507E-02    3.38       0.0  T
   2   -101.2174689 -0.992401E-06  0.300E-02    3.38       1.0  T
   3   -101.2174648  0.406234E-05  0.865E-03    3.38       1.3  T
   4   -101.2174695 -0.469801E-05  0.131E-03    3.38       8.8  T
   5   -101.2174696 -0.306803E-07  0.690E-04    3.38      16.6  T
   6   -101.2174696  0.821075E-09  0.410E-04    3.38      28.0  T
     SCC iter.                  ...        0 min,  0.128 sec
     gradient                   ...        0 min,  0.048 sec
 * total energy  :   -99.8801418 Eh     change       -0.2050156E-03 Eh
   gradient norm :     0.0043866 Eh/α   predicted    -0.1471062E-03 ( -28.25%)
   displ. norm   :     0.2952493 α      lambda       -0.2260130E-03
   maximum displ.:     0.1597697 α      in ANC's #11, #6, #5, ...

........................................................................
.............................. CYCLE    8 ..............................
........................................................................

 iter      E             dE          RMSdq      gap      omega  full diag
   1   -101.2177209 -0.101218E+03  0.495E-02    3.38       0.0  T
   2   -101.2177218 -0.984173E-06  0.294E-02    3.39       1.0  T
   3   -101.2177179  0.393555E-05  0.850E-03    3.38       1.3  T
   4   -101.2177224 -0.454628E-05  0.132E-03    3.38       8.7  T
   5   -101.2177225 -0.340799E-07  0.697E-04    3.38      16.4  T
   6   -101.2177225 -0.184762E-08  0.395E-04    3.38      29.0  T
     SCC iter.                  ...        0 min,  0.105 sec
     gradient                   ...        0 min,  0.042 sec
 * total energy  :   -99.8803079 Eh     change       -0.1661008E-03 Eh
   gradient norm :     0.0034666 Eh/α   predicted    -0.1228579E-03 ( -26.03%)
   displ. norm   :     0.2629406 α      lambda       -0.1616580E-03
   maximum displ.:     0.1417814 α      in ANC's #11, #6, #5, ...

........................................................................
.............................. CYCLE    9 ..............................
........................................................................

 iter      E             dE          RMSdq      gap      omega  full diag
   1   -101.2184572 -0.101218E+03  0.402E-02    3.39       0.0  T
   2   -101.2184577 -0.580441E-06  0.237E-02    3.39       1.0  T
   3   -101.2184570  0.725539E-06  0.393E-03    3.39       2.9  T
   4   -101.2184579 -0.915571E-06  0.115E-03    3.39      10.0  T
   5   -101.2184580 -0.356213E-07  0.536E-04    3.39      21.4  T
   6   -101.2184580 -0.935273E-09  0.280E-04    3.39      40.9  T
     SCC iter.                  ...        0 min,  0.160 sec
     gradient                   ...        0 min,  0.066 sec
 * total energy  :   -99.8804276 Eh     change       -0.1197216E-03 Eh
   gradient norm :     0.0030925 Eh/α   predicted    -0.8641826E-04 ( -27.82%)
   displ. norm   :     0.2470995 α      lambda       -0.1271480E-03
   maximum displ.:     0.1269256 α      in ANC's #11, #6, #5, ...

........................................................................
.............................. CYCLE   10 ..............................
........................................................................

 iter      E             dE          RMSdq      gap      omega  full diag
   1   -101.2191335 -0.101219E+03  0.340E-02    3.38       0.0  T
   2   -101.2191340 -0.497557E-06  0.200E-02    3.38       1.0  T
   3   -101.2191330  0.965033E-06  0.438E-03    3.38       2.6  T
   4   -101.2191341 -0.113829E-05  0.928E-04    3.38      12.4  T
   5   -101.2191342 -0.258119E-07  0.458E-04    3.38      25.0  T
   6   -101.2191342 -0.176942E-08  0.210E-04    3.38      54.7  T
     SCC iter.                  ...        0 min,  0.105 sec
     gradient                   ...        0 min,  0.045 sec
 * total energy  :   -99.8805233 Eh     change       -0.9561665E-04 Eh
   gradient norm :     0.0028659 Eh/α   predicted    -0.6745803E-04 ( -29.45%)
   displ. norm   :     0.2510442 α      lambda       -0.1113939E-03
   maximum displ.:     0.1200639 α      in ANC's #11, #6, #5, ...

........................................................................
.............................. CYCLE   11 ..............................
........................................................................

 iter      E             dE          RMSdq      gap      omega  full diag
   1   -101.2195921 -0.101220E+03  0.293E-02    3.38       0.0  T
   2   -101.2195926 -0.484776E-06  0.173E-02    3.38       1.0  T
   3   -101.2195910  0.163496E-05  0.555E-03    3.38       2.1  T
   4   -101.2195928 -0.186327E-05  0.815E-04    3.38      14.1  T
   5   -101.2195928 -0.210201E-07  0.403E-04    3.38      28.5  T
   6   -101.2195928 -0.143099E-08  0.233E-04    3.38      49.2  T
     SCC iter.                  ...        0 min,  0.147 sec
     gradient                   ...        0 min,  0.048 sec
 * total energy  :   -99.8806087 Eh     change       -0.8539817E-04 Eh
   gradient norm :     0.0027294 Eh/α   predicted    -0.5921276E-04 ( -30.66%)
   displ. norm   :     0.2725822 α      lambda       -0.1106025E-03
   maximum displ.:     0.1267917 α      in ANC's #5, #6, #11, ...

........................................................................
.............................. CYCLE   12 ..............................
........................................................................

 iter      E             dE          RMSdq      gap      omega  full diag
   1   -101.2196066 -0.101220E+03  0.291E-02    3.37       0.0  T
   2   -101.2196070 -0.399210E-06  0.172E-02    3.37       1.0  T
   3   -101.2196051  0.187591E-05  0.587E-03    3.37       2.0  T
   4   -101.2196073 -0.212543E-05  0.758E-04    3.37      15.1  T
   5   -101.2196073 -0.158042E-07  0.406E-04    3.37      28.3  T
   6   -101.2196073 -0.149689E-08  0.258E-04    3.37      44.5  T
     SCC iter.                  ...        0 min,  0.106 sec
     gradient                   ...        0 min,  0.041 sec
 * total energy  :   -99.8806935 Eh     change       -0.8480002E-04 Eh
   gradient norm :     0.0030948 Eh/α   predicted    -0.5941077E-04 ( -29.94%)
   displ. norm   :     0.2828272 α      lambda       -0.1083307E-03
   maximum displ.:     0.1361074 α      in ANC's #5, #6, #11, ...

........................................................................
.............................. CYCLE   13 ..............................
........................................................................

 iter      E             dE          RMSdq      gap      omega  full diag
   1   -101.2193676 -0.101219E+03  0.294E-02    3.37       0.0  T
   2   -101.2193678 -0.273233E-06  0.174E-02    3.37       1.0  T
   3   -101.2193670  0.805821E-06  0.393E-03    3.37       2.9  T
   4   -101.2193680 -0.938788E-06  0.701E-04    3.37      16.4  T
   5   -101.2193680 -0.100646E-07  0.418E-04    3.37      27.4  T
     SCC iter.                  ...        0 min,  0.132 sec
     gradient                   ...        0 min,  0.093 sec
 * total energy  :   -99.8807747 Eh     change       -0.8121948E-04 Eh
   gradient norm :     0.0029871 Eh/α   predicted    -0.5849868E-04 ( -27.97%)
   displ. norm   :     0.2592436 α      lambda       -0.9404556E-04
   maximum displ.:     0.1297287 α      in ANC's #5, #6, #11, ...

........................................................................
.............................. CYCLE   14 ..............................
........................................................................

 iter      E             dE          RMSdq      gap      omega  full diag
   1   -101.2191386 -0.101219E+03  0.286E-02    3.37       0.0  T
   2   -101.2191389 -0.311496E-06  0.169E-02    3.37       1.0  T
   3   -101.2191385  0.448449E-06  0.312E-03    3.37       3.7  T
   4   -101.2191390 -0.557574E-06  0.771E-04    3.37      14.9  T
   5   -101.2191391 -0.152604E-07  0.448E-04    3.37      25.6  T
     SCC iter.                  ...        0 min,  0.239 sec
     gradient                   ...        0 min,  0.108 sec
 * total energy  :   -99.8808432 Eh     change       -0.6853974E-04 Eh
   gradient norm :     0.0025246 Eh/α   predicted    -0.5018376E-04 ( -26.78%)
   displ. norm   :     0.2280575 α      lambda       -0.7633961E-04
   maximum displ.:     0.1186805 α      in ANC's #5, #6, #13, ...

........................................................................
.............................. CYCLE   15 ..............................
........................................................................

 iter      E             dE          RMSdq      gap      omega  full diag
   1   -101.2188906 -0.101219E+03  0.266E-02    3.37       0.0  T
   2   -101.2188911 -0.441354E-06  0.158E-02    3.37       1.0  T
   3   -101.2188896  0.141995E-05  0.528E-03    3.37       2.2  T
   4   -101.2188913 -0.164490E-05  0.764E-04    3.37      15.0  T
   5   -101.2188913 -0.162054E-07  0.422E-04    3.37      27.2  T
   6   -101.2188913 -0.150870E-08  0.254E-04    3.37      45.1  T
     SCC iter.                  ...        0 min,  0.156 sec
     gradient                   ...        0 min,  0.088 sec
 * total energy  :   -99.8809005 Eh     change       -0.5731302E-04 Eh
   gradient norm :     0.0023409 Eh/α   predicted    -0.4015734E-04 ( -29.93%)
   displ. norm   :     0.2359578 α      lambda       -0.8024889E-04
   maximum displ.:     0.1242647 α      in ANC's #5, #6, #13, ...

........................................................................
.............................. CYCLE   16 ..............................
........................................................................

 iter      E             dE          RMSdq      gap      omega  full diag
   1   -101.2190612 -0.101219E+03  0.296E-02    3.37       0.0  T
   2   -101.2190616 -0.496087E-06  0.174E-02    3.37       1.0  T
   3   -101.2190607  0.937884E-06  0.439E-03    3.37       2.6  T
   4   -101.2190618 -0.110944E-05  0.887E-04    3.37      12.9  T
   5   -101.2190618 -0.258860E-07  0.466E-04    3.37      24.6  T
   6   -101.2190618 -0.220844E-08  0.260E-04    3.37      44.0  T
     SCC iter.                  ...        0 min,  0.173 sec
     gradient                   ...        0 min,  0.051 sec
 * total energy  :   -99.8809644 Eh     change       -0.6388202E-04 Eh
   gradient norm :     0.0025130 Eh/α   predicted    -0.4236193E-04 ( -33.69%)
   displ. norm   :     0.3144297 α      lambda       -0.1081133E-03
   maximum displ.:     0.1647264 α      in ANC's #5, #6, #13, ...

........................................................................
.............................. CYCLE   17 ..............................
........................................................................

 iter      E             dE          RMSdq      gap      omega  full diag
   1   -101.2188341 -0.101219E+03  0.418E-02    3.37       0.0  T
   2   -101.2188347 -0.612019E-06  0.246E-02    3.38       1.0  T
   3   -101.2188330  0.173363E-05  0.574E-03    3.37       2.0  T
   4   -101.2188350 -0.202440E-05  0.104E-03    3.38      11.1  T
   5   -101.2188350 -0.270740E-07  0.593E-04    3.37      19.3  T
   6   -101.2188350 -0.253355E-08  0.381E-04    3.37      30.1  T
     SCC iter.                  ...        0 min,  0.156 sec
     gradient                   ...        0 min,  0.055 sec
 * total energy  :   -99.8810521 Eh     change       -0.8771281E-04 Eh
   gradient norm :     0.0033997 Eh/α   predicted    -0.5940367E-04 ( -32.27%)
   displ. norm   :     0.4013539 α      lambda       -0.1434326E-03
   maximum displ.:     0.2055168 α      in ANC's #5, #13, #6, ...

........................................................................
.............................. CYCLE   18 ..............................
........................................................................

 iter      E             dE          RMSdq      gap      omega  full diag
   1   -101.2194162 -0.101219E+03  0.567E-02    3.38       0.0  T
   2   -101.2194170 -0.821774E-06  0.333E-02    3.38       1.0  T
   3   -101.2194154  0.162914E-05  0.554E-03    3.38       2.1  T
   4   -101.2194174 -0.196706E-05  0.130E-03    3.38       8.8  T
   5   -101.2194174 -0.416288E-07  0.719E-04    3.38      16.0  T
   6   -101.2194174 -0.311616E-08  0.447E-04    3.38      25.7  T
     SCC iter.                  ...        0 min,  0.118 sec
     gradient                   ...        0 min,  0.051 sec
 * total energy  :   -99.8811625 Eh     change       -0.1104220E-03 Eh
   gradient norm :     0.0035040 Eh/α   predicted    -0.8327146E-04 ( -24.59%)
   displ. norm   :     0.4709707 α      lambda       -0.1368271E-03
   maximum displ.:     0.2481675 α      in ANC's #5, #6, #13, ...

........................................................................
.............................. CYCLE   19 ..............................
........................................................................

 iter      E             dE          RMSdq      gap      omega  full diag
   1   -101.2174895 -0.101217E+03  0.657E-02    3.38       0.0  T
   2   -101.2174906 -0.117114E-05  0.386E-02    3.38       1.0  T
   3   -101.2174879  0.275979E-05  0.685E-03    3.38       1.7  T
   4   -101.2174911 -0.321538E-05  0.168E-03    3.38       6.8  T
   5   -101.2174912 -0.933916E-07  0.808E-04    3.38      14.2  T
   6   -101.2174912 -0.345919E-08  0.438E-04    3.38      26.2  T
     SCC iter.                  ...        0 min,  0.126 sec
     gradient                   ...        0 min,  0.053 sec
 * total energy  :   -99.8812471 Eh     change       -0.8450951E-04 Eh
   gradient norm :     0.0052767 Eh/α   predicted    -0.8358923E-04 (  -1.09%)
   displ. norm   :     0.3454855 α      lambda       -0.1839765E-03
   maximum displ.:     0.1574865 α      in ANC's #5, #13, #7, ...

........................................................................
.............................. CYCLE   20 ..............................
........................................................................

 iter      E             dE          RMSdq      gap      omega  full diag
   1   -101.2209072 -0.101221E+03  0.545E-02    3.38       0.0  T
   2   -101.2209099 -0.270507E-05  0.320E-02    3.38       1.0  T
   3   -101.2209081  0.172721E-05  0.614E-03    3.38       1.9  T
   4   -101.2209101 -0.191797E-05  0.226E-03    3.38       5.1  T
   5   -101.2209103 -0.255751E-06  0.798E-04    3.38      14.4  T
   6   -101.2209103 -0.370831E-08  0.554E-04    3.38      20.7  T
     SCC iter.                  ...        0 min,  0.107 sec
     gradient                   ...        0 min,  0.052 sec
 * total energy  :   -99.8813176 Eh     change       -0.7050320E-04 Eh
   gradient norm :     0.0036670 Eh/α   predicted    -0.1029722E-03 (  46.05%)
   displ. norm   :     0.2357628 α      lambda       -0.8579736E-04
   maximum displ.:     0.1309733 α      in ANC's #5, #6, #9, ...
 * RMSD in coord.:     0.4812492 α      energy gain  -0.1465850E-01 Eh

generating ANC from exact Hessian ...
Using Lindh-Hessian (1995)
 Shifting diagonal of input Hessian by    9.9633500643655053E-003
 Lowest  eigenvalues of input Hessian
    0.000000    0.000000    0.000000    0.000000    0.000000    0.000000
    0.010000    0.010005    0.010073    0.010146    0.010264    0.010281
    0.010489    0.010567    0.010669    0.010857    0.011178    0.011370
 Highest eigenvalues
    1.742669    1.924957    1.931486    2.067400    2.071518    2.397455


........................................................................
.............................. CYCLE   21 ..............................
........................................................................

 iter      E             dE          RMSdq      gap      omega  full diag
   1   -101.2195241 -0.101220E+03  0.293E-02    3.38       0.0  T
   2   -101.2195248 -0.671330E-06  0.172E-02    3.38       1.0  T
   3   -101.2195240  0.758447E-06  0.390E-03    3.38       2.9  T
   4   -101.2195249 -0.862297E-06  0.121E-03    3.38       9.5  T
   5   -101.2195250 -0.689641E-07  0.464E-04    3.38      24.7  T
   6   -101.2195250 -0.133214E-08  0.290E-04    3.38      39.5  T
     SCC iter.                  ...        0 min,  0.098 sec
     gradient                   ...        0 min,  0.062 sec
 * total energy  :   -99.8813749 Eh     change       -0.5736376E-04 Eh
   gradient norm :     0.0031040 Eh/α   predicted     0.0000000E+00 (-100.00%)
   displ. norm   :     0.0377883 α      lambda       -0.3713549E-04
   maximum displ.:     0.0095108 α      in ANC's #18, #14, #38, ...

........................................................................
.............................. CYCLE   22 ..............................
........................................................................

 iter      E             dE          RMSdq      gap      omega  full diag
   1   -101.2201484 -0.101220E+03  0.755E-03    3.38       0.0  T
   2   -101.2201485 -0.101177E-06  0.438E-03    3.38       2.6  T
   3   -101.2201485  0.171781E-07  0.951E-04    3.38      12.1  T
   4   -101.2201485 -0.307578E-07  0.491E-04    3.38      23.3  T
     SCC iter.                  ...        0 min,  0.078 sec
     gradient                   ...        0 min,  0.061 sec
 * total energy  :   -99.8814049 Eh     change       -0.2999985E-04 Eh
   gradient norm :     0.0013820 Eh/α   predicted    -0.1864000E-04 ( -37.87%)
   displ. norm   :     0.1615820 α      lambda       -0.6195648E-04
   maximum displ.:     0.0431796 α      in ANC's #18, #5, #28, ...

........................................................................
.............................. CYCLE   23 ..............................
........................................................................

 iter      E             dE          RMSdq      gap      omega  full diag
   1   -101.2210144 -0.101221E+03  0.275E-02    3.38       0.0  T
   2   -101.2210150 -0.640954E-06  0.159E-02    3.37       1.0  T
   3   -101.2210148  0.253730E-06  0.282E-03    3.37       4.1  T
   4   -101.2210152 -0.410857E-06  0.123E-03    3.37       9.3  T
   5   -101.2210152 -0.491713E-07  0.661E-04    3.37      17.3  T
   6   -101.2210152 -0.525877E-08  0.414E-04    3.37      27.7  T
     SCC iter.                  ...        0 min,  0.115 sec
     gradient                   ...        0 min,  0.041 sec
 * total energy  :   -99.8814518 Eh     change       -0.4683362E-04 Eh
   gradient norm :     0.0031236 Eh/α   predicted    -0.3133800E-04 ( -33.09%)
   displ. norm   :     0.0523975 α      lambda       -0.2202131E-04
   maximum displ.:     0.0168307 α      in ANC's #27, #24, #5, ...

........................................................................
.............................. CYCLE   24 ..............................
........................................................................

 iter      E             dE          RMSdq      gap      omega  full diag
   1   -101.2207160 -0.101221E+03  0.754E-03    3.37       0.0  T
   2   -101.2207160 -0.426774E-07  0.443E-03    3.37       2.6  T
   3   -101.2207160  0.556628E-07  0.108E-03    3.37      10.6  T
   4   -101.2207160 -0.672187E-07  0.300E-04    3.37      38.3  T
   5   -101.2207160 -0.285955E-08  0.136E-04    3.37      84.1  T
     SCC iter.                  ...        0 min,  0.072 sec
     gradient                   ...        0 min,  0.034 sec
 * total energy  :   -99.8814715 Eh     change       -0.1972202E-04 Eh
   gradient norm :     0.0022802 Eh/α   predicted    -0.1104113E-04 ( -44.02%)
   displ. norm   :     0.2547333 α      lambda       -0.8924609E-04
   maximum displ.:     0.0855089 α      in ANC's #27, #24, #5, ...

........................................................................
.............................. CYCLE   25 ..............................
........................................................................

 iter      E             dE          RMSdq      gap      omega  full diag
   1   -101.2189906 -0.101219E+03  0.360E-02    3.37       0.0  T
   2   -101.2189916 -0.100858E-05  0.211E-02    3.38       1.0  T
   3   -101.2189908  0.837418E-06  0.445E-03    3.38       2.6  T
   4   -101.2189918 -0.105345E-05  0.150E-03    3.38       7.6  T
   5   -101.2189919 -0.757248E-07  0.719E-04    3.38      16.0  T
   6   -101.2189919 -0.158686E-08  0.481E-04    3.38      23.9  T
     SCC iter.                  ...        0 min,  0.141 sec
     gradient                   ...        0 min,  0.045 sec
 * total energy  :   -99.8815157 Eh     change       -0.4419253E-04 Eh
   gradient norm :     0.0033600 Eh/α   predicted    -0.4764983E-04 (   7.82%)
   displ. norm   :     0.0237312 α      lambda       -0.1958904E-04
   maximum displ.:     0.0091002 α      in ANC's #20, #5, #16, ...

........................................................................
.............................. CYCLE   26 ..............................
........................................................................

 iter      E             dE          RMSdq      gap      omega  full diag
   1   -101.2195058 -0.101220E+03  0.521E-03    3.38       0.0  T
   2   -101.2195058 -0.697495E-07  0.301E-03    3.38       3.8  T
   3   -101.2195058  0.116716E-07  0.826E-04    3.38      13.9  T
   4   -101.2195059 -0.178742E-07  0.443E-04    3.38      25.9  T
     SCC iter.                  ...        0 min,  0.062 sec
     gradient                   ...        0 min,  0.043 sec
 * total energy  :   -99.8815322 Eh     change       -0.1648129E-04 Eh
   gradient norm :     0.0022991 Eh/α   predicted    -0.9804190E-05 ( -40.51%)
   displ. norm   :     0.1837517 α      lambda       -0.6095715E-04
   maximum displ.:     0.0642076 α      in ANC's #27, #5, #24, ...

........................................................................
.............................. CYCLE   27 ..............................
........................................................................

 iter      E             dE          RMSdq      gap      omega  full diag
   1   -101.2200313 -0.101220E+03  0.269E-02    3.38       0.0  T
   2   -101.2200316 -0.272848E-06  0.159E-02    3.38       1.0  T
   3   -101.2200312  0.378111E-06  0.281E-03    3.38       4.1  T
   4   -101.2200317 -0.464551E-06  0.935E-04    3.38      12.3  T
   5   -101.2200317 -0.257327E-07  0.595E-04    3.38      19.3  T
     SCC iter.                  ...        0 min,  0.088 sec
     gradient                   ...        0 min,  0.051 sec
 * total energy  :   -99.8815761 Eh     change       -0.4392292E-04 Eh
   gradient norm :     0.0016419 Eh/α   predicted    -0.3150904E-04 ( -28.26%)
   displ. norm   :     0.3664539 α      lambda       -0.4792388E-04
   maximum displ.:     0.1349332 α      in ANC's #27, #5, #24, ...

........................................................................
.............................. CYCLE   28 ..............................
........................................................................

 iter      E             dE          RMSdq      gap      omega  full diag
   1   -101.2186998 -0.101219E+03  0.515E-02    3.37       0.0  T
   2   -101.2187005 -0.751732E-06  0.305E-02    3.37       1.0  T
   3   -101.2186999  0.620445E-06  0.396E-03    3.37       2.9  T
   4   -101.2187007 -0.848689E-06  0.151E-03    3.37       7.6  T
   5   -101.2187008 -0.646793E-07  0.886E-04    3.37      12.9  T
   6   -101.2187008 -0.101391E-07  0.550E-04    3.37      20.9  T
     SCC iter.                  ...        0 min,  0.095 sec
     gradient                   ...        0 min,  0.042 sec
 * total energy  :   -99.8816132 Eh     change       -0.3709047E-04 Eh
   gradient norm :     0.0038323 Eh/α   predicted    -0.2539663E-04 ( -31.53%)
   displ. norm   :     0.0843819 α      lambda       -0.4579253E-04
   maximum displ.:     0.0277275 α      in ANC's #5, #6, #26, ...

........................................................................
.............................. CYCLE   29 ..............................
........................................................................

 iter      E             dE          RMSdq      gap      omega  full diag
   1   -101.2199209 -0.101220E+03  0.140E-02    3.37       0.0  T
   2   -101.2199213 -0.374833E-06  0.823E-03    3.37       1.4  T
   3   -101.2199206  0.681959E-06  0.383E-03    3.37       3.0  T
   4   -101.2199214 -0.794528E-06  0.734E-04    3.37      15.6  T
   5   -101.2199215 -0.231578E-07  0.287E-04    3.37      40.0  T
     SCC iter.                  ...        0 min,  0.085 sec
     gradient                   ...        0 min,  0.043 sec
 * total energy  :   -99.8816413 Eh     change       -0.2811854E-04 Eh
   gradient norm :     0.0022044 Eh/α   predicted    -0.2307384E-04 ( -17.94%)
   displ. norm   :     0.1677470 α      lambda       -0.3855013E-04
   maximum displ.:     0.0620637 α      in ANC's #5, #27, #6, ...

........................................................................
.............................. CYCLE   30 ..............................
........................................................................

 iter      E             dE          RMSdq      gap      omega  full diag
   1   -101.2200150 -0.101220E+03  0.222E-02    3.37       0.0  T
   2   -101.2200152 -0.133213E-06  0.132E-02    3.37       1.0  T
   3   -101.2200145  0.632735E-06  0.338E-03    3.37       3.4  T
   4   -101.2200153 -0.728862E-06  0.543E-04    3.37      21.1  T
   5   -101.2200153 -0.335403E-08  0.323E-04    3.37      35.6  T
     SCC iter.                  ...        0 min,  0.078 sec
     gradient                   ...        0 min,  0.059 sec
 * total energy  :   -99.8816729 Eh     change       -0.3165221E-04 Eh
   gradient norm :     0.0017341 Eh/α   predicted    -0.1982066E-04 ( -37.38%)
   displ. norm   :     0.4388401 α      lambda       -0.5557077E-04
   maximum displ.:     0.1645548 α      in ANC's #5, #27, #6, ...

........................................................................
.............................. CYCLE   31 ..............................
........................................................................

 iter      E             dE          RMSdq      gap      omega  full diag
   1   -101.2185006 -0.101219E+03  0.573E-02    3.37       0.0  T
   2   -101.2185019 -0.126385E-05  0.339E-02    3.37       1.0  T
   3   -101.2185003  0.155647E-05  0.585E-03    3.38       2.0  T
   4   -101.2185023 -0.195900E-05  0.169E-03    3.37       6.8  T
   5   -101.2185023 -0.790026E-07  0.865E-04    3.37      13.3  T
   6   -101.2185023 -0.391930E-08  0.487E-04    3.37      23.5  T
     SCC iter.                  ...        0 min,  0.177 sec
     gradient                   ...        0 min,  0.057 sec
 * total energy  :   -99.8816925 Eh     change       -0.1953071E-04 Eh
   gradient norm :     0.0050025 Eh/α   predicted    -0.3016562E-04 (  54.45%)
   displ. norm   :     0.1076796 α      lambda       -0.6655879E-04
   maximum displ.:     0.0362404 α      in ANC's #24, #27, #16, ...

........................................................................
.............................. CYCLE   32 ..............................
........................................................................

 iter      E             dE          RMSdq      gap      omega  full diag
   1   -101.2210023 -0.101221E+03  0.188E-02    3.38       0.0  T
   2   -101.2210033 -0.100557E-05  0.108E-02    3.38       1.1  T
   3   -101.2210032  0.402000E-07  0.255E-03    3.38       4.5  T
   4   -101.2210034 -0.110057E-06  0.946E-04    3.38      12.1  T
   5   -101.2210034 -0.338119E-07  0.444E-04    3.38      25.8  T
     SCC iter.                  ...        0 min,  0.123 sec
     gradient                   ...        0 min,  0.050 sec
 * total energy  :   -99.8817151 Eh     change       -0.2267847E-04 Eh
   gradient norm :     0.0028534 Eh/α   predicted    -0.3366516E-04 (  48.45%)
   displ. norm   :     0.0353076 α      lambda       -0.2583935E-04
   maximum displ.:     0.0113238 α      in ANC's #24, #5, #6, ...

........................................................................
.............................. CYCLE   33 ..............................
........................................................................

 iter      E             dE          RMSdq      gap      omega  full diag
   1   -101.2205575 -0.101221E+03  0.678E-03    3.38       0.0  T
   2   -101.2205576 -0.651479E-07  0.400E-03    3.37       2.9  T
   3   -101.2205574  0.149650E-06  0.180E-03    3.37       6.4  T
   4   -101.2205576 -0.179375E-06  0.286E-04    3.37      40.1  T
   5   -101.2205576 -0.265828E-08  0.134E-04    3.37      85.8  T
     SCC iter.                  ...        0 min,  0.111 sec
     gradient                   ...        0 min,  0.065 sec
 * total energy  :   -99.8817339 Eh     change       -0.1871281E-04 Eh
   gradient norm :     0.0011540 Eh/α   predicted    -0.1294143E-04 ( -30.84%)
   displ. norm   :     0.1748593 α      lambda       -0.2629792E-04
   maximum displ.:     0.0744119 α      in ANC's #6, #5, #7, ...

........................................................................
.............................. CYCLE   34 ..............................
........................................................................

 iter      E             dE          RMSdq      gap      omega  full diag
   1   -101.2198216 -0.101220E+03  0.232E-02    3.37       0.0  T
   2   -101.2198219 -0.267840E-06  0.137E-02    3.37       1.0  T
   3   -101.2198214  0.538278E-06  0.331E-03    3.37       3.5  T
   4   -101.2198220 -0.658613E-06  0.692E-04    3.37      16.6  T
   5   -101.2198220 -0.928551E-08  0.347E-04    3.37      33.1  T
     SCC iter.                  ...        0 min,  0.088 sec
     gradient                   ...        0 min,  0.043 sec
 * total energy  :   -99.8817589 Eh     change       -0.2499334E-04 Eh
   gradient norm :     0.0018125 Eh/α   predicted    -0.1333441E-04 ( -46.65%)
   displ. norm   :     0.2020926 α      lambda       -0.1970615E-04
   maximum displ.:     0.0895409 α      in ANC's #6, #5, #3, ...

........................................................................
.............................. CYCLE   35 ..............................
........................................................................

 iter      E             dE          RMSdq      gap      omega  full diag
   1   -101.2195350 -0.101220E+03  0.252E-02    3.37       0.0  T
   2   -101.2195353 -0.229062E-06  0.149E-02    3.37       1.0  T
   3   -101.2195350  0.234963E-06  0.242E-03    3.38       4.7  T
   4   -101.2195354 -0.338634E-06  0.673E-04    3.38      17.0  T
   5   -101.2195354 -0.437491E-08  0.377E-04    3.37      30.4  T
     SCC iter.                  ...        0 min,  0.077 sec
     gradient                   ...        0 min,  0.049 sec
 * total energy  :   -99.8817818 Eh     change       -0.2293619E-04 Eh
   gradient norm :     0.0020080 Eh/α   predicted    -0.1003181E-04 ( -56.26%)
   displ. norm   :     0.1621589 α      lambda       -0.2303016E-04
   maximum displ.:     0.0760450 α      in ANC's #6, #5, #3, ...

........................................................................
.............................. CYCLE   36 ..............................
........................................................................

 iter      E             dE          RMSdq      gap      omega  full diag
   1   -101.2197888 -0.101220E+03  0.204E-02    3.38       0.0  T
   2   -101.2197889 -0.163732E-06  0.120E-02    3.38       1.0  T
   3   -101.2197888  0.984749E-07  0.172E-03    3.38       6.7  T
   4   -101.2197890 -0.162154E-06  0.572E-04    3.38      20.1  T
   5   -101.2197890 -0.498422E-08  0.311E-04    3.38      36.9  T
     SCC iter.                  ...        0 min,  0.100 sec
     gradient                   ...        0 min,  0.053 sec
 * total energy  :   -99.8817996 Eh     change       -0.1776775E-04 Eh
   gradient norm :     0.0011468 Eh/α   predicted    -0.1181945E-04 ( -33.48%)
   displ. norm   :     0.3859971 α      lambda       -0.2262219E-04
   maximum displ.:     0.1808257 α      in ANC's #6, #5, #3, ...

........................................................................
.............................. CYCLE   37 ..............................
........................................................................

 iter      E             dE          RMSdq      gap      omega  full diag
   1   -101.2184405 -0.101218E+03  0.485E-02    3.38       0.0  T
   2   -101.2184413 -0.761227E-06  0.286E-02    3.38       1.0  T
   3   -101.2184408  0.514494E-06  0.383E-03    3.38       3.0  T
   4   -101.2184416 -0.825840E-06  0.134E-03    3.38       8.6  T
   5   -101.2184416 -0.294030E-07  0.738E-04    3.38      15.6  T
   6   -101.2184417 -0.931817E-08  0.370E-04    3.38      31.0  T
     SCC iter.                  ...        0 min,  0.105 sec
     gradient                   ...        0 min,  0.060 sec
 * total energy  :   -99.8818126 Eh     change       -0.1304086E-04 Eh
   gradient norm :     0.0027648 Eh/α   predicted    -0.1205805E-04 (  -7.54%)
   displ. norm   :     0.0524578 α      lambda       -0.2214921E-04
   maximum displ.:     0.0248866 α      in ANC's #6, #3, #15, ...

........................................................................
.............................. CYCLE   38 ..............................
........................................................................

 iter      E             dE          RMSdq      gap      omega  full diag
   1   -101.2199147 -0.101220E+03  0.796E-03    3.38       0.0  T
   2   -101.2199150 -0.254575E-06  0.450E-03    3.38       2.5  T
   3   -101.2199150  0.203999E-07  0.136E-03    3.38       8.4  T
   4   -101.2199150 -0.258452E-07  0.622E-04    3.38      18.4  T
   5   -101.2199150 -0.207186E-07  0.216E-04    3.38      53.0  T
     SCC iter.                  ...        0 min,  0.171 sec
     gradient                   ...        0 min,  0.050 sec
 * total energy  :   -99.8818245 Eh     change       -0.1194079E-04 Eh
   gradient norm :     0.0009960 Eh/α   predicted    -0.1111022E-04 (  -6.96%)
   displ. norm   :     0.1049060 α      lambda       -0.1127421E-04
   maximum displ.:     0.0504269 α      in ANC's #6, #5, #3, ...

........................................................................
.............................. CYCLE   39 ..............................
........................................................................

 iter      E             dE          RMSdq      gap      omega  full diag
   1   -101.2204926 -0.101220E+03  0.136E-02    3.38       0.0  T
   2   -101.2204927 -0.576870E-07  0.802E-03    3.38       1.4  T
   3   -101.2204926  0.775218E-07  0.129E-03    3.38       8.9  T
   4   -101.2204927 -0.984396E-07  0.345E-04    3.38      33.2  T
   5   -101.2204927 -0.310023E-08  0.185E-04    3.38      62.0  T
     SCC iter.                  ...        0 min,  0.104 sec
     gradient                   ...        0 min,  0.046 sec
 * total energy  :   -99.8818384 Eh     change       -0.1390221E-04 Eh
   gradient norm :     0.0008319 Eh/α   predicted    -0.5668271E-05 ( -59.23%)
   displ. norm   :     0.3871919 α      lambda       -0.2772370E-04
   maximum displ.:     0.1884509 α      in ANC's #6, #5, #3, ...

........................................................................
.............................. CYCLE   40 ..............................
........................................................................

 iter      E             dE          RMSdq      gap      omega  full diag
   1   -101.2197009 -0.101220E+03  0.506E-02    3.38       0.0  T
   2   -101.2197016 -0.663997E-06  0.298E-02    3.38       1.0  T
   3   -101.2197014  0.237159E-06  0.307E-03    3.38       3.7  T
   4   -101.2197018 -0.473304E-06  0.130E-03    3.38       8.8  T
   5   -101.2197019 -0.436468E-07  0.652E-04    3.38      17.6  T
   6   -101.2197019 -0.393189E-08  0.336E-04    3.38      34.2  T
     SCC iter.                  ...        0 min,  0.104 sec
     gradient                   ...        0 min,  0.064 sec
 * total energy  :   -99.8818631 Eh     change       -0.2464559E-04 Eh
   gradient norm :     0.0016916 Eh/α   predicted    -0.1481885E-04 ( -39.87%)
   displ. norm   :     0.1670680 α      lambda       -0.1046787E-04
   maximum displ.:     0.0862794 α      in ANC's #6, #3, #2, ...

........................................................................
.............................. CYCLE   41 ..............................
........................................................................

 iter      E             dE          RMSdq      gap      omega  full diag
   1   -101.2203371 -0.101220E+03  0.194E-02    3.39       0.0  T
   2   -101.2203372 -0.133437E-06  0.114E-02    3.39       1.0  T
   3   -101.2203372  0.978530E-08  0.105E-03    3.39      10.9  T
   4   -101.2203372 -0.435979E-07  0.546E-04    3.39      21.0  T
   5   -101.2203373 -0.907434E-08  0.302E-04    3.39      38.0  T
     SCC iter.                  ...        0 min,  0.110 sec
     gradient                   ...        0 min,  0.053 sec
 * total energy  :   -99.8818742 Eh     change       -0.1111123E-04 Eh
   gradient norm :     0.0006975 Eh/α   predicted    -0.5302412E-05 ( -52.28%)
   displ. norm   :     0.2304063 α      lambda       -0.9008502E-05
   maximum displ.:     0.1215151 α      in ANC's #6, #3, #5, ...

........................................................................
.............................. CYCLE   42 ..............................
........................................................................

 iter      E             dE          RMSdq      gap      omega  full diag
   1   -101.2201708 -0.101220E+03  0.271E-02    3.39       0.0  T
   2   -101.2201710 -0.195289E-06  0.159E-02    3.39       1.0  T
   3   -101.2201708  0.140492E-06  0.205E-03    3.39       5.6  T
   4   -101.2201711 -0.237388E-06  0.630E-04    3.39      18.2  T
   5   -101.2201711 -0.291554E-08  0.352E-04    3.39      32.6  T
     SCC iter.                  ...        0 min,  0.150 sec
     gradient                   ...        0 min,  0.060 sec
 * total energy  :   -99.8818846 Eh     change       -0.1041280E-04 Eh
   gradient norm :     0.0008340 Eh/α   predicted    -0.4609697E-05 ( -55.73%)
   displ. norm   :     0.2499540 α      lambda       -0.1376014E-04
   maximum displ.:     0.1334894 α      in ANC's #6, #3, #2, ...
 * RMSD in coord.:     0.3827798 α      energy gain  -0.5670500E-03 Eh

generating ANC from exact Hessian ...
Using Lindh-Hessian (1995)
 Shifting diagonal of input Hessian by    9.9625983021495879E-003
 Lowest  eigenvalues of input Hessian
    0.000000    0.000000    0.000000    0.000000    0.000000    0.000000
    0.010000    0.010004    0.010072    0.010147    0.010265    0.010285
    0.010483    0.010588    0.010695    0.010848    0.011162    0.011365
 Highest eigenvalues
    1.741541    1.923599    1.925217    2.066281    2.072117    2.396224


........................................................................
.............................. CYCLE   43 ..............................
........................................................................

 iter      E             dE          RMSdq      gap      omega  full diag
   1   -101.2209638 -0.101221E+03  0.279E-02    3.39       0.0  T
   2   -101.2209641 -0.322013E-06  0.164E-02    3.39       1.0  T
   3   -101.2209640  0.155791E-06  0.222E-03    3.39       5.2  T
   4   -101.2209642 -0.256410E-06  0.687E-04    3.39      16.7  T
   5   -101.2209643 -0.969713E-08  0.394E-04    3.39      29.1  T
     SCC iter.                  ...        0 min,  0.119 sec
     gradient                   ...        0 min,  0.073 sec
 * total energy  :   -99.8818982 Eh     change       -0.1363511E-04 Eh
   gradient norm :     0.0011218 Eh/α   predicted     0.0000000E+00 (-100.00%)
   displ. norm   :     0.0226309 α      lambda       -0.5301195E-05
   maximum displ.:     0.0092717 α      in ANC's #8, #26, #16, ...

........................................................................
.............................. CYCLE   44 ..............................
........................................................................

 iter      E             dE          RMSdq      gap      omega  full diag
   1   -101.2203362 -0.101220E+03  0.394E-03    3.39       0.0  T
   2   -101.2203362 -0.405872E-07  0.230E-03    3.39       5.0  T
   3   -101.2203362  0.436751E-07  0.109E-03    3.39      10.5  T
   4   -101.2203362 -0.534319E-07  0.269E-04    3.39      42.7  T
   5   -101.2203363 -0.268214E-08  0.123E-04    3.39      93.0  T
     SCC iter.                  ...        0 min,  0.144 sec
     gradient                   ...        0 min,  0.075 sec
 * total energy  :   -99.8819038 Eh     change       -0.5563613E-05 Eh
   gradient norm :     0.0003958 Eh/α   predicted    -0.2660305E-05 ( -52.18%)
   displ. norm   :     0.0503059 α      lambda       -0.5851032E-05
   maximum displ.:     0.0216420 α      in ANC's #8, #3, #16, ...

........................................................................
.............................. CYCLE   45 ..............................
........................................................................

 iter      E             dE          RMSdq      gap      omega  full diag
   1   -101.2200921 -0.101220E+03  0.598E-03    3.39       0.0  T
   2   -101.2200921 -0.223844E-07  0.354E-03    3.39       3.2  T
   3   -101.2200921  0.641971E-07  0.114E-03    3.39      10.1  T
   4   -101.2200921 -0.767434E-07  0.235E-04    3.39      48.8  T
   5   -101.2200921 -0.100393E-08  0.160E-04    3.39      71.6  T
     SCC iter.                  ...        0 min,  0.094 sec
     gradient                   ...        0 min,  0.062 sec
 * total energy  :   -99.8819103 Eh     change       -0.6539889E-05 Eh
   gradient norm :     0.0008408 Eh/α   predicted    -0.2929663E-05 ( -55.20%)
   displ. norm   :     0.0847706 α      lambda       -0.6996871E-05
   maximum displ.:     0.0371918 α      in ANC's #8, #3, #2, ...

........................................................................
.............................. CYCLE   46 ..............................
........................................................................

 iter      E             dE          RMSdq      gap      omega  full diag
   1   -101.2201180 -0.101220E+03  0.957E-03    3.39       0.0  T
   2   -101.2201181 -0.322447E-07  0.567E-03    3.39       2.0  T
   3   -101.2201180  0.450269E-07  0.990E-04    3.39      11.6  T
   4   -101.2201181 -0.593127E-07  0.314E-04    3.39      36.6  T
     SCC iter.                  ...        0 min,  0.112 sec
     gradient                   ...        0 min,  0.079 sec
 * total energy  :   -99.8819175 Eh     change       -0.7120980E-05 Eh
   gradient norm :     0.0009510 Eh/α   predicted    -0.3533612E-05 ( -50.38%)
   displ. norm   :     0.0786234 α      lambda       -0.5176730E-05
   maximum displ.:     0.0359308 α      in ANC's #8, #3, #2, ...

........................................................................
.............................. CYCLE   47 ..............................
........................................................................

 iter      E             dE          RMSdq      gap      omega  full diag
   1   -101.2202508 -0.101220E+03  0.808E-03    3.39       0.0  T
   2   -101.2202509 -0.267280E-07  0.477E-03    3.39       2.4  T
   3   -101.2202508  0.394514E-07  0.893E-04    3.39      12.8  T
   4   -101.2202509 -0.480397E-07  0.242E-04    3.39      47.5  T
     SCC iter.                  ...        0 min,  0.134 sec
     gradient                   ...        0 min,  0.074 sec
 * total energy  :   -99.8819228 Eh     change       -0.5352633E-05 Eh
   gradient norm :     0.0007018 Eh/α   predicted    -0.2595814E-05 ( -51.50%)
   displ. norm   :     0.0725287 α      lambda       -0.4310524E-05
   maximum displ.:     0.0345511 α      in ANC's #8, #3, #2, ...

........................................................................
.............................. CYCLE   48 ..............................
........................................................................

 iter      E             dE          RMSdq      gap      omega  full diag
   1   -101.2204992 -0.101220E+03  0.738E-03    3.39       0.0  T
   2   -101.2204993 -0.275174E-07  0.437E-03    3.39       2.6  T
   3   -101.2204992  0.962380E-07  0.134E-03    3.39       8.6  T
   4   -101.2204993 -0.111612E-06  0.233E-04    3.39      49.3  T
   5   -101.2204993 -0.137435E-08  0.138E-04    3.39      83.4  T
     SCC iter.                  ...        0 min,  0.104 sec
     gradient                   ...        0 min,  0.057 sec
 * total energy  :   -99.8819279 Eh     change       -0.5103938E-05 Eh
   gradient norm :     0.0004197 Eh/α   predicted    -0.2198724E-05 ( -56.92%)
   displ. norm   :     0.0923771 α      lambda       -0.5374595E-05
   maximum displ.:     0.0439217 α      in ANC's #3, #8, #2, ...

........................................................................
.............................. CYCLE   49 ..............................
........................................................................

 iter      E             dE          RMSdq      gap      omega  full diag
   1   -101.2206685 -0.101221E+03  0.901E-03    3.39       0.0  T
   2   -101.2206686 -0.454860E-07  0.533E-03    3.39       2.2  T
   3   -101.2206685  0.118596E-06  0.157E-03    3.39       7.3  T
   4   -101.2206686 -0.142776E-06  0.330E-04    3.39      34.7  T
   5   -101.2206686 -0.246662E-08  0.228E-04    3.39      50.2  T
     SCC iter.                  ...        0 min,  0.237 sec
     gradient                   ...        0 min,  0.108 sec
 * total energy  :   -99.8819343 Eh     change       -0.6387701E-05 Eh
   gradient norm :     0.0006595 Eh/α   predicted    -0.2697758E-05 ( -57.77%)
   displ. norm   :     0.1332551 α      lambda       -0.7006574E-05
   maximum displ.:     0.0645807 α      in ANC's #3, #8, #2, ...

........................................................................
.............................. CYCLE   50 ..............................
........................................................................

 iter      E             dE          RMSdq      gap      omega  full diag
   1   -101.2206608 -0.101221E+03  0.130E-02    3.39       0.0  T
   2   -101.2206609 -0.811697E-07  0.767E-03    3.39       1.5  T
   3   -101.2206608  0.117364E-06  0.165E-03    3.39       7.0  T
   4   -101.2206609 -0.152419E-06  0.438E-04    3.39      26.2  T
   5   -101.2206609 -0.383233E-08  0.314E-04    3.39      36.5  T
     SCC iter.                  ...        0 min,  0.162 sec
     gradient                   ...        0 min,  0.067 sec
 * total energy  :   -99.8819427 Eh     change       -0.8347875E-05 Eh
   gradient norm :     0.0009484 Eh/α   predicted    -0.3531099E-05 ( -57.70%)
   displ. norm   :     0.1910122 α      lambda       -0.9209868E-05
   maximum displ.:     0.0934520 α      in ANC's #3, #8, #2, ...

........................................................................
.............................. CYCLE   51 ..............................
........................................................................

 iter      E             dE          RMSdq      gap      omega  full diag
   1   -101.2205206 -0.101221E+03  0.182E-02    3.39       0.0  T
   2   -101.2205208 -0.109522E-06  0.108E-02    3.39       1.1  T
   3   -101.2205207  0.883246E-07  0.154E-03    3.39       7.4  T
   4   -101.2205208 -0.130309E-06  0.467E-04    3.39      24.5  T
   5   -101.2205208 -0.359412E-08  0.318E-04    3.39      36.1  T
     SCC iter.                  ...        0 min,  0.098 sec
     gradient                   ...        0 min,  0.052 sec
 * total energy  :   -99.8819535 Eh     change       -0.1083527E-04 Eh
   gradient norm :     0.0011476 Eh/α   predicted    -0.4681732E-05 ( -56.79%)
   displ. norm   :     0.2261577 α      lambda       -0.1015344E-04
   maximum displ.:     0.1129021 α      in ANC's #3, #2, #8, ...

........................................................................
.............................. CYCLE   52 ..............................
........................................................................

 iter      E             dE          RMSdq      gap      omega  full diag
   1   -101.2202744 -0.101220E+03  0.216E-02    3.39       0.0  T
   2   -101.2202745 -0.111913E-06  0.127E-02    3.39       1.0  T
   3   -101.2202745  0.904184E-08  0.107E-03    3.39      10.8  T
   4   -101.2202746 -0.499868E-07  0.444E-04    3.39      25.8  T
   5   -101.2202746 -0.256109E-08  0.263E-04    3.39      43.6  T
     SCC iter.                  ...        0 min,  0.106 sec
     gradient                   ...        0 min,  0.056 sec
 * total energy  :   -99.8819651 Eh     change       -0.1158802E-04 Eh
   gradient norm :     0.0010585 Eh/α   predicted    -0.5194477E-05 ( -55.17%)
   displ. norm   :     0.1985939 α      lambda       -0.8663385E-05
   maximum displ.:     0.1024251 α      in ANC's #3, #2, #8, ...

........................................................................
.............................. CYCLE   53 ..............................
........................................................................

 iter      E             dE          RMSdq      gap      omega  full diag
   1   -101.2203407 -0.101220E+03  0.188E-02    3.39       0.0  T
   2   -101.2203408 -0.704795E-07  0.111E-02    3.39       1.0  T
   3   -101.2203407  0.337533E-07  0.104E-03    3.39      11.0  T
   4   -101.2203408 -0.593743E-07  0.390E-04    3.39      29.4  T
   5   -101.2203408 -0.349965E-08  0.175E-04    3.39      65.4  T
     SCC iter.                  ...        0 min,  0.123 sec
     gradient                   ...        0 min,  0.066 sec
 * total energy  :   -99.8819746 Eh     change       -0.9509132E-05 Eh
   gradient norm :     0.0006850 Eh/α   predicted    -0.4411306E-05 ( -53.61%)
   displ. norm   :     0.1555443 α      lambda       -0.6444229E-05
   maximum displ.:     0.0839624 α      in ANC's #3, #2, #4, ...

........................................................................
.............................. CYCLE   54 ..............................
........................................................................

 iter      E             dE          RMSdq      gap      omega  full diag
   1   -101.2204551 -0.101220E+03  0.149E-02    3.39       0.0  T
   2   -101.2204552 -0.507969E-07  0.882E-03    3.39       1.3  T
   3   -101.2204551  0.339668E-07  0.959E-04    3.39      12.0  T
   4   -101.2204552 -0.521129E-07  0.316E-04    3.39      36.3  T
     SCC iter.                  ...        0 min,  0.091 sec
     gradient                   ...        0 min,  0.059 sec
 * total energy  :   -99.8819814 Eh     change       -0.6783848E-05 Eh
   gradient norm :     0.0005680 Eh/α   predicted    -0.3261016E-05 ( -51.93%)
   displ. norm   :     0.1144405 α      lambda       -0.5285880E-05
   maximum displ.:     0.0646811 α      in ANC's #3, #2, #4, ...

........................................................................
.............................. CYCLE   55 ..............................
........................................................................

 iter      E             dE          RMSdq      gap      omega  full diag
   1   -101.2205966 -0.101221E+03  0.113E-02    3.39       0.0  T
   2   -101.2205967 -0.398994E-07  0.668E-03    3.39       1.7  T
   3   -101.2205966  0.121620E-07  0.641E-04    3.39      17.9  T
   4   -101.2205967 -0.195975E-07  0.264E-04    3.39      43.5  T
     SCC iter.                  ...        0 min,  0.070 sec
     gradient                   ...        0 min,  0.067 sec
 * total energy  :   -99.8819876 Eh     change       -0.6270997E-05 Eh
   gradient norm :     0.0006591 Eh/α   predicted    -0.2662332E-05 ( -57.55%)
   displ. norm   :     0.1302946 α      lambda       -0.6722213E-05
   maximum displ.:     0.0744490 α      in ANC's #3, #2, #4, ...

........................................................................
.............................. CYCLE   56 ..............................
........................................................................

 iter      E             dE          RMSdq      gap      omega  full diag
   1   -101.2207101 -0.101221E+03  0.132E-02    3.39       0.0  T
   2   -101.2207101 -0.328560E-07  0.777E-03    3.39       1.5  T
   3   -101.2207101  0.200049E-08  0.515E-04    3.39      22.3  T
   4   -101.2207101 -0.104589E-07  0.275E-04    3.39      41.6  T
     SCC iter.                  ...        0 min,  0.090 sec
     gradient                   ...        0 min,  0.065 sec
 * total energy  :   -99.8819963 Eh     change       -0.8699969E-05 Eh
   gradient norm :     0.0008219 Eh/α   predicted    -0.3387348E-05 ( -61.06%)
   displ. norm   :     0.2221950 α      lambda       -0.1157036E-04
   maximum displ.:     0.1266563 α      in ANC's #3, #2, #4, ...

........................................................................
.............................. CYCLE   57 ..............................
........................................................................

 iter      E             dE          RMSdq      gap      omega  full diag
   1   -101.2205463 -0.101221E+03  0.227E-02    3.39       0.0  T
   2   -101.2205464 -0.964304E-07  0.134E-02    3.39       1.0  T
   3   -101.2205464  0.362319E-08  0.937E-04    3.39      12.2  T
   4   -101.2205464 -0.355118E-07  0.466E-04    3.39      24.6  T
     SCC iter.                  ...        0 min,  0.084 sec
     gradient                   ...        0 min,  0.053 sec
 * total energy  :   -99.8820102 Eh     change       -0.1385523E-04 Eh
   gradient norm :     0.0009405 Eh/α   predicted    -0.5914522E-05 ( -57.31%)
   displ. norm   :     0.2630113 α      lambda       -0.1181200E-04
   maximum displ.:     0.1512903 α      in ANC's #3, #2, #4, ...

........................................................................
.............................. CYCLE   58 ..............................
........................................................................

 iter      E             dE          RMSdq      gap      omega  full diag
   1   -101.2205280 -0.101221E+03  0.271E-02    3.39       0.0  T
   2   -101.2205281 -0.154324E-06  0.160E-02    3.39       1.0  T
   3   -101.2205280  0.784388E-07  0.164E-03    3.39       7.0  T
   4   -101.2205282 -0.139892E-06  0.635E-04    3.39      18.1  T
   5   -101.2205282 -0.710935E-08  0.415E-04    3.39      27.6  T
     SCC iter.                  ...        0 min,  0.081 sec
     gradient                   ...        0 min,  0.044 sec
 * total energy  :   -99.8820231 Eh     change       -0.1286184E-04 Eh
   gradient norm :     0.0007301 Eh/α   predicted    -0.6090402E-05 ( -52.65%)
   displ. norm   :     0.2118861 α      lambda       -0.7527236E-05
   maximum displ.:     0.1240046 α      in ANC's #3, #2, #4, ...

........................................................................
.............................. CYCLE   59 ..............................
........................................................................

 iter      E             dE          RMSdq      gap      omega  full diag
   1   -101.2204515 -0.101220E+03  0.212E-02    3.39       0.0  T
   2   -101.2204516 -0.127546E-06  0.125E-02    3.39       1.0  T
   3   -101.2204515  0.722640E-07  0.148E-03    3.39       7.8  T
   4   -101.2204516 -0.114454E-06  0.513E-04    3.39      22.4  T
   5   -101.2204516 -0.486651E-08  0.340E-04    3.39      33.8  T
     SCC iter.                  ...        0 min,  0.077 sec
     gradient                   ...        0 min,  0.063 sec
 * total energy  :   -99.8820313 Eh     change       -0.8281097E-05 Eh
   gradient norm :     0.0007771 Eh/α   predicted    -0.3839846E-05 ( -53.63%)
   displ. norm   :     0.1752790 α      lambda       -0.7540900E-05
   maximum displ.:     0.1050347 α      in ANC's #3, #2, #6, ...

........................................................................
.............................. CYCLE   60 ..............................
........................................................................

 iter      E             dE          RMSdq      gap      omega  full diag
   1   -101.2208127 -0.101221E+03  0.178E-02    3.39       0.0  T
   2   -101.2208128 -0.120274E-06  0.105E-02    3.39       1.1  T
   3   -101.2208127  0.834985E-07  0.146E-03    3.39       7.9  T
   4   -101.2208128 -0.114478E-06  0.477E-04    3.39      24.1  T
   5   -101.2208128 -0.641187E-08  0.268E-04    3.39      42.9  T
     SCC iter.                  ...        0 min,  0.098 sec
     gradient                   ...        0 min,  0.057 sec
 * total energy  :   -99.8820397 Eh     change       -0.8370048E-05 Eh
   gradient norm :     0.0005460 Eh/α   predicted    -0.3824907E-05 ( -54.30%)
   displ. norm   :     0.2744516 α      lambda       -0.1039433E-04
   maximum displ.:     0.1640558 α      in ANC's #3, #2, #6, ...

........................................................................
.............................. CYCLE   61 ..............................
........................................................................

 iter      E             dE          RMSdq      gap      omega  full diag
   1   -101.2202220 -0.101220E+03  0.275E-02    3.39       0.0  T
   2   -101.2202223 -0.265121E-06  0.162E-02    3.39       1.0  T
   3   -101.2202222  0.119457E-06  0.183E-03    3.39       6.3  T
   4   -101.2202224 -0.165286E-06  0.686E-04    3.39      16.7  T
   5   -101.2202224 -0.186850E-07  0.330E-04    3.39      34.7  T
     SCC iter.                  ...        0 min,  0.090 sec
     gradient                   ...        0 min,  0.047 sec
 * total energy  :   -99.8820495 Eh     change       -0.9761494E-05 Eh
   gradient norm :     0.0016348 Eh/α   predicted    -0.5375950E-05 ( -44.93%)
   displ. norm   :     0.2149807 α      lambda       -0.1195237E-04
   maximum displ.:     0.1287730 α      in ANC's #3, #2, #6, ...

........................................................................
.............................. CYCLE   62 ..............................
........................................................................

 iter      E             dE          RMSdq      gap      omega  full diag
   1   -101.2205173 -0.101221E+03  0.217E-02    3.39       0.0  T
   2   -101.2205174 -0.762328E-07  0.128E-02    3.39       1.0  T
   3   -101.2205172  0.139964E-06  0.163E-03    3.39       7.0  T
   4   -101.2205174 -0.174789E-06  0.415E-04    3.39      27.6  T
   5   -101.2205174 -0.365311E-08  0.204E-04    3.39      56.2  T
     SCC iter.                  ...        0 min,  0.192 sec
     gradient                   ...        0 min,  0.064 sec
 * total energy  :   -99.8820635 Eh     change       -0.1402273E-04 Eh
   gradient norm :     0.0012942 Eh/α   predicted    -0.6103899E-05 ( -56.47%)
   displ. norm   :     0.3587588 α      lambda       -0.1863993E-04
   maximum displ.:     0.2137185 α      in ANC's #3, #2, #6, ...

........................................................................
.............................. CYCLE   63 ..............................
........................................................................

 iter      E             dE          RMSdq      gap      omega  full diag
   1   -101.2203822 -0.101220E+03  0.367E-02    3.39       0.0  T
   2   -101.2203824 -0.195243E-06  0.216E-02    3.39       1.0  T
   3   -101.2203816  0.790731E-06  0.371E-03    3.39       3.1  T
   4   -101.2203825 -0.931866E-06  0.746E-04    3.39      15.4  T
   5   -101.2203825 -0.698100E-08  0.468E-04    3.39      24.5  T
     SCC iter.                  ...        0 min,  0.155 sec
     gradient                   ...        0 min,  0.074 sec
 * total energy  :   -99.8820855 Eh     change       -0.2198365E-04 Eh
   gradient norm :     0.0011417 Eh/α   predicted    -0.9857856E-05 ( -55.16%)
   displ. norm   :     0.4568941 α      lambda       -0.2310899E-04
   maximum displ.:     0.2716002 α      in ANC's #3, #2, #6, ...

........................................................................
.............................. CYCLE   64 ..............................
........................................................................

 iter      E             dE          RMSdq      gap      omega  full diag
   1   -101.2200564 -0.101220E+03  0.473E-02    3.39       0.0  T
   2   -101.2200568 -0.405557E-06  0.279E-02    3.39       1.0  T
   3   -101.2200558  0.991030E-06  0.425E-03    3.39       2.7  T
   4   -101.2200570 -0.118870E-05  0.103E-03    3.39      11.1  T
   5   -101.2200570 -0.259098E-07  0.636E-04    3.39      18.0  T
   6   -101.2200570 -0.621574E-08  0.405E-04    3.39      28.3  T
     SCC iter.                  ...        0 min,  0.161 sec
     gradient                   ...        0 min,  0.057 sec
 * total energy  :   -99.8821116 Eh     change       -0.2611693E-04 Eh
   gradient norm :     0.0014772 Eh/α   predicted    -0.1263022E-04 ( -51.64%)
   displ. norm   :     0.3840165 α      lambda       -0.2593366E-04
   maximum displ.:     0.2189968 α      in ANC's #2, #3, #6, ...

........................................................................
.............................. CYCLE   65 ..............................
........................................................................

 iter      E             dE          RMSdq      gap      omega  full diag
   1   -101.2209973 -0.101221E+03  0.435E-02    3.39       0.0  T
   2   -101.2209979 -0.596237E-06  0.256E-02    3.39       1.0  T
   3   -101.2209964  0.143550E-05  0.512E-03    3.39       2.2  T
   4   -101.2209981 -0.165453E-05  0.134E-03    3.39       8.6  T
   5   -101.2209981 -0.654212E-07  0.744E-04    3.39      15.4  T
   6   -101.2209981 -0.766153E-08  0.513E-04    3.39      22.3  T
     SCC iter.                  ...        0 min,  0.104 sec
     gradient                   ...        0 min,  0.057 sec
 * total energy  :   -99.8821329 Eh     change       -0.2132628E-04 Eh
   gradient norm :     0.0017990 Eh/α   predicted    -0.1381768E-04 ( -35.21%)
   displ. norm   :     0.7909263 α      lambda       -0.3348116E-04
   maximum displ.:     0.4785836 α      in ANC's #3, #2, #6, ...

........................................................................
.............................. CYCLE   66 ..............................
........................................................................

 iter      E             dE          RMSdq      gap      omega  full diag
   1   -101.2162855 -0.101216E+03  0.846E-02    3.39       0.0  T
   2   -101.2162885 -0.307337E-05  0.496E-02    3.39       1.0  T
   3   -101.2162878  0.731540E-06  0.490E-03    3.39       2.3  T
   4   -101.2162888 -0.102410E-05  0.248E-03    3.39       4.6  T
   5   -101.2162891 -0.287945E-06  0.968E-04    3.39      11.8  T
   6   -101.2162891 -0.699714E-08  0.523E-04    3.39      21.9  T
     SCC iter.                  ...        0 min,  0.102 sec
     gradient                   ...        0 min,  0.043 sec
 * total energy  :   -99.8820959 Eh     change        0.3701143E-04 Eh
   gradient norm :     0.0070167 Eh/α   predicted    -0.2139953E-04 (-157.82%)
   displ. norm   :     0.2808255 α      lambda       -0.1013981E-03
   maximum displ.:     0.1677799 α      in ANC's #3, #2, #6, ...
 * RMSD in coord.:     0.4846125 α      energy gain  -0.2113068E-03 Eh

generating ANC from exact Hessian ...
Using Lindh-Hessian (1995)
 Shifting diagonal of input Hessian by    9.9622162468311921E-003
 Lowest  eigenvalues of input Hessian
    0.000000    0.000000    0.000000    0.000000    0.000000    0.000000
    0.010000    0.010003    0.010068    0.010152    0.010260    0.010281
    0.010471    0.010609    0.010690    0.010849    0.011156    0.011366
 Highest eigenvalues
    1.741057    1.917516    1.924738    2.064353    2.071663    2.394402


........................................................................
.............................. CYCLE   67 ..............................
........................................................................

 iter      E             dE          RMSdq      gap      omega  full diag
   1   -101.2195354 -0.101220E+03  0.305E-02    3.39       0.0  T
   2   -101.2195362 -0.830502E-06  0.178E-02    3.39       1.0  T
   3   -101.2195358  0.377148E-06  0.307E-03    3.39       3.7  T
   4   -101.2195363 -0.425176E-06  0.130E-03    3.39       8.8  T
   5   -101.2195363 -0.819808E-07  0.410E-04    3.39      28.0  T
   6   -101.2195363 -0.632582E-09  0.247E-04    3.39      46.4  T
     SCC iter.                  ...        0 min,  0.102 sec
     gradient                   ...        0 min,  0.043 sec
 * total energy  :   -99.8821566 Eh     change       -0.6070871E-04 Eh
   gradient norm :     0.0025784 Eh/α   predicted     0.0000000E+00 (-100.00%)
   displ. norm   :     0.0206195 α      lambda       -0.1881448E-04
   maximum displ.:     0.0095564 α      in ANC's #17, #19, #18, ...

........................................................................
.............................. CYCLE   68 ..............................
........................................................................

 iter      E             dE          RMSdq      gap      omega  full diag
   1   -101.2206468 -0.101221E+03  0.577E-03    3.39       0.0  T
   2   -101.2206469 -0.126568E-06  0.335E-03    3.39       3.4  T
   3   -101.2206468  0.111276E-06  0.189E-03    3.39       6.1  T
   4   -101.2206469 -0.146637E-06  0.540E-04    3.39      21.3  T
   5   -101.2206470 -0.112640E-07  0.195E-04    3.39      58.7  T
     SCC iter.                  ...        0 min,  0.093 sec
     gradient                   ...        0 min,  0.063 sec
 * total energy  :   -99.8821695 Eh     change       -0.1287021E-04 Eh
   gradient norm :     0.0009084 Eh/α   predicted    -0.9421749E-05 ( -26.79%)
   displ. norm   :     0.0468404 α      lambda       -0.8929708E-05
   maximum displ.:     0.0228569 α      in ANC's #17, #19, #18, ...

........................................................................
.............................. CYCLE   69 ..............................
........................................................................

 iter      E             dE          RMSdq      gap      omega  full diag
   1   -101.2215059 -0.101222E+03  0.842E-03    3.39       0.0  T
   2   -101.2215060 -0.152591E-06  0.492E-03    3.39       2.3  T
   3   -101.2215059  0.155338E-06  0.205E-03    3.39       5.6  T
   4   -101.2215061 -0.189825E-06  0.566E-04    3.39      20.3  T
   5   -101.2215061 -0.128153E-07  0.267E-04    3.39      43.0  T
     SCC iter.                  ...        0 min,  0.101 sec
     gradient                   ...        0 min,  0.050 sec
 * total energy  :   -99.8821772 Eh     change       -0.7718309E-05 Eh
   gradient norm :     0.0011123 Eh/α   predicted    -0.4470021E-05 ( -42.09%)
   displ. norm   :     0.0447718 α      lambda       -0.5276985E-05
   maximum displ.:     0.0209701 α      in ANC's #17, #19, #10, ...

........................................................................
.............................. CYCLE   70 ..............................
........................................................................

 iter      E             dE          RMSdq      gap      omega  full diag
   1   -101.2213027 -0.101221E+03  0.697E-03    3.39       0.0  T
   2   -101.2213027 -0.421625E-07  0.411E-03    3.39       2.8  T
   3   -101.2213026  0.102125E-06  0.145E-03    3.39       7.9  T
   4   -101.2213027 -0.118676E-06  0.392E-04    3.39      29.3  T
   5   -101.2213027 -0.534526E-08  0.253E-04    3.39      45.3  T
     SCC iter.                  ...        0 min,  0.081 sec
     gradient                   ...        0 min,  0.042 sec
 * total energy  :   -99.8821837 Eh     change       -0.6480616E-05 Eh
   gradient norm :     0.0008876 Eh/α   predicted    -0.2658919E-05 ( -58.97%)
   displ. norm   :     0.1028203 α      lambda       -0.9359650E-05
   maximum displ.:     0.0445878 α      in ANC's #17, #19, #9, ...

........................................................................
.............................. CYCLE   71 ..............................
........................................................................

 iter      E             dE          RMSdq      gap      omega  full diag
   1   -101.2206988 -0.101221E+03  0.151E-02    3.39       0.0  T
   2   -101.2206989 -0.995320E-07  0.888E-03    3.39       1.3  T
   3   -101.2206985  0.372454E-06  0.257E-03    3.39       4.5  T
   4   -101.2206990 -0.425103E-06  0.591E-04    3.39      19.4  T
   5   -101.2206990 -0.999314E-08  0.389E-04    3.39      29.5  T
     SCC iter.                  ...        0 min,  0.094 sec
     gradient                   ...        0 min,  0.049 sec
 * total energy  :   -99.8821920 Eh     change       -0.8256679E-05 Eh
   gradient norm :     0.0008118 Eh/α   predicted    -0.4717860E-05 ( -42.86%)
   displ. norm   :     0.0555906 α      lambda       -0.3659739E-05
   maximum displ.:     0.0192052 α      in ANC's #9, #17, #2, ...

........................................................................
.............................. CYCLE   72 ..............................
........................................................................

 iter      E             dE          RMSdq      gap      omega  full diag
   1   -101.2205911 -0.101221E+03  0.757E-03    3.39       0.0  T
   2   -101.2205911 -0.150143E-07  0.448E-03    3.39       2.6  T
   3   -101.2205911  0.120502E-07  0.634E-04    3.39      18.1  T
   4   -101.2205911 -0.204700E-07  0.293E-04    3.39      39.2  T
     SCC iter.                  ...        0 min,  0.062 sec
     gradient                   ...        0 min,  0.041 sec
 * total energy  :   -99.8821955 Eh     change       -0.3569308E-05 Eh
   gradient norm :     0.0008340 Eh/α   predicted    -0.1836026E-05 ( -48.56%)
   displ. norm   :     0.0650037 α      lambda       -0.4219424E-05
   maximum displ.:     0.0254526 α      in ANC's #2, #9, #10, ...

........................................................................
.............................. CYCLE   73 ..............................
........................................................................

 iter      E             dE          RMSdq      gap      omega  full diag
   1   -101.2206448 -0.101221E+03  0.791E-03    3.39       0.0  T
   2   -101.2206449 -0.341248E-07  0.470E-03    3.39       2.4  T
   3   -101.2206448  0.562793E-07  0.110E-03    3.39      10.5  T
   4   -101.2206449 -0.670585E-07  0.284E-04    3.39      40.3  T
   5   -101.2206449 -0.271578E-08  0.165E-04    3.39      69.5  T
     SCC iter.                  ...        0 min,  0.066 sec
     gradient                   ...        0 min,  0.035 sec
 * total energy  :   -99.8822002 Eh     change       -0.4670337E-05 Eh
   gradient norm :     0.0005741 Eh/α   predicted    -0.2120990E-05 ( -54.59%)
   displ. norm   :     0.0580026 α      lambda       -0.3525128E-05
   maximum displ.:     0.0264680 α      in ANC's #2, #9, #28, ...

........................................................................
.............................. CYCLE   74 ..............................
........................................................................

 iter      E             dE          RMSdq      gap      omega  full diag
   1   -101.2208679 -0.101221E+03  0.662E-03    3.39       0.0  T
   2   -101.2208679 -0.418208E-07  0.393E-03    3.39       2.9  T
   3   -101.2208678  0.818156E-07  0.131E-03    3.39       8.8  T
   4   -101.2208679 -0.928146E-07  0.295E-04    3.39      38.9  T
   5   -101.2208679 -0.446070E-08  0.104E-04    3.39     110.7  T
     SCC iter.                  ...        0 min,  0.088 sec
     gradient                   ...        0 min,  0.065 sec
 * total energy  :   -99.8822038 Eh     change       -0.3616712E-05 Eh
   gradient norm :     0.0003661 Eh/α   predicted    -0.1765794E-05 ( -51.18%)
   displ. norm   :     0.0516709 α      lambda       -0.2204620E-05
   maximum displ.:     0.0253432 α      in ANC's #2, #9, #28, ...

........................................................................
.............................. CYCLE   75 ..............................
........................................................................

 iter      E             dE          RMSdq      gap      omega  full diag
   1   -101.2209786 -0.101221E+03  0.585E-03    3.39       0.0  T
   2   -101.2209786 -0.101101E-07  0.347E-03    3.39       3.3  T
   3   -101.2209785  0.446936E-07  0.885E-04    3.39      13.0  T
   4   -101.2209786 -0.502631E-07  0.157E-04    3.39      72.9  T
     SCC iter.                  ...        0 min,  0.102 sec
     gradient                   ...        0 min,  0.046 sec
 * total energy  :   -99.8822065 Eh     change       -0.2710380E-05 Eh
   gradient norm :     0.0004721 Eh/α   predicted    -0.1107948E-05 ( -59.12%)
   displ. norm   :     0.0931751 α      lambda       -0.4155841E-05
   maximum displ.:     0.0462938 α      in ANC's #2, #9, #28, ...

........................................................................
.............................. CYCLE   76 ..............................
........................................................................

 iter      E             dE          RMSdq      gap      omega  full diag
   1   -101.2210520 -0.101221E+03  0.110E-02    3.39       0.0  T
   2   -101.2210520 -0.184623E-07  0.651E-03    3.39       1.8  T
   3   -101.2210519  0.806697E-07  0.121E-03    3.39       9.5  T
   4   -101.2210520 -0.947942E-07  0.222E-04    3.39      51.6  T
   5   -101.2210520 -0.396170E-09  0.130E-04    3.39      88.4  T
     SCC iter.                  ...        0 min,  0.085 sec
     gradient                   ...        0 min,  0.039 sec
 * total energy  :   -99.8822116 Eh     change       -0.5070729E-05 Eh
   gradient norm :     0.0005392 Eh/α   predicted    -0.2086308E-05 ( -58.86%)
   displ. norm   :     0.1543724 α      lambda       -0.6234824E-05
   maximum displ.:     0.0775161 α      in ANC's #2, #9, #3, ...

........................................................................
.............................. CYCLE   77 ..............................
........................................................................

 iter      E             dE          RMSdq      gap      omega  full diag
   1   -101.2208225 -0.101221E+03  0.186E-02    3.39       0.0  T
   2   -101.2208225 -0.671780E-07  0.110E-02    3.39       1.0  T
   3   -101.2208224  0.101862E-06  0.148E-03    3.39       7.7  T
   4   -101.2208226 -0.132722E-06  0.410E-04    3.39      28.0  T
   5   -101.2208226 -0.249166E-08  0.241E-04    3.39      47.6  T
     SCC iter.                  ...        0 min,  0.076 sec
     gradient                   ...        0 min,  0.040 sec
 * total energy  :   -99.8822183 Eh     change       -0.6712866E-05 Eh
   gradient norm :     0.0004891 Eh/α   predicted    -0.3151768E-05 ( -53.05%)
   displ. norm   :     0.1259150 α      lambda       -0.4335035E-05
   maximum displ.:     0.0656140 α      in ANC's #2, #9, #3, ...

........................................................................
.............................. CYCLE   78 ..............................
........................................................................

 iter      E             dE          RMSdq      gap      omega  full diag
   1   -101.2207113 -0.101221E+03  0.156E-02    3.39       0.0  T
   2   -101.2207113 -0.527317E-07  0.922E-03    3.39       1.2  T
   3   -101.2207113  0.746648E-07  0.130E-03    3.39       8.8  T
   4   -101.2207114 -0.992856E-07  0.351E-04    3.39      32.6  T
   5   -101.2207114 -0.170689E-08  0.213E-04    3.39      53.8  T
     SCC iter.                  ...        0 min,  0.070 sec
     gradient                   ...        0 min,  0.034 sec
 * total energy  :   -99.8822229 Eh     change       -0.4625130E-05 Eh
   gradient norm :     0.0005001 Eh/α   predicted    -0.2185202E-05 ( -52.75%)
   displ. norm   :     0.0900392 α      lambda       -0.3661331E-05
   maximum displ.:     0.0487465 α      in ANC's #2, #9, #3, ...

........................................................................
.............................. CYCLE   79 ..............................
........................................................................

 iter      E             dE          RMSdq      gap      omega  full diag
   1   -101.2208500 -0.101221E+03  0.117E-02    3.39       0.0  T
   2   -101.2208500 -0.309118E-07  0.690E-03    3.39       1.7  T
   3   -101.2208500  0.199714E-07  0.777E-04    3.39      14.8  T
   4   -101.2208500 -0.322090E-07  0.284E-04    3.39      40.4  T
     SCC iter.                  ...        0 min,  0.063 sec
     gradient                   ...        0 min,  0.038 sec
 * total energy  :   -99.8822270 Eh     change       -0.4114744E-05 Eh
   gradient norm :     0.0004886 Eh/α   predicted    -0.1838160E-05 ( -55.33%)
   displ. norm   :     0.1260980 α      lambda       -0.4586766E-05
   maximum displ.:     0.0693809 α      in ANC's #2, #9, #3, ...

........................................................................
.............................. CYCLE   80 ..............................
........................................................................

 iter      E             dE          RMSdq      gap      omega  full diag
   1   -101.2207156 -0.101221E+03  0.164E-02    3.39       0.0  T
   2   -101.2207157 -0.510198E-07  0.964E-03    3.39       1.2  T
   3   -101.2207156  0.108946E-06  0.150E-03    3.39       7.7  T
   4   -101.2207157 -0.137552E-06  0.336E-04    3.39      34.1  T
   5   -101.2207157 -0.137759E-08  0.203E-04    3.39      56.4  T
     SCC iter.                  ...        0 min,  0.077 sec
     gradient                   ...        0 min,  0.039 sec
 * total energy  :   -99.8822323 Eh     change       -0.5304367E-05 Eh
   gradient norm :     0.0006310 Eh/α   predicted    -0.2310078E-05 ( -56.45%)
   displ. norm   :     0.1250553 α      lambda       -0.5167204E-05
   maximum displ.:     0.0709691 α      in ANC's #2, #3, #6, ...

........................................................................
.............................. CYCLE   81 ..............................
........................................................................

 iter      E             dE          RMSdq      gap      omega  full diag
   1   -101.2207878 -0.101221E+03  0.162E-02    3.39       0.0  T
   2   -101.2207878 -0.559864E-07  0.954E-03    3.39       1.2  T
   3   -101.2207878  0.929246E-07  0.143E-03    3.39       8.0  T
   4   -101.2207879 -0.122489E-06  0.370E-04    3.39      31.0  T
   5   -101.2207879 -0.205931E-08  0.254E-04    3.39      45.2  T
     SCC iter.                  ...        0 min,  0.077 sec
     gradient                   ...        0 min,  0.037 sec
 * total energy  :   -99.8822380 Eh     change       -0.5632028E-05 Eh
   gradient norm :     0.0004797 Eh/α   predicted    -0.2602340E-05 ( -53.79%)
   displ. norm   :     0.1282526 α      lambda       -0.3874855E-05
   maximum displ.:     0.0751441 α      in ANC's #2, #3, #9, ...

........................................................................
.............................. CYCLE   82 ..............................
........................................................................

 iter      E             dE          RMSdq      gap      omega  full diag
   1   -101.2205051 -0.101221E+03  0.163E-02    3.39       0.0  T
   2   -101.2205052 -0.782469E-07  0.959E-03    3.39       1.2  T
   3   -101.2205051  0.943339E-07  0.145E-03    3.39       7.9  T
   4   -101.2205052 -0.120769E-06  0.394E-04    3.39      29.1  T
   5   -101.2205052 -0.427271E-08  0.249E-04    3.39      46.0  T
     SCC iter.                  ...        0 min,  0.082 sec
     gradient                   ...        0 min,  0.044 sec
 * total energy  :   -99.8822419 Eh     change       -0.3941379E-05 Eh
   gradient norm :     0.0006313 Eh/α   predicted    -0.1954202E-05 ( -50.42%)
   displ. norm   :     0.0815053 α      lambda       -0.3734877E-05
   maximum displ.:     0.0497292 α      in ANC's #2, #3, #6, ...

........................................................................
.............................. CYCLE   83 ..............................
........................................................................

 iter      E             dE          RMSdq      gap      omega  full diag
   1   -101.2209137 -0.101221E+03  0.105E-02    3.39       0.0  T
   2   -101.2209138 -0.611450E-07  0.619E-03    3.39       1.9  T
   3   -101.2209137  0.112319E-06  0.147E-03    3.39       7.8  T
   4   -101.2209138 -0.130118E-06  0.375E-04    3.39      30.6  T
   5   -101.2209138 -0.565682E-08  0.195E-04    3.39      58.8  T
     SCC iter.                  ...        0 min,  0.141 sec
     gradient                   ...        0 min,  0.046 sec
 * total energy  :   -99.8822452 Eh     change       -0.3298473E-05 Eh
   gradient norm :     0.0004196 Eh/α   predicted    -0.1877417E-05 ( -43.08%)
   displ. norm   :     0.0735010 α      lambda       -0.2550760E-05
   maximum displ.:     0.0464264 α      in ANC's #2, #3, #6, ...

........................................................................
.............................. CYCLE   84 ..............................
........................................................................

 iter      E             dE          RMSdq      gap      omega  full diag
   1   -101.2208448 -0.101221E+03  0.886E-03    3.39       0.0  T
   2   -101.2208448 -0.179888E-07  0.522E-03    3.39       2.2  T
   3   -101.2208448  0.449219E-07  0.924E-04    3.39      12.4  T
   4   -101.2208448 -0.534587E-07  0.198E-04    3.39      58.0  T
     SCC iter.                  ...        0 min,  0.076 sec
     gradient                   ...        0 min,  0.049 sec
 * total energy  :   -99.8822484 Eh     change       -0.3197018E-05 Eh
   gradient norm :     0.0003681 Eh/α   predicted    -0.1279810E-05 ( -59.97%)
   displ. norm   :     0.0891377 α      lambda       -0.3731443E-05
   maximum displ.:     0.0561388 α      in ANC's #2, #3, #6, ...

........................................................................
.............................. CYCLE   85 ..............................
........................................................................

 iter      E             dE          RMSdq      gap      omega  full diag
   1   -101.2208034 -0.101221E+03  0.103E-02    3.39       0.0  T
   2   -101.2208034 -0.188032E-07  0.606E-03    3.39       1.9  T
   3   -101.2208033  0.117486E-06  0.142E-03    3.39       8.1  T
   4   -101.2208034 -0.133625E-06  0.187E-04    3.39      61.5  T
   5   -101.2208034 -0.221775E-09  0.105E-04    3.39     109.3  T
     SCC iter.                  ...        0 min,  0.069 sec
     gradient                   ...        0 min,  0.038 sec
 * total energy  :   -99.8822528 Eh     change       -0.4373871E-05 Eh
   gradient norm :     0.0003769 Eh/α   predicted    -0.1873884E-05 ( -57.16%)
   displ. norm   :     0.0977918 α      lambda       -0.3204638E-05
   maximum displ.:     0.0627664 α      in ANC's #2, #3, #6, ...

........................................................................
.............................. CYCLE   86 ..............................
........................................................................

 iter      E             dE          RMSdq      gap      omega  full diag
   1   -101.2208244 -0.101221E+03  0.107E-02    3.39       0.0  T
   2   -101.2208245 -0.194053E-07  0.629E-03    3.39       1.8  T
   3   -101.2208244  0.100636E-06  0.133E-03    3.39       8.7  T
   4   -101.2208245 -0.115555E-06  0.195E-04    3.39      58.8  T
   5   -101.2208245 -0.369724E-09  0.108E-04    3.39     106.0  T
     SCC iter.                  ...        0 min,  0.140 sec
     gradient                   ...        0 min,  0.045 sec
 * total energy  :   -99.8822563 Eh     change       -0.3560717E-05 Eh
   gradient norm :     0.0003478 Eh/α   predicted    -0.1612302E-05 ( -54.72%)
   displ. norm   :     0.0777855 α      lambda       -0.2204240E-05
   maximum displ.:     0.0512528 α      in ANC's #2, #3, #6, ...

........................................................................
.............................. CYCLE   87 ..............................
........................................................................

 iter      E             dE          RMSdq      gap      omega  full diag
   1   -101.2208620 -0.101221E+03  0.864E-03    3.39       0.0  T
   2   -101.2208620 -0.112856E-07  0.508E-03    3.39       2.3  T
   3   -101.2208620  0.326584E-07  0.791E-04    3.39      14.5  T
   4   -101.2208620 -0.394935E-07  0.153E-04    3.39      75.0  T
     SCC iter.                  ...        0 min,  0.136 sec
     gradient                   ...        0 min,  0.050 sec
 * total energy  :   -99.8822591 Eh     change       -0.2710712E-05 Eh
   gradient norm :     0.0002880 Eh/α   predicted    -0.1109251E-05 ( -59.08%)
   displ. norm   :     0.0826390 α      lambda       -0.2588844E-05
   maximum displ.:     0.0548017 α      in ANC's #2, #3, #6, ...

........................................................................
.............................. CYCLE   88 ..............................
........................................................................

 iter      E             dE          RMSdq      gap      omega  full diag
   1   -101.2209131 -0.101221E+03  0.868E-03    3.39       0.0  T
   2   -101.2209131 -0.103018E-07  0.511E-03    3.39       2.2  T
   3   -101.2209130  0.397678E-07  0.845E-04    3.39      13.6  T
   4   -101.2209131 -0.468451E-07  0.139E-04    3.39      82.7  T
     SCC iter.                  ...        0 min,  0.080 sec
     gradient                   ...        0 min,  0.051 sec
 * total energy  :   -99.8822625 Eh     change       -0.3394414E-05 Eh
   gradient norm :     0.0002737 Eh/α   predicted    -0.1303075E-05 ( -61.61%)
   displ. norm   :     0.1157121 α      lambda       -0.3754688E-05
   maximum displ.:     0.0765537 α      in ANC's #2, #3, #6, ...

........................................................................
.............................. CYCLE   89 ..............................
........................................................................

 iter      E             dE          RMSdq      gap      omega  full diag
   1   -101.2208642 -0.101221E+03  0.121E-02    3.39       0.0  T
   2   -101.2208642 -0.186937E-07  0.713E-03    3.39       1.6  T
   3   -101.2208641  0.632437E-07  0.107E-03    3.39      10.7  T
   4   -101.2208642 -0.757006E-07  0.187E-04    3.39      61.3  T
   5   -101.2208642 -0.253280E-09  0.107E-04    3.39     107.1  T
     SCC iter.                  ...        0 min,  0.077 sec
     gradient                   ...        0 min,  0.039 sec
 * total energy  :   -99.8822673 Eh     change       -0.4805236E-05 Eh
   gradient norm :     0.0002912 Eh/α   predicted    -0.1893482E-05 ( -60.60%)
   displ. norm   :     0.1506768 α      lambda       -0.4402985E-05
   maximum displ.:     0.0997712 α      in ANC's #2, #3, #6, ...

........................................................................
.............................. CYCLE   90 ..............................
........................................................................

 iter      E             dE          RMSdq      gap      omega  full diag
   1   -101.2207828 -0.101221E+03  0.152E-02    3.39       0.0  T
   2   -101.2207829 -0.299067E-07  0.894E-03    3.39       1.3  T
   3   -101.2207828  0.806568E-07  0.122E-03    3.39       9.4  T
   4   -101.2207829 -0.977471E-07  0.237E-04    3.39      48.3  T
   5   -101.2207829 -0.706549E-09  0.134E-04    3.39      85.4  T
     SCC iter.                  ...        0 min,  0.077 sec
     gradient                   ...        0 min,  0.039 sec
 * total energy  :   -99.8822729 Eh     change       -0.5605222E-05 Eh
   gradient norm :     0.0003123 Eh/α   predicted    -0.2227020E-05 ( -60.27%)
   displ. norm   :     0.1701733 α      lambda       -0.4540219E-05
   maximum displ.:     0.1129024 α      in ANC's #2, #3, #6, ...

........................................................................
.............................. CYCLE   91 ..............................
........................................................................

 iter      E             dE          RMSdq      gap      omega  full diag
   1   -101.2206885 -0.101221E+03  0.169E-02    3.39       0.0  T
   2   -101.2206886 -0.367147E-07  0.994E-03    3.39       1.2  T
   3   -101.2206885  0.881759E-07  0.126E-03    3.39       9.1  T
   4   -101.2206886 -0.107034E-06  0.258E-04    3.39      44.5  T
   5   -101.2206886 -0.123367E-08  0.129E-04    3.39      88.9  T
     SCC iter.                  ...        0 min,  0.078 sec
     gradient                   ...        0 min,  0.039 sec
 * total energy  :   -99.8822788 Eh     change       -0.5886392E-05 Eh
   gradient norm :     0.0003058 Eh/α   predicted    -0.2302748E-05 ( -60.88%)
   displ. norm   :     0.1967920 α      lambda       -0.5217923E-05
   maximum displ.:     0.1305777 α      in ANC's #2, #3, #6, ...

........................................................................
.............................. CYCLE   92 ..............................
........................................................................

 iter      E             dE          RMSdq      gap      omega  full diag
   1   -101.2206666 -0.101221E+03  0.189E-02    3.39       0.0  T
   2   -101.2206666 -0.423415E-07  0.111E-02    3.39       1.0  T
   3   -101.2206665  0.128317E-06  0.149E-03    3.39       7.7  T
   4   -101.2206666 -0.152654E-06  0.266E-04    3.39      43.1  T
   5   -101.2206666 -0.995968E-09  0.122E-04    3.39      94.0  T
     SCC iter.                  ...        0 min,  0.770 sec
     gradient                   ...        0 min,  0.106 sec
 * total energy  :   -99.8822856 Eh     change       -0.6876984E-05 Eh
   gradient norm :     0.0003305 Eh/α   predicted    -0.2657265E-05 ( -61.36%)
   displ. norm   :     0.2513115 α      lambda       -0.6688473E-05
   maximum displ.:     0.1670350 α      in ANC's #2, #3, #6, ...
 * RMSD in coord.:     0.2589167 α      energy gain  -0.1897115E-03 Eh

generating ANC from exact Hessian ...
Using Lindh-Hessian (1995)
 Shifting diagonal of input Hessian by    9.9640515545532504E-003
 Lowest  eigenvalues of input Hessian
    0.000000    0.000000    0.000000    0.000000    0.000000    0.000000
    0.010000    0.010005    0.010068    0.010150    0.010265    0.010285
    0.010463    0.010617    0.010695    0.010858    0.011154    0.011368
 Highest eigenvalues
    1.741247    1.918369    1.924429    2.064107    2.071548    2.395864


........................................................................
.............................. CYCLE   93 ..............................
........................................................................

 iter      E             dE          RMSdq      gap      omega  full diag
   1   -101.2205775 -0.101221E+03  0.240E-02    3.39       0.0  T
   2   -101.2205776 -0.686675E-07  0.141E-02    3.39       1.0  T
   3   -101.2205773  0.238847E-06  0.203E-03    3.39       5.7  T
   4   -101.2205776 -0.281002E-06  0.337E-04    3.39      34.0  T
   5   -101.2205776 -0.126661E-08  0.172E-04    3.39      66.6  T
     SCC iter.                  ...        0 min,  0.138 sec
     gradient                   ...        0 min,  0.055 sec
 * total energy  :   -99.8822944 Eh     change       -0.8780007E-05 Eh
   gradient norm :     0.0004439 Eh/α   predicted     0.0000000E+00 (-100.00%)
   displ. norm   :     0.0155329 α      lambda       -0.2275987E-06
   maximum displ.:     0.0060456 α      in ANC's #2, #8, #16, ...

........................................................................
.............................. CYCLE   94 ..............................
........................................................................

 iter      E             dE          RMSdq      gap      omega  full diag
   1   -101.2209362 -0.101221E+03  0.268E-03    3.39       0.0  T
   2   -101.2209362 -0.120593E-07  0.158E-03    3.39       7.3  T
   3   -101.2209362  0.164010E-07  0.626E-04    3.39      18.3  T
   4   -101.2209362 -0.194594E-07  0.155E-04    3.39      73.9  T
     SCC iter.                  ...        0 min,  0.070 sec
     gradient                   ...        0 min,  0.055 sec
 * total energy  :   -99.8822968 Eh     change       -0.2423263E-05 Eh
   gradient norm :     0.0002335 Eh/α   predicted    -0.9947617E-06 ( -58.95%)
   displ. norm   :     0.0559478 α      lambda       -0.4981816E-05
   maximum displ.:     0.0226655 α      in ANC's #2, #8, #29, ...

........................................................................
.............................. CYCLE   95 ..............................
........................................................................

 iter      E             dE          RMSdq      gap      omega  full diag
   1   -101.2213203 -0.101221E+03  0.773E-03    3.39       0.0  T
   2   -101.2213203 -0.478371E-07  0.458E-03    3.39       2.5  T
   3   -101.2213202  0.932994E-07  0.140E-03    3.39       8.2  T
   4   -101.2213204 -0.110058E-06  0.309E-04    3.39      37.1  T
   5   -101.2213204 -0.355600E-08  0.170E-04    3.39      67.4  T
     SCC iter.                  ...        0 min,  0.139 sec
     gradient                   ...        0 min,  0.058 sec
 * total energy  :   -99.8823016 Eh     change       -0.4746728E-05 Eh
   gradient norm :     0.0005718 Eh/α   predicted    -0.2496472E-05 ( -47.41%)
   displ. norm   :     0.0385141 α      lambda       -0.1991154E-05
   maximum displ.:     0.0186739 α      in ANC's #2, #8, #29, ...

........................................................................
.............................. CYCLE   96 ..............................
........................................................................

 iter      E             dE          RMSdq      gap      omega  full diag
   1   -101.2210829 -0.101221E+03  0.498E-03    3.39       0.0  T
   2   -101.2210829 -0.130517E-07  0.295E-03    3.39       3.9  T
   3   -101.2210829  0.133364E-07  0.577E-04    3.39      19.9  T
   4   -101.2210829 -0.175339E-07  0.191E-04    3.39      60.2  T
     SCC iter.                  ...        0 min,  0.108 sec
     gradient                   ...        0 min,  0.064 sec
 * total energy  :   -99.8823035 Eh     change       -0.1916243E-05 Eh
   gradient norm :     0.0004170 Eh/α   predicted    -0.9979153E-06 ( -47.92%)
   displ. norm   :     0.0332120 α      lambda       -0.1452415E-05
   maximum displ.:     0.0183805 α      in ANC's #2, #8, #29, ...

........................................................................
.............................. CYCLE   97 ..............................
........................................................................

 iter      E             dE          RMSdq      gap      omega  full diag
   1   -101.2209458 -0.101221E+03  0.334E-03    3.39       0.0  T
   2   -101.2209458 -0.511287E-08  0.198E-03    3.39       5.8  T
   3   -101.2209458  0.105591E-07  0.461E-04    3.39      24.9  T
   4   -101.2209458 -0.127368E-07  0.118E-04    3.39      97.0  T
     SCC iter.                  ...        0 min,  0.111 sec
     gradient                   ...        0 min,  0.066 sec
 * total energy  :   -99.8823052 Eh     change       -0.1671877E-05 Eh
   gradient norm :     0.0002402 Eh/α   predicted    -0.7284928E-06 ( -56.43%)
   displ. norm   :     0.0456176 α      lambda       -0.2025878E-05
   maximum displ.:     0.0266514 α      in ANC's #2, #8, #29, ...

........................................................................
.............................. CYCLE   98 ..............................
........................................................................

 iter      E             dE          RMSdq      gap      omega  full diag
   1   -101.2208088 -0.101221E+03  0.445E-03    3.39       0.0  T
   2   -101.2208088 -0.102675E-07  0.265E-03    3.39       4.3  T
   3   -101.2208088  0.192477E-07  0.616E-04    3.39      18.6  T
   4   -101.2208088 -0.225554E-07  0.144E-04    3.39      79.6  T
     SCC iter.                  ...        0 min,  0.073 sec
     gradient                   ...        0 min,  0.057 sec
 * total energy  :   -99.8823075 Eh     change       -0.2331422E-05 Eh
   gradient norm :     0.0003723 Eh/α   predicted    -0.1014860E-05 ( -56.47%)
   displ. norm   :     0.0579228 α      lambda       -0.2137861E-05
   maximum displ.:     0.0347625 α      in ANC's #2, #8, #29, ...

........................................................................
.............................. CYCLE   99 ..............................
........................................................................

 iter      E             dE          RMSdq      gap      omega  full diag
   1   -101.2207306 -0.101221E+03  0.573E-03    3.39       0.0  T
   2   -101.2207306 -0.113866E-07  0.340E-03    3.39       3.4  T
   3   -101.2207306  0.330918E-07  0.785E-04    3.39      14.6  T
   4   -101.2207306 -0.382203E-07  0.155E-04    3.39      74.0  T
     SCC iter.                  ...        0 min,  0.293 sec
     gradient                   ...        0 min,  0.069 sec
 * total energy  :   -99.8823098 Eh     change       -0.2267359E-05 Eh
   gradient norm :     0.0005178 Eh/α   predicted    -0.1072025E-05 ( -52.72%)
   displ. norm   :     0.0579228 α      lambda        0.0000000E+00
   maximum displ.:     0.0347625 α      in ANC's #2, #8, #29, ...

........................................................................
.............................. CYCLE  100 ..............................
........................................................................

 iter      E             dE          RMSdq      gap      omega  full diag
   1   -101.2206186 -0.101221E+03  0.573E-03    3.39       0.0  T
   2   -101.2206187 -0.117637E-07  0.340E-03    3.39       3.4  T
   3   -101.2206186  0.358126E-07  0.812E-04    3.39      14.1  T
   4   -101.2206187 -0.411550E-07  0.160E-04    3.39      71.6  T
     SCC iter.                  ...        0 min,  0.192 sec
     gradient                   ...        0 min,  0.081 sec
 * total energy  :   -99.8823101 Eh     change       -0.3022395E-06 Eh
   gradient norm :     0.0008170 Eh/α   predicted     0.1110801E-08 (-100.37%)
   displ. norm   :     0.0093206 α      lambda       -0.1320568E-05
   maximum displ.:     0.0054682 α      in ANC's #2, #3, #20, ...

........................................................................
.............................. CYCLE  101 ..............................
........................................................................

 iter      E             dE          RMSdq      gap      omega  full diag
   1   -101.2208406 -0.101221E+03  0.203E-03    3.39       0.0  T
   2   -101.2208406 -0.104201E-07  0.119E-03    3.39       9.6  T
   3   -101.2208406  0.789630E-08  0.471E-04    3.39      24.4  T
   4   -101.2208406 -0.934781E-08  0.134E-04    3.39      85.4  T
     SCC iter.                  ...        0 min,  0.079 sec
     gradient                   ...        0 min,  0.044 sec
 * total energy  :   -99.8823115 Eh     change       -0.1397246E-05 Eh
   gradient norm :     0.0004254 Eh/α   predicted    -0.6606547E-06 ( -52.72%)
   displ. norm   :     0.0184917 α      lambda       -0.1274307E-05
   maximum displ.:     0.0104890 α      in ANC's #2, #3, #11, ...

........................................................................
.............................. CYCLE  102 ..............................
........................................................................

 iter      E             dE          RMSdq      gap      omega  full diag
   1   -101.2210729 -0.101221E+03  0.241E-03    3.39       0.0  T
   2   -101.2210729 -0.210175E-07  0.141E-03    3.39       8.2  T
   3   -101.2210729  0.967013E-08  0.621E-04    3.39      18.5  T
   4   -101.2210729 -0.130992E-07  0.161E-04    3.39      71.1  T
     SCC iter.                  ...        0 min,  0.061 sec
     gradient                   ...        0 min,  0.042 sec
 * total energy  :   -99.8823128 Eh     change       -0.1366562E-05 Eh
   gradient norm :     0.0002489 Eh/α   predicted    -0.6376843E-06 ( -53.34%)
   displ. norm   :     0.0261583 α      lambda       -0.9714628E-06
   maximum displ.:     0.0167215 α      in ANC's #2, #3, #11, ...

........................................................................
.............................. CYCLE  103 ..............................
........................................................................

 iter      E             dE          RMSdq      gap      omega  full diag
   1   -101.2211259 -0.101221E+03  0.281E-03    3.39       0.0  T
   2   -101.2211259 -0.100294E-07  0.166E-03    3.39       6.9  T
   3   -101.2211259  0.129518E-07  0.545E-04    3.39      21.0  T
   4   -101.2211259 -0.154133E-07  0.120E-04    3.39      95.6  T
     SCC iter.                  ...        0 min,  0.088 sec
     gradient                   ...        0 min,  0.068 sec
 * total energy  :   -99.8823139 Eh     change       -0.1117538E-05 Eh
   gradient norm :     0.0003717 Eh/α   predicted    -0.4877213E-06 ( -56.36%)
   displ. norm   :     0.0303312 α      lambda       -0.9101769E-06
   maximum displ.:     0.0200134 α      in ANC's #2, #3, #11, ...

........................................................................
.............................. CYCLE  104 ..............................
........................................................................

 iter      E             dE          RMSdq      gap      omega  full diag
   1   -101.2210843 -0.101221E+03  0.294E-03    3.39       0.0  T
   2   -101.2210843 -0.271380E-08  0.174E-03    3.39       6.6  T
   3   -101.2210843  0.511989E-08  0.320E-04    3.39      35.9  T
   4   -101.2210843 -0.624786E-08  0.670E-05    3.39     171.1  T
     SCC iter.                  ...        0 min,  0.129 sec
     gradient                   ...        0 min,  0.067 sec
 * total energy  :   -99.8823151 Eh     change       -0.1130873E-05 Eh
   gradient norm :     0.0003908 Eh/α   predicted    -0.4560804E-06 ( -59.67%)
   displ. norm   :     0.0365603 α      lambda       -0.1049468E-05
   maximum displ.:     0.0246107 α      in ANC's #2, #3, #4, ...

........................................................................
.............................. CYCLE  105 ..............................
........................................................................

 iter      E             dE          RMSdq      gap      omega  full diag
   1   -101.2209725 -0.101221E+03  0.332E-03    3.39       0.0  T
   2   -101.2209725 -0.315305E-08  0.195E-03    3.39       5.9  T
   3   -101.2209725  0.489202E-08  0.311E-04    3.39      36.8  T
   4   -101.2209725 -0.582689E-08  0.804E-05    3.39     142.7  T
     SCC iter.                  ...        0 min,  0.079 sec
     gradient                   ...        0 min,  0.063 sec
 * total energy  :   -99.8823164 Eh     change       -0.1365085E-05 Eh
   gradient norm :     0.0002964 Eh/α   predicted    -0.5263395E-06 ( -61.44%)
   displ. norm   :     0.0466285 α      lambda       -0.1269178E-05
   maximum displ.:     0.0319982 α      in ANC's #2, #3, #4, ...

........................................................................
.............................. CYCLE  106 ..............................
........................................................................

 iter      E             dE          RMSdq      gap      omega  full diag
   1   -101.2208819 -0.101221E+03  0.378E-03    3.39       0.0  T
   2   -101.2208819 -0.799794E-08  0.222E-03    3.39       5.2  T
   3   -101.2208819  0.129699E-07  0.496E-04    3.39      23.1  T
   4   -101.2208819 -0.143327E-07  0.131E-04    3.39      87.4  T
     SCC iter.                  ...        0 min,  0.133 sec
     gradient                   ...        0 min,  0.069 sec
 * total energy  :   -99.8823181 Eh     change       -0.1675690E-05 Eh
   gradient norm :     0.0002239 Eh/α   predicted    -0.6387491E-06 ( -61.88%)
   displ. norm   :     0.0552818 α      lambda       -0.1398324E-05
   maximum displ.:     0.0382266 α      in ANC's #2, #3, #8, ...

........................................................................
.............................. CYCLE  107 ..............................
........................................................................

 iter      E             dE          RMSdq      gap      omega  full diag
   1   -101.2208516 -0.101221E+03  0.454E-03    3.39       0.0  T
   2   -101.2208516 -0.946397E-08  0.267E-03    3.39       4.3  T
   3   -101.2208516  0.854503E-08  0.421E-04    3.39      27.2  T
   4   -101.2208516 -0.994041E-08  0.124E-04    3.39      92.3  T
     SCC iter.                  ...        0 min,  0.073 sec
     gradient                   ...        0 min,  0.057 sec
 * total energy  :   -99.8823200 Eh     change       -0.1854993E-05 Eh
   gradient norm :     0.0002686 Eh/α   predicted    -0.7044263E-06 ( -62.03%)
   displ. norm   :     0.0614116 α      lambda       -0.1481520E-05
   maximum displ.:     0.0426064 α      in ANC's #2, #3, #8, ...

........................................................................
.............................. CYCLE  108 ..............................
........................................................................

 iter      E             dE          RMSdq      gap      omega  full diag
   1   -101.2208864 -0.101221E+03  0.494E-03    3.39       0.0  T
   2   -101.2208864 -0.695341E-08  0.291E-03    3.39       3.9  T
   3   -101.2208864  0.571856E-08  0.347E-04    3.39      33.1  T
   4   -101.2208864 -0.684599E-08  0.115E-04    3.39      99.7  T
     SCC iter.                  ...        0 min,  0.058 sec
     gradient                   ...        0 min,  0.033 sec
 * total energy  :   -99.8823220 Eh     change       -0.2001279E-05 Eh
   gradient norm :     0.0003368 Eh/α   predicted    -0.7446029E-06 ( -62.79%)
   displ. norm   :     0.0666449 α      lambda       -0.1618131E-05
   maximum displ.:     0.0461831 α      in ANC's #2, #3, #8, ...

........................................................................
.............................. CYCLE  109 ..............................
........................................................................

 iter      E             dE          RMSdq      gap      omega  full diag
   1   -101.2209527 -0.101221E+03  0.551E-03    3.39       0.0  T
   2   -101.2209527 -0.473489E-08  0.325E-03    3.39       3.5  T
   3   -101.2209527  0.615150E-08  0.360E-04    3.39      31.9  T
   4   -101.2209527 -0.794120E-08  0.893E-05    3.39     128.4  T
     SCC iter.                  ...        0 min,  0.069 sec
     gradient                   ...        0 min,  0.034 sec
 * total energy  :   -99.8823242 Eh     change       -0.2230772E-05 Eh
   gradient norm :     0.0003307 Eh/α   predicted    -0.8150018E-06 ( -63.47%)
   displ. norm   :     0.0782330 α      lambda       -0.1930737E-05
   maximum displ.:     0.0541833 α      in ANC's #2, #3, #8, ...

........................................................................
.............................. CYCLE  110 ..............................
........................................................................

 iter      E             dE          RMSdq      gap      omega  full diag
   1   -101.2210156 -0.101221E+03  0.668E-03    3.39       0.0  T
   2   -101.2210156 -0.790678E-08  0.393E-03    3.39       2.9  T
   3   -101.2210156  0.152672E-07  0.549E-04    3.39      20.9  T
   4   -101.2210156 -0.186395E-07  0.121E-04    3.39      94.7  T
     SCC iter.                  ...        0 min,  0.056 sec
     gradient                   ...        0 min,  0.040 sec
 * total energy  :   -99.8823268 Eh     change       -0.2620269E-05 Eh
   gradient norm :     0.0002657 Eh/α   predicted    -0.9724345E-06 ( -62.89%)
   displ. norm   :     0.0898030 α      lambda       -0.2123407E-05
   maximum displ.:     0.0623387 α      in ANC's #2, #3, #6, ...

........................................................................
.............................. CYCLE  111 ..............................
........................................................................

 iter      E             dE          RMSdq      gap      omega  full diag
   1   -101.2210495 -0.101221E+03  0.758E-03    3.39       0.0  T
   2   -101.2210495 -0.134476E-07  0.446E-03    3.39       2.6  T
   3   -101.2210495  0.136671E-07  0.558E-04    3.39      20.6  T
   4   -101.2210495 -0.180269E-07  0.147E-04    3.39      78.1  T
     SCC iter.                  ...        0 min,  0.135 sec
     gradient                   ...        0 min,  0.035 sec
 * total energy  :   -99.8823297 Eh     change       -0.2835779E-05 Eh
   gradient norm :     0.0001643 Eh/α   predicted    -0.1069352E-05 ( -62.29%)
   displ. norm   :     0.0924800 α      lambda       -0.1991765E-05
   maximum displ.:     0.0644779 α      in ANC's #2, #3, #6, ...

........................................................................
.............................. CYCLE  112 ..............................
........................................................................

 iter      E             dE          RMSdq      gap      omega  full diag
   1   -101.2210646 -0.101221E+03  0.791E-03    3.39       0.0  T
   2   -101.2210646 -0.147268E-07  0.466E-03    3.39       2.5  T
   3   -101.2210646  0.240907E-07  0.699E-04    3.39      16.4  T
   4   -101.2210646 -0.295493E-07  0.162E-04    3.39      70.8  T
     SCC iter.                  ...        0 min,  0.106 sec
     gradient                   ...        0 min,  0.050 sec
 * total energy  :   -99.8823324 Eh     change       -0.2704974E-05 Eh
   gradient norm :     0.0001317 Eh/α   predicted    -0.1003005E-05 ( -62.92%)
   displ. norm   :     0.0864475 α      lambda       -0.1790233E-05
   maximum displ.:     0.0605309 α      in ANC's #2, #3, #6, ...

........................................................................
.............................. CYCLE  113 ..............................
........................................................................

 iter      E             dE          RMSdq      gap      omega  full diag
   1   -101.2210681 -0.101221E+03  0.722E-03    3.39       0.0  T
   2   -101.2210681 -0.110759E-07  0.425E-03    3.39       2.7  T
   3   -101.2210681  0.132641E-07  0.539E-04    3.39      21.3  T
   4   -101.2210681 -0.172791E-07  0.157E-04    3.39      73.1  T
     SCC iter.                  ...        0 min,  0.063 sec
     gradient                   ...        0 min,  0.042 sec
 * total energy  :   -99.8823349 Eh     change       -0.2516616E-05 Eh
   gradient norm :     0.0001825 Eh/α   predicted    -0.9009430E-06 ( -64.20%)
   displ. norm   :     0.0859473 α      lambda       -0.1866865E-05
   maximum displ.:     0.0601742 α      in ANC's #2, #3, #6, ...

........................................................................
.............................. CYCLE  114 ..............................
........................................................................

 iter      E             dE          RMSdq      gap      omega  full diag
   1   -101.2210649 -0.101221E+03  0.711E-03    3.39       0.0  T
   2   -101.2210649 -0.823744E-08  0.418E-03    3.39       2.7  T
   3   -101.2210648  0.284847E-07  0.700E-04    3.39      16.4  T
   4   -101.2210649 -0.333392E-07  0.134E-04    3.39      85.4  T
     SCC iter.                  ...        0 min,  0.066 sec
     gradient                   ...        0 min,  0.033 sec
 * total energy  :   -99.8823376 Eh     change       -0.2680953E-05 Eh
   gradient norm :     0.0002198 Eh/α   predicted    -0.9389592E-06 ( -64.98%)
   displ. norm   :     0.1018685 α      lambda       -0.2355781E-05
   maximum displ.:     0.0711443 α      in ANC's #2, #3, #6, ...

........................................................................
.............................. CYCLE  115 ..............................
........................................................................

 iter      E             dE          RMSdq      gap      omega  full diag
   1   -101.2210416 -0.101221E+03  0.858E-03    3.39       0.0  T
   2   -101.2210416 -0.102555E-07  0.505E-03    3.39       2.3  T
   3   -101.2210416  0.361625E-07  0.787E-04    3.39      14.6  T
   4   -101.2210416 -0.426125E-07  0.146E-04    3.39      78.6  T
     SCC iter.                  ...        0 min,  0.062 sec
     gradient                   ...        0 min,  0.051 sec
 * total energy  :   -99.8823409 Eh     change       -0.3372563E-05 Eh
   gradient norm :     0.0002210 Eh/α   predicted    -0.1186095E-05 ( -64.83%)
   displ. norm   :     0.1347091 α      lambda       -0.3150472E-05
   maximum displ.:     0.0938586 α      in ANC's #2, #3, #6, ...

........................................................................
.............................. CYCLE  116 ..............................
........................................................................

 iter      E             dE          RMSdq      gap      omega  full diag
   1   -101.2209971 -0.101221E+03  0.115E-02    3.39       0.0  T
   2   -101.2209972 -0.168131E-07  0.676E-03    3.39       1.7  T
   3   -101.2209971  0.950611E-07  0.124E-03    3.39       9.3  T
   4   -101.2209972 -0.108623E-06  0.175E-04    3.39      65.4  T
   5   -101.2209972 -0.252143E-09  0.909E-05    3.39     126.2  T
     SCC iter.                  ...        0 min,  0.123 sec
     gradient                   ...        0 min,  0.065 sec
 * total energy  :   -99.8823454 Eh     change       -0.4445545E-05 Eh
   gradient norm :     0.0001898 Eh/α   predicted    -0.1588365E-05 ( -64.27%)
   displ. norm   :     0.1729951 α      lambda       -0.3862425E-05
   maximum displ.:     0.1204709 α      in ANC's #2, #3, #6, ...

........................................................................
.............................. CYCLE  117 ..............................
........................................................................

 iter      E             dE          RMSdq      gap      omega  full diag
   1   -101.2209132 -0.101221E+03  0.152E-02    3.39       0.0  T
   2   -101.2209132 -0.296535E-07  0.893E-03    3.39       1.3  T
   3   -101.2209131  0.120074E-06  0.141E-03    3.39       8.1  T
   4   -101.2209132 -0.139708E-06  0.226E-04    3.39      50.7  T
   5   -101.2209132 -0.554124E-09  0.111E-04    3.39     103.1  T
     SCC iter.                  ...        0 min,  0.097 sec
     gradient                   ...        0 min,  0.050 sec
 * total energy  :   -99.8823508 Eh     change       -0.5373863E-05 Eh
   gradient norm :     0.0001843 Eh/α   predicted    -0.1957294E-05 ( -63.58%)
   displ. norm   :     0.2010799 α      lambda       -0.4197659E-05
   maximum displ.:     0.1400858 α      in ANC's #2, #3, #6, ...

........................................................................
.............................. CYCLE  118 ..............................
........................................................................

 iter      E             dE          RMSdq      gap      omega  full diag
   1   -101.2208252 -0.101221E+03  0.179E-02    3.39       0.0  T
   2   -101.2208253 -0.403555E-07  0.105E-02    3.39       1.1  T
   3   -101.2208251  0.179292E-06  0.172E-03    3.39       6.7  T
   4   -101.2208253 -0.207153E-06  0.260E-04    3.39      44.2  T
   5   -101.2208253 -0.676550E-09  0.127E-04    3.39      90.2  T
     SCC iter.                  ...        0 min,  0.082 sec
     gradient                   ...        0 min,  0.040 sec
 * total energy  :   -99.8823566 Eh     change       -0.5813402E-05 Eh
   gradient norm :     0.0002673 Eh/α   predicted    -0.2137086E-05 ( -63.24%)
   displ. norm   :     0.2129865 α      lambda       -0.4297002E-05
   maximum displ.:     0.1485504 α      in ANC's #2, #3, #6, ...

........................................................................
.............................. CYCLE  119 ..............................
........................................................................

 iter      E             dE          RMSdq      gap      omega  full diag
   1   -101.2207481 -0.101221E+03  0.195E-02    3.39       0.0  T
   2   -101.2207482 -0.467384E-07  0.115E-02    3.39       1.0  T
   3   -101.2207480  0.117072E-06  0.144E-03    3.39       8.0  T
   4   -101.2207482 -0.141773E-06  0.282E-04    3.39      40.7  T
   5   -101.2207482 -0.118871E-08  0.130E-04    3.39      88.5  T
     SCC iter.                  ...        0 min,  0.077 sec
     gradient                   ...        0 min,  0.041 sec
 * total energy  :   -99.8823626 Eh     change       -0.5990025E-05 Eh
   gradient norm :     0.0003752 Eh/α   predicted    -0.2193002E-05 ( -63.39%)
   displ. norm   :     0.2332626 α      lambda       -0.4804520E-05
   maximum displ.:     0.1628514 α      in ANC's #2, #3, #6, ...

........................................................................
.............................. CYCLE  120 ..............................
........................................................................

 iter      E             dE          RMSdq      gap      omega  full diag
   1   -101.2206893 -0.101221E+03  0.216E-02    3.39       0.0  T
   2   -101.2206894 -0.556378E-07  0.127E-02    3.39       1.0  T
   3   -101.2206892  0.163827E-06  0.168E-03    3.39       6.8  T
   4   -101.2206894 -0.195549E-06  0.304E-04    3.39      37.7  T
   5   -101.2206894 -0.119564E-08  0.142E-04    3.39      81.0  T
     SCC iter.                  ...        0 min,  0.148 sec
     gradient                   ...        0 min,  0.040 sec
 * total energy  :   -99.8823693 Eh     change       -0.6751803E-05 Eh
   gradient norm :     0.0004714 Eh/α   predicted    -0.2462016E-05 ( -63.54%)
   displ. norm   :     0.2792007 α      lambda       -0.6050392E-05
   maximum displ.:     0.1952078 α      in ANC's #2, #3, #6, ...
 * RMSD in coord.:     0.2564130 α      energy gain  -0.8368497E-04 Eh

generating ANC from exact Hessian ...
Using Lindh-Hessian (1995)
 Shifting diagonal of input Hessian by    9.9640460011758674E-003
 Lowest  eigenvalues of input Hessian
    0.000000    0.000000    0.000000    0.000000    0.000000    0.000000
    0.010000    0.010005    0.010068    0.010152    0.010265    0.010287
    0.010458    0.010627    0.010697    0.010865    0.011161    0.011372
 Highest eigenvalues
    1.741787    1.918481    1.923611    2.064647    2.071184    2.395764


........................................................................
.............................. CYCLE  121 ..............................
........................................................................

 iter      E             dE          RMSdq      gap      omega  full diag
   1   -101.2206076 -0.101221E+03  0.264E-02    3.39       0.0  T
   2   -101.2206077 -0.823234E-07  0.155E-02    3.39       1.0  T
   3   -101.2206076  0.123205E-06  0.155E-03    3.39       7.4  T
   4   -101.2206078 -0.159998E-06  0.378E-04    3.39      30.4  T
   5   -101.2206078 -0.269868E-08  0.167E-04    3.39      68.8  T
     SCC iter.                  ...        0 min,  0.085 sec
     gradient                   ...        0 min,  0.039 sec
 * total energy  :   -99.8823778 Eh     change       -0.8490095E-05 Eh
   gradient norm :     0.0005877 Eh/α   predicted     0.0000000E+00 (-100.00%)
   displ. norm   :     0.0140497 α      lambda       -0.3735277E-06
   maximum displ.:     0.0054828 α      in ANC's #2, #18, #17, ...

........................................................................
.............................. CYCLE  122 ..............................
........................................................................

 iter      E             dE          RMSdq      gap      omega  full diag
   1   -101.2212004 -0.101221E+03  0.269E-03    3.39       0.0  T
   2   -101.2212004 -0.161146E-07  0.156E-03    3.39       7.4  T
   3   -101.2212004  0.825042E-08  0.483E-04    3.39      23.8  T
   4   -101.2212004 -0.908337E-08  0.173E-04    3.39      66.2  T
     SCC iter.                  ...        0 min,  0.089 sec
     gradient                   ...        0 min,  0.059 sec
 * total energy  :   -99.8823797 Eh     change       -0.1885739E-05 Eh
   gradient norm :     0.0002395 Eh/α   predicted    -0.9118151E-06 ( -51.65%)
   displ. norm   :     0.0308583 α      lambda       -0.2073438E-05
   maximum displ.:     0.0126445 α      in ANC's #2, #18, #17, ...

........................................................................
.............................. CYCLE  123 ..............................
........................................................................

 iter      E             dE          RMSdq      gap      omega  full diag
   1   -101.2215131 -0.101222E+03  0.458E-03    3.39       0.0  T
   2   -101.2215132 -0.921796E-08  0.270E-03    3.39       4.3  T
   3   -101.2215131  0.470335E-07  0.893E-04    3.39      12.8  T
   4   -101.2215132 -0.527272E-07  0.121E-04    3.39      95.0  T
     SCC iter.                  ...        0 min,  0.078 sec
     gradient                   ...        0 min,  0.049 sec
 * total energy  :   -99.8823821 Eh     change       -0.2377123E-05 Eh
   gradient norm :     0.0005022 Eh/α   predicted    -0.1038632E-05 ( -56.31%)
   displ. norm   :     0.0656903 α      lambda       -0.3366424E-05
   maximum displ.:     0.0281267 α      in ANC's #2, #18, #9, ...

........................................................................
.............................. CYCLE  124 ..............................
........................................................................

 iter      E             dE          RMSdq      gap      omega  full diag
   1   -101.2214491 -0.101221E+03  0.934E-03    3.39       0.0  T
   2   -101.2214491 -0.150393E-07  0.551E-03    3.39       2.1  T
   3   -101.2214490  0.123017E-06  0.141E-03    3.39       8.1  T
   4   -101.2214491 -0.137928E-06  0.169E-04    3.39      67.8  T
   5   -101.2214491 -0.455813E-09  0.988E-05    3.39     116.2  T
     SCC iter.                  ...        0 min,  0.088 sec
     gradient                   ...        0 min,  0.054 sec
 * total energy  :   -99.8823851 Eh     change       -0.3083499E-05 Eh
   gradient norm :     0.0006109 Eh/α   predicted    -0.1687166E-05 ( -45.28%)
   displ. norm   :     0.0395486 α      lambda       -0.1597778E-05
   maximum displ.:     0.0198667 α      in ANC's #2, #9, #14, ...

........................................................................
.............................. CYCLE  125 ..............................
........................................................................

 iter      E             dE          RMSdq      gap      omega  full diag
   1   -101.2212351 -0.101221E+03  0.561E-03    3.39       0.0  T
   2   -101.2212351 -0.918064E-08  0.330E-03    3.39       3.5  T
   3   -101.2212351  0.158279E-07  0.557E-04    3.39      20.6  T
   4   -101.2212352 -0.192661E-07  0.137E-04    3.39      84.0  T
     SCC iter.                  ...        0 min,  0.078 sec
     gradient                   ...        0 min,  0.053 sec
 * total energy  :   -99.8823867 Eh     change       -0.1600662E-05 Eh
   gradient norm :     0.0003586 Eh/α   predicted    -0.8000132E-06 ( -50.02%)
   displ. norm   :     0.0360045 α      lambda        0.2038252E-06
   maximum displ.:     0.0179877 α      in ANC's #2, #9, #14, ...

........................................................................
.............................. CYCLE  126 ..............................
........................................................................

 iter      E             dE          RMSdq      gap      omega  full diag
   1   -101.2210212 -0.101221E+03  0.515E-03    3.39       0.0  T
   2   -101.2210212 -0.766643E-08  0.303E-03    3.39       3.8  T
   3   -101.2210212  0.162357E-07  0.553E-04    3.39      20.7  T
   4   -101.2210212 -0.194402E-07  0.130E-04    3.39      88.3  T
     SCC iter.                  ...        0 min,  0.062 sec
     gradient                   ...        0 min,  0.047 sec
 * total energy  :   -99.8823867 Eh     change        0.4166512E-07 Eh
   gradient norm :     0.0005480 Eh/α   predicted     0.9840573E-07 ( 136.18%)
   displ. norm   :     0.0107948 α      lambda       -0.1343648E-05
   maximum displ.:     0.0048443 α      in ANC's #17, #21, #18, ...

........................................................................
.............................. CYCLE  127 ..............................
........................................................................

 iter      E             dE          RMSdq      gap      omega  full diag
   1   -101.2209947 -0.101221E+03  0.189E-03    3.39       0.0  T
   2   -101.2209947 -0.428214E-08  0.113E-03    3.39      10.2  T
   3   -101.2209947  0.100898E-07  0.452E-04    3.39      25.4  T
   4   -101.2209947 -0.118162E-07  0.860E-05    3.39     133.3  T
     SCC iter.                  ...        0 min,  0.056 sec
     gradient                   ...        0 min,  0.033 sec
 * total energy  :   -99.8823883 Eh     change       -0.1550107E-05 Eh
   gradient norm :     0.0002467 Eh/α   predicted    -0.6747840E-06 ( -56.47%)
   displ. norm   :     0.0313225 α      lambda       -0.1953689E-05
   maximum displ.:     0.0160477 α      in ANC's #2, #17, #9, ...

........................................................................
.............................. CYCLE  128 ..............................
........................................................................

 iter      E             dE          RMSdq      gap      omega  full diag
   1   -101.2209669 -0.101221E+03  0.348E-03    3.39       0.0  T
   2   -101.2209669 -0.147653E-07  0.207E-03    3.39       5.5  T
   3   -101.2209669  0.467064E-07  0.987E-04    3.39      11.6  T
   4   -101.2209670 -0.541780E-07  0.178E-04    3.39      64.6  T
     SCC iter.                  ...        0 min,  0.076 sec
     gradient                   ...        0 min,  0.048 sec
 * total energy  :   -99.8823903 Eh     change       -0.2029163E-05 Eh
   gradient norm :     0.0003391 Eh/α   predicted    -0.9776082E-06 ( -51.82%)
   displ. norm   :     0.0444956 α      lambda       -0.1456018E-05
   maximum displ.:     0.0267774 α      in ANC's #2, #9, #14, ...

........................................................................
.............................. CYCLE  129 ..............................
........................................................................

 iter      E             dE          RMSdq      gap      omega  full diag
   1   -101.2209892 -0.101221E+03  0.470E-03    3.39       0.0  T
   2   -101.2209892 -0.109629E-07  0.279E-03    3.39       4.1  T
   3   -101.2209892  0.324981E-07  0.786E-04    3.39      14.6  T
   4   -101.2209892 -0.374202E-07  0.166E-04    3.39      68.9  T
     SCC iter.                  ...        0 min,  0.062 sec
     gradient                   ...        0 min,  0.046 sec
 * total energy  :   -99.8823920 Eh     change       -0.1737424E-05 Eh
   gradient norm :     0.0004491 Eh/α   predicted    -0.7398318E-06 ( -57.42%)
   displ. norm   :     0.0613689 α      lambda       -0.1738548E-05
   maximum displ.:     0.0375460 α      in ANC's #2, #9, #14, ...

........................................................................
.............................. CYCLE  130 ..............................
........................................................................

 iter      E             dE          RMSdq      gap      omega  full diag
   1   -101.2210331 -0.101221E+03  0.663E-03    3.39       0.0  T
   2   -101.2210331 -0.100227E-07  0.393E-03    3.39       2.9  T
   3   -101.2210331  0.233645E-07  0.682E-04    3.39      16.8  T
   4   -101.2210331 -0.291630E-07  0.177E-04    3.39      64.9  T
     SCC iter.                  ...        0 min,  0.085 sec
     gradient                   ...        0 min,  0.054 sec
 * total energy  :   -99.8823942 Eh     change       -0.2192622E-05 Eh
   gradient norm :     0.0003849 Eh/α   predicted    -0.8751664E-06 ( -60.09%)
   displ. norm   :     0.0793937 α      lambda       -0.2038407E-05
   maximum displ.:     0.0487536 α      in ANC's #2, #9, #4, ...

........................................................................
.............................. CYCLE  131 ..............................
........................................................................

 iter      E             dE          RMSdq      gap      omega  full diag
   1   -101.2210529 -0.101221E+03  0.880E-03    3.39       0.0  T
   2   -101.2210529 -0.150460E-07  0.521E-03    3.39       2.2  T
   3   -101.2210529  0.181762E-07  0.669E-04    3.39      17.1  T
   4   -101.2210529 -0.264414E-07  0.206E-04    3.39      55.7  T
     SCC iter.                  ...        0 min,  0.070 sec
     gradient                   ...        0 min,  0.046 sec
 * total energy  :   -99.8823968 Eh     change       -0.2554112E-05 Eh
   gradient norm :     0.0002324 Eh/α   predicted    -0.1024177E-05 ( -59.90%)
   displ. norm   :     0.0794082 α      lambda       -0.1797303E-05
   maximum displ.:     0.0496572 α      in ANC's #2, #9, #6, ...

........................................................................
.............................. CYCLE  132 ..............................
........................................................................

 iter      E             dE          RMSdq      gap      omega  full diag
   1   -101.2210545 -0.101221E+03  0.888E-03    3.39       0.0  T
   2   -101.2210545 -0.153791E-07  0.525E-03    3.39       2.2  T
   3   -101.2210545  0.816894E-08  0.536E-04    3.39      21.4  T
   4   -101.2210545 -0.152751E-07  0.204E-04    3.39      56.3  T
     SCC iter.                  ...        0 min,  0.085 sec
     gradient                   ...        0 min,  0.050 sec
 * total energy  :   -99.8823990 Eh     change       -0.2222001E-05 Eh
   gradient norm :     0.0001733 Eh/α   predicted    -0.9061007E-06 ( -59.22%)
   displ. norm   :     0.0671435 α      lambda       -0.1429180E-05
   maximum displ.:     0.0429621 α      in ANC's #2, #9, #6, ...

........................................................................
.............................. CYCLE  133 ..............................
........................................................................

 iter      E             dE          RMSdq      gap      omega  full diag
   1   -101.2210676 -0.101221E+03  0.739E-03    3.39       0.0  T
   2   -101.2210676 -0.100379E-07  0.437E-03    3.39       2.6  T
   3   -101.2210676  0.186376E-07  0.626E-04    3.39      18.3  T
   4   -101.2210676 -0.243457E-07  0.161E-04    3.39      71.4  T
     SCC iter.                  ...        0 min,  0.086 sec
     gradient                   ...        0 min,  0.050 sec
 * total energy  :   -99.8824008 Eh     change       -0.1811329E-05 Eh
   gradient norm :     0.0002373 Eh/α   predicted    -0.7174809E-06 ( -60.39%)
   displ. norm   :     0.0630512 α      lambda       -0.1401471E-05
   maximum displ.:     0.0412069 α      in ANC's #2, #9, #6, ...

........................................................................
.............................. CYCLE  134 ..............................
........................................................................

 iter      E             dE          RMSdq      gap      omega  full diag
   1   -101.2210861 -0.101221E+03  0.713E-03    3.39       0.0  T
   2   -101.2210861 -0.809806E-08  0.421E-03    3.39       2.7  T
   3   -101.2210861  0.710446E-08  0.447E-04    3.39      25.6  T
   4   -101.2210861 -0.114830E-07  0.143E-04    3.39      80.3  T
     SCC iter.                  ...        0 min,  0.191 sec
     gradient                   ...        0 min,  0.081 sec
 * total energy  :   -99.8824026 Eh     change       -0.1814258E-05 Eh
   gradient norm :     0.0002690 Eh/α   predicted    -0.7063699E-06 ( -61.07%)
   displ. norm   :     0.0644021 α      lambda       -0.1489822E-05
   maximum displ.:     0.0427104 α      in ANC's #2, #6, #3, ...

........................................................................
.............................. CYCLE  135 ..............................
........................................................................

 iter      E             dE          RMSdq      gap      omega  full diag
   1   -101.2210890 -0.101221E+03  0.735E-03    3.39       0.0  T
   2   -101.2210890 -0.885308E-08  0.435E-03    3.39       2.6  T
   3   -101.2210890  0.346628E-07  0.787E-04    3.39      14.6  T
   4   -101.2210890 -0.413179E-07  0.149E-04    3.39      77.0  T
     SCC iter.                  ...        0 min,  0.108 sec
     gradient                   ...        0 min,  0.061 sec
 * total energy  :   -99.8824045 Eh     change       -0.1928464E-05 Eh
   gradient norm :     0.0002238 Eh/α   predicted    -0.7487964E-06 ( -61.17%)
   displ. norm   :     0.0592547 α      lambda       -0.1312613E-05
   maximum displ.:     0.0396822 α      in ANC's #2, #6, #3, ...

........................................................................
.............................. CYCLE  136 ..............................
........................................................................

 iter      E             dE          RMSdq      gap      omega  full diag
   1   -101.2210671 -0.101221E+03  0.734E-03    3.39       0.0  T
   2   -101.2210671 -0.988527E-08  0.434E-03    3.39       2.6  T
   3   -101.2210670  0.379129E-07  0.818E-04    3.39      14.0  T
   4   -101.2210671 -0.447239E-07  0.156E-04    3.39      73.5  T
     SCC iter.                  ...        0 min,  0.225 sec
     gradient                   ...        0 min,  0.095 sec
 * total energy  :   -99.8824062 Eh     change       -0.1692374E-05 Eh
   gradient norm :     0.0001291 Eh/α   predicted    -0.6608818E-06 ( -60.95%)
   displ. norm   :     0.0500339 α      lambda       -0.1026322E-05
   maximum displ.:     0.0340548 α      in ANC's #2, #6, #3, ...

........................................................................
.............................. CYCLE  137 ..............................
........................................................................

 iter      E             dE          RMSdq      gap      omega  full diag
   1   -101.2210509 -0.101221E+03  0.635E-03    3.39       0.0  T
   2   -101.2210509 -0.776063E-08  0.374E-03    3.39       3.1  T
   3   -101.2210508  0.330722E-07  0.756E-04    3.39      15.2  T
   4   -101.2210509 -0.385162E-07  0.137E-04    3.39      83.6  T
     SCC iter.                  ...        0 min,  0.087 sec
     gradient                   ...        0 min,  0.051 sec
 * total energy  :   -99.8824075 Eh     change       -0.1297762E-05 Eh
   gradient norm :     0.0001059 Eh/α   predicted    -0.5177740E-06 ( -60.10%)
   displ. norm   :     0.0395519 α      lambda       -0.8125287E-06
   maximum displ.:     0.0273895 α      in ANC's #2, #3, #6, ...

........................................................................
.............................. CYCLE  138 ..............................
........................................................................

 iter      E             dE          RMSdq      gap      omega  full diag
   1   -101.2210561 -0.101221E+03  0.528E-03    3.39       0.0  T
   2   -101.2210561 -0.464217E-08  0.311E-03    3.39       3.7  T
   3   -101.2210561  0.238626E-07  0.635E-04    3.39      18.1  T
   4   -101.2210561 -0.276343E-07  0.107E-04    3.39     106.8  T
     SCC iter.                  ...        0 min,  0.072 sec
     gradient                   ...        0 min,  0.050 sec
 * total energy  :   -99.8824086 Eh     change       -0.1046889E-05 Eh
   gradient norm :     0.0001411 Eh/α   predicted    -0.4085123E-06 ( -60.98%)
   displ. norm   :     0.0355841 α      lambda       -0.8084016E-06
   maximum displ.:     0.0247156 α      in ANC's #2, #3, #6, ...

........................................................................
.............................. CYCLE  139 ..............................
........................................................................

 iter      E             dE          RMSdq      gap      omega  full diag
   1   -101.2210626 -0.101221E+03  0.444E-03    3.39       0.0  T
   2   -101.2210626 -0.294986E-08  0.261E-03    3.39       4.4  T
   3   -101.2210626  0.182867E-07  0.555E-04    3.39      20.7  T
   4   -101.2210626 -0.210449E-07  0.828E-05    3.39     138.5  T
     SCC iter.                  ...        0 min,  0.075 sec
     gradient                   ...        0 min,  0.038 sec
 * total energy  :   -99.8824097 Eh     change       -0.1098920E-05 Eh
   gradient norm :     0.0001621 Eh/α   predicted    -0.4068988E-06 ( -62.97%)
   displ. norm   :     0.0441433 α      lambda       -0.1092208E-05
   maximum displ.:     0.0299449 α      in ANC's #2, #3, #6, ...

........................................................................
.............................. CYCLE  140 ..............................
........................................................................

 iter      E             dE          RMSdq      gap      omega  full diag
   1   -101.2210795 -0.101221E+03  0.529E-03    3.39       0.0  T
   2   -101.2210795 -0.402973E-08  0.311E-03    3.39       3.7  T
   3   -101.2210795  0.176112E-07  0.554E-04    3.39      20.7  T
   4   -101.2210795 -0.207024E-07  0.955E-05    3.39     120.1  T
     SCC iter.                  ...        0 min,  0.088 sec
     gradient                   ...        0 min,  0.044 sec
 * total energy  :   -99.8824112 Eh     change       -0.1511813E-05 Eh
   gradient norm :     0.0001500 Eh/α   predicted    -0.5492281E-06 ( -63.67%)
   displ. norm   :     0.0610117 α      lambda       -0.1537783E-05
   maximum displ.:     0.0403775 α      in ANC's #2, #3, #6, ...

........................................................................
.............................. CYCLE  141 ..............................
........................................................................

 iter      E             dE          RMSdq      gap      omega  full diag
   1   -101.2210934 -0.101221E+03  0.690E-03    3.39       0.0  T
   2   -101.2210934 -0.729936E-08  0.406E-03    3.39       2.8  T
   3   -101.2210934  0.341820E-07  0.768E-04    3.39      14.9  T
   4   -101.2210934 -0.397691E-07  0.130E-04    3.39      88.3  T
     SCC iter.                  ...        0 min,  0.156 sec
     gradient                   ...        0 min,  0.083 sec
 * total energy  :   -99.8824133 Eh     change       -0.2096821E-05 Eh
   gradient norm :     0.0001272 Eh/α   predicted    -0.7719712E-06 ( -63.18%)
   displ. norm   :     0.0789666 α      lambda       -0.1899382E-05
   maximum displ.:     0.0515214 α      in ANC's #2, #3, #6, ...

........................................................................
.............................. CYCLE  142 ..............................
........................................................................

 iter      E             dE          RMSdq      gap      omega  full diag
   1   -101.2210973 -0.101221E+03  0.875E-03    3.39       0.0  T
   2   -101.2210973 -0.108225E-07  0.515E-03    3.39       2.2  T
   3   -101.2210973  0.363092E-07  0.805E-04    3.39      14.2  T
   4   -101.2210973 -0.435149E-07  0.155E-04    3.39      74.0  T
     SCC iter.                  ...        0 min,  0.096 sec
     gradient                   ...        0 min,  0.071 sec
 * total energy  :   -99.8824158 Eh     change       -0.2540586E-05 Eh
   gradient norm :     0.0001222 Eh/α   predicted    -0.9534671E-06 ( -62.47%)
   displ. norm   :     0.0912268 α      lambda       -0.2050209E-05
   maximum displ.:     0.0593919 α      in ANC's #2, #3, #6, ...

........................................................................
.............................. CYCLE  143 ..............................
........................................................................

 iter      E             dE          RMSdq      gap      omega  full diag
   1   -101.2210859 -0.101221E+03  0.999E-03    3.39       0.0  T
   2   -101.2210859 -0.134623E-07  0.587E-03    3.39       2.0  T
   3   -101.2210859  0.255758E-07  0.716E-04    3.39      16.0  T
   4   -101.2210859 -0.332539E-07  0.181E-04    3.39      63.4  T
     SCC iter.                  ...        0 min,  0.081 sec
     gradient                   ...        0 min,  0.063 sec
 * total energy  :   -99.8824185 Eh     change       -0.2696735E-05 Eh
   gradient norm :     0.0001474 Eh/α   predicted    -0.1029698E-05 ( -61.82%)
   displ. norm   :     0.0894231 α      lambda       -0.1909501E-05
   maximum displ.:     0.0586900 α      in ANC's #2, #3, #6, ...

........................................................................
.............................. CYCLE  144 ..............................
........................................................................

 iter      E             dE          RMSdq      gap      omega  full diag
   1   -101.2210807 -0.101221E+03  0.960E-03    3.39       0.0  T
   2   -101.2210807 -0.121412E-07  0.565E-03    3.39       2.0  T
   3   -101.2210807  0.259525E-07  0.710E-04    3.39      16.1  T
   4   -101.2210808 -0.332031E-07  0.169E-04    3.39      67.9  T
     SCC iter.                  ...        0 min,  0.073 sec
     gradient                   ...        0 min,  0.050 sec
 * total energy  :   -99.8824210 Eh     change       -0.2517259E-05 Eh
   gradient norm :     0.0001530 Eh/α   predicted    -0.9616697E-06 ( -61.80%)
   displ. norm   :     0.0827291 α      lambda       -0.1715067E-05
   maximum displ.:     0.0550639 α      in ANC's #2, #3, #6, ...

........................................................................
.............................. CYCLE  145 ..............................
........................................................................

 iter      E             dE          RMSdq      gap      omega  full diag
   1   -101.2210677 -0.101221E+03  0.872E-03    3.39       0.0  T
   2   -101.2210677 -0.985102E-08  0.512E-03    3.39       2.2  T
   3   -101.2210677  0.636324E-08  0.430E-04    3.39      26.7  T
   4   -101.2210677 -0.108751E-07  0.152E-04    3.39      75.7  T
     SCC iter.                  ...        0 min,  0.070 sec
     gradient                   ...        0 min,  0.049 sec
 * total energy  :   -99.8824234 Eh     change       -0.2312306E-05 Eh
   gradient norm :     0.0001298 Eh/α   predicted    -0.8633493E-06 ( -62.66%)
   displ. norm   :     0.0772400 α      lambda       -0.1624095E-05
   maximum displ.:     0.0522062 α      in ANC's #2, #3, #6, ...

........................................................................
.............................. CYCLE  146 ..............................
........................................................................

 iter      E             dE          RMSdq      gap      omega  full diag
   1   -101.2210617 -0.101221E+03  0.774E-03    3.39       0.0  T
   2   -101.2210617 -0.880031E-08  0.455E-03    3.39       2.5  T
   3   -101.2210617  0.430454E-08  0.370E-04    3.39      31.0  T
   4   -101.2210617 -0.758315E-08  0.144E-04    3.39      79.9  T
     SCC iter.                  ...        0 min,  0.079 sec
     gradient                   ...        0 min,  0.060 sec
 * total energy  :   -99.8824256 Eh     change       -0.2249396E-05 Eh
   gradient norm :     0.0001025 Eh/α   predicted    -0.8169960E-06 ( -63.68%)
   displ. norm   :     0.0794428 α      lambda       -0.1779110E-05
   maximum displ.:     0.0544654 α      in ANC's #2, #3, #6, ...

........................................................................
.............................. CYCLE  147 ..............................
........................................................................

 iter      E             dE          RMSdq      gap      omega  full diag
   1   -101.2210492 -0.101221E+03  0.748E-03    3.39       0.0  T
   2   -101.2210492 -0.808967E-08  0.440E-03    3.39       2.6  T
   3   -101.2210492  0.645443E-08  0.401E-04    3.39      28.6  T
   4   -101.2210492 -0.960027E-08  0.129E-04    3.39      88.9  T
     SCC iter.                  ...        0 min,  0.079 sec
     gradient                   ...        0 min,  0.062 sec
 * total energy  :   -99.8824281 Eh     change       -0.2493425E-05 Eh
   gradient norm :     0.0001069 Eh/α   predicted    -0.8943181E-06 ( -64.13%)
   displ. norm   :     0.0857057 α      lambda       -0.2073252E-05
   maximum displ.:     0.0590765 α      in ANC's #2, #3, #6, ...

........................................................................
.............................. CYCLE  148 ..............................
........................................................................

 iter      E             dE          RMSdq      gap      omega  full diag
   1   -101.2210262 -0.101221E+03  0.760E-03    3.39       0.0  T
   2   -101.2210262 -0.840680E-08  0.447E-03    3.39       2.6  T
   3   -101.2210262  0.387786E-08  0.351E-04    3.39      32.7  T
   4   -101.2210262 -0.676955E-08  0.126E-04    3.39      91.3  T
     SCC iter.                  ...        0 min,  0.079 sec
     gradient                   ...        0 min,  0.055 sec
 * total energy  :   -99.8824311 Eh     change       -0.2958140E-05 Eh
   gradient norm :     0.0001269 Eh/α   predicted    -0.1042995E-05 ( -64.74%)
   displ. norm   :     0.1084493 α      lambda       -0.2778375E-05
   maximum displ.:     0.0745585 α      in ANC's #2, #3, #6, ...

........................................................................
.............................. CYCLE  149 ..............................
........................................................................

 iter      E             dE          RMSdq      gap      omega  full diag
   1   -101.2210050 -0.101221E+03  0.919E-03    3.39       0.0  T
   2   -101.2210050 -0.117359E-07  0.541E-03    3.39       2.1  T
   3   -101.2210050  0.104395E-07  0.502E-04    3.39      22.9  T
   4   -101.2210050 -0.149845E-07  0.151E-04    3.39      75.8  T
     SCC iter.                  ...        0 min,  0.075 sec
     gradient                   ...        0 min,  0.050 sec
 * total energy  :   -99.8824350 Eh     change       -0.3965593E-05 Eh
   gradient norm :     0.0001609 Eh/α   predicted    -0.1398643E-05 ( -64.73%)
   displ. norm   :     0.1504270 α      lambda       -0.3900711E-05
   maximum displ.:     0.1032280 α      in ANC's #2, #3, #6, ...

........................................................................
.............................. CYCLE  150 ..............................
........................................................................

 iter      E             dE          RMSdq      gap      omega  full diag
   1   -101.2209441 -0.101221E+03  0.126E-02    3.39       0.0  T
   2   -101.2209441 -0.204271E-07  0.740E-03    3.39       1.6  T
   3   -101.2209441  0.153916E-07  0.631E-04    3.39      18.2  T
   4   -101.2209441 -0.231296E-07  0.195E-04    3.39      58.8  T
     SCC iter.                  ...        0 min,  0.070 sec
     gradient                   ...        0 min,  0.050 sec
 * total energy  :   -99.8824405 Eh     change       -0.5477630E-05 Eh
   gradient norm :     0.0002029 Eh/α   predicted    -0.1972056E-05 ( -64.00%)
   displ. norm   :     0.2003007 α      lambda       -0.4974896E-05
   maximum displ.:     0.1375525 α      in ANC's #2, #3, #6, ...
 * RMSD in coord.:     0.1929023 α      energy gain  -0.7119058E-04 Eh

generating ANC from exact Hessian ...
Using Lindh-Hessian (1995)
 Shifting diagonal of input Hessian by    9.9648532579874206E-003
 Lowest  eigenvalues of input Hessian
    0.000000    0.000000    0.000000    0.000000    0.000000    0.000000
    0.010000    0.010006    0.010069    0.010152    0.010265    0.010292
    0.010450    0.010632    0.010701    0.010867    0.011164    0.011377
 Highest eigenvalues
    1.742173    1.918064    1.923440    2.064503    2.071521    2.395904


........................................................................
.............................. CYCLE  151 ..............................
........................................................................

 iter      E             dE          RMSdq      gap      omega  full diag
   1   -101.2208744 -0.101221E+03  0.165E-02    3.39       0.0  T
   2   -101.2208745 -0.340489E-07  0.974E-03    3.39       1.2  T
   3   -101.2208745  0.225512E-07  0.782E-04    3.39      14.7  T
   4   -101.2208745 -0.352377E-07  0.252E-04    3.39      45.5  T
     SCC iter.                  ...        0 min,  0.070 sec
     gradient                   ...        0 min,  0.048 sec
 * total energy  :   -99.8824474 Eh     change       -0.6851518E-05 Eh
   gradient norm :     0.0002738 Eh/α   predicted     0.0000000E+00 (-100.00%)
   displ. norm   :     0.0106310 α      lambda       -0.8996613E-07
   maximum displ.:     0.0061613 α      in ANC's #2, #23, #15, ...

........................................................................
.............................. CYCLE  152 ..............................
........................................................................

 iter      E             dE          RMSdq      gap      omega  full diag
   1   -101.2211308 -0.101221E+03  0.147E-03    3.39       0.0  T
   2   -101.2211308 -0.414980E-08  0.862E-04    3.39      13.3  T
   3   -101.2211308  0.251471E-08  0.268E-04    3.39      42.8  T
     SCC iter.                  ...        0 min,  0.054 sec
     gradient                   ...        0 min,  0.050 sec
 * total energy  :   -99.8824484 Eh     change       -0.1014863E-05 Eh
   gradient norm :     0.0001390 Eh/α   predicted    -0.4170767E-06 ( -58.90%)
   displ. norm   :     0.0328924 α      lambda       -0.1781113E-05
   maximum displ.:     0.0184229 α      in ANC's #2, #23, #15, ...

........................................................................
.............................. CYCLE  153 ..............................
........................................................................

 iter      E             dE          RMSdq      gap      omega  full diag
   1   -101.2213585 -0.101221E+03  0.385E-03    3.39       0.0  T
   2   -101.2213585 -0.137865E-07  0.227E-03    3.39       5.1  T
   3   -101.2213585  0.840883E-08  0.494E-04    3.39      23.2  T
   4   -101.2213585 -0.114355E-07  0.155E-04    3.39      74.1  T
     SCC iter.                  ...        0 min,  0.069 sec
     gradient                   ...        0 min,  0.045 sec
 * total energy  :   -99.8824503 Eh     change       -0.1884068E-05 Eh
   gradient norm :     0.0003399 Eh/α   predicted    -0.8916104E-06 ( -52.68%)
   displ. norm   :     0.0325952 α      lambda       -0.1129599E-05
   maximum displ.:     0.0201551 α      in ANC's #2, #23, #22, ...

........................................................................
.............................. CYCLE  154 ..............................
........................................................................

 iter      E             dE          RMSdq      gap      omega  full diag
   1   -101.2212614 -0.101221E+03  0.338E-03    3.39       0.0  T
   2   -101.2212614 -0.593623E-08  0.200E-03    3.39       5.7  T
   3   -101.2212614  0.263664E-08  0.330E-04    3.39      34.7  T
   4   -101.2212614 -0.523059E-08  0.146E-04    3.39      78.4  T
     SCC iter.                  ...        0 min,  0.074 sec
     gradient                   ...        0 min,  0.053 sec
 * total energy  :   -99.8824514 Eh     change       -0.1097719E-05 Eh
   gradient norm :     0.0002969 Eh/α   predicted    -0.5751894E-06 ( -47.60%)
   displ. norm   :     0.0206151 α      lambda       -0.6434562E-06
   maximum displ.:     0.0142314 α      in ANC's #2, #3, #10, ...

........................................................................
.............................. CYCLE  155 ..............................
........................................................................

 iter      E             dE          RMSdq      gap      omega  full diag
   1   -101.2211829 -0.101221E+03  0.221E-03    3.39       0.0  T
   2   -101.2211829 -0.210586E-08  0.131E-03    3.39       8.8  T
   3   -101.2211829 -0.740570E-09  0.146E-04    3.39      78.3  T
   4   -101.2211829 -0.389065E-09  0.114E-04    3.39     101.1  T
     SCC iter.                  ...        0 min,  0.080 sec
     gradient                   ...        0 min,  0.057 sec
 * total energy  :   -99.8824521 Eh     change       -0.7248265E-06 Eh
   gradient norm :     0.0001497 Eh/α   predicted    -0.3221958E-06 ( -55.55%)
   displ. norm   :     0.0186809 α      lambda       -0.6239489E-06
   maximum displ.:     0.0134707 α      in ANC's #2, #3, #10, ...

   *** GEOMETRY OPTIMIZATION CONVERGED AFTER 155 ITERATIONS ***

------------------------------------------------------------------------
 total energy gain   :        -0.0157930 Eh       -9.9103 kcal/mol
 total RMSD          :         1.6171033 a0        0.8557 Å
 total power (kW/mol):        -0.2675133 (step)   -1.2980 (real)
------------------------------------------------------------------------

 ANCopt (total)                0 d,  0 h,  0 min, 31.944 sec
 optimizer setup                ...        0 min,  0.001 sec (  0.003%)
 model hessian                  ...        0 min,  0.474 sec (  1.483%)
 ANC generation                 ...        0 min,  0.055 sec (  0.171%)
 coordinate transformation      ...        0 min,  0.008 sec (  0.026%)
 single point calculation       ...        0 min, 30.770 sec ( 96.326%)
 optimization log               ...        0 min,  0.044 sec (  0.139%)
 hessian update                 ...        0 min,  0.441 sec (  1.381%)
 rational function              ...        0 min,  0.036 sec (  0.112%)

================
 final structure:
================
76
 xtb: 6.7.1 (edcfbbe)
C            1.66992836541800       -2.77864266141893       -0.92876625881465
C            1.35991308934206       -1.66787152497601       -1.58545358296265
C           -0.05792727790003       -1.18608512100333       -1.74828838428221
C           -0.53424982596572       -0.39932963509936       -0.51794390130328
C            0.23188827188380        0.91970368631470       -0.34944855689305
C           -0.50405330848729        1.91914058914434       -1.24235884939870
C           -1.90916820801163        1.41111391483155       -1.28793361540802
N           -2.82990558886299        2.11215780441751       -1.79124353091100
O           -4.10211026704013        1.47829889249365       -1.82637425638120
C           -5.15927325685419        2.30062600741713       -1.86684214570018
O           -5.12445941431735        3.49529373320492       -1.79419133797245
C           -6.41879669986313        1.46003554670472       -1.98325013646310
C           -7.58398307308600        2.11056875014661       -1.24055266887893
C           -7.33461829194262        2.19437799629163        0.25630038965639
Cl          -7.14931015595734        0.57113771054199        0.97166379279250
C           -1.99906508310528        0.03766772201866       -0.68011675653727
C           -2.76313101427025        0.09892998187976        0.65388749553176
C           -3.17124182713647       -1.28386349286425        1.15460131658895
C           -3.96494517180836       -1.19638611179564        2.45561701875391
C           -4.39713035003725       -2.57132287528086        2.95847890305876
C           -5.21675369516562       -2.46990142726682        4.23858223612701
O            2.23546790261742       -0.80827069045929       -2.18137149643190
C            3.61055644474411       -1.12717225716090       -2.15149329030224
C            4.21463453667359       -1.02204547518938       -0.78177530849878
C            5.38213425525310       -1.54310381749169       -0.42402797748160
C            6.23681816264744       -2.32386755859017       -1.38042897456139
C            5.93838399517948       -1.32472460840428        0.95302461129117
C            7.06358169641923       -0.27147816939962        0.92929179746982
C            6.56650674307709        1.03270037123311        0.38113185198180
C            5.90629971648539        1.97229551420680        1.04688205539359
C            5.56221487958483        1.90050762833968        2.50487797200697
C            5.42411066203359        3.21959763960222        0.36593427513812
H            2.67738245709362       -3.11513472510097       -0.77071085688783
H            0.88967339063111       -3.38721798268948       -0.51096763412177
H           -0.71201856998541       -2.04719900120896       -1.89265757264573
H           -0.11144846614888       -0.55145047728516       -2.63336628271362
H           -0.40651101347496       -1.03626975468729        0.36026517231004
H            1.27751065840051        0.81914243368336       -0.63070098721807
H            0.18517798821483        1.24401395071348        0.69146089429436
H           -0.09536739010442        1.91476677499553       -2.25459575567658
H           -0.46191220661230        2.94471615179493       -0.87935668285619
H           -6.65778994827060        1.37631659680942       -3.04545253338416
H           -6.21580163506678        0.46062593989454       -1.59762585200456
H           -8.49835511570157        1.54690444164640       -1.43247461765980
H           -7.71424733759619        3.13039544674509       -1.60871769581830
H           -6.41692499059023        2.74142632500757        0.47012020815807
H           -8.17246883781590        2.66520060546038        0.77012374601159
H           -2.55208138123750       -0.62540531997168       -1.35304051002963
H           -3.66677199465746        0.69680437981969        0.52048611864920
H           -2.14422755554000        0.59716301150873        1.40299393142166
H           -2.28434944524610       -1.90177589589552        1.31205340507613
H           -3.78508944701976       -1.77329187602370        0.39468561028868
H           -3.35690257243280       -0.70677504453869        3.22034842969978
H           -4.85279181877810       -0.58202599733118        2.29309454073681
H           -4.99275353543142       -3.06406061621319        2.18675259482521
H           -3.51264063869032       -3.18732325573153        3.13879810379365
H           -5.51793219800967       -3.45706484369201        4.58156091669720
H           -6.11233789505954       -1.87680586605391        4.06734677775600
H           -4.63692433343928       -1.99424424766311        5.02680308507024
H            4.07457157866415       -0.39380009271832       -2.82263646683618
H            3.77164748509477       -2.12743301127104       -2.57818096740393
H            3.63183079213495       -0.45131875743905       -0.07300375072515
H            5.67577307857656       -3.15312465435569       -1.81119928135449
H            7.11252813726958       -2.72697383494459       -0.87900691379918
H            6.56816882247660       -1.69181543560349       -2.20374098386062
H            6.33742082553170       -2.26358265963344        1.34559713566053
H            5.14751791596538       -0.97924505891956        1.61961364627037
H            7.44779896499608       -0.14783176930731        1.94379602582801
H            7.88155110139194       -0.63451592280621        0.30493473346264
H            6.74016320600515        1.17848182398573       -0.67693048147808
H            4.49384174024178        1.71764318243003        2.62421605650077
H            6.10165881664181        1.10891861861141        3.01527273076788
H            5.78942458406449        2.84864090371881        2.99063321478918
H            5.64740400926265        3.20058436915341       -0.69738813684095
H            4.34730213727193        3.32590220218350        0.49463303687802
H            5.89698442514349        4.09795088073285        0.80525473705831

 Bond Distances (Angstroems)
 ---------------------------
C1-C2=1.3271         C1-H33=1.0739        C1-H34=1.0741        C2-C1=1.3271         C2-C3=1.5063         C2-O22=1.3640        
C3-C2=1.5063         C3-C4=1.5361         C3-H35=1.0910        C3-H36=1.0904        C4-C3=1.5361         C4-C5=1.5347         
C4-C16=1.5372        C4-H37=1.0924        C5-C4=1.5347         C5-C6=1.5290         C5-H38=1.0874        C5-H39=1.0913        
C6-C5=1.5290         C6-C7=1.4948         C6-H40=1.0916        C6-H41=1.0887        C7-C6=1.4948         C7-N8=1.2620         
C7-C16=1.5046        N8-C7=1.2620         N8-O9=1.4218         O9-N8=1.4218         O9-C10=1.3399        C10-O9=1.3399        
C10-O11=1.1974       C10-C12=1.5187       O11-C10=1.1974       C12-C10=1.5187       C12-C13=1.5272       C12-H42=1.0920       
C12-H43=1.0903       C13-C12=1.5272       C13-C14=1.5198       C13-H44=1.0912       C13-H45=1.0920       C14-C13=1.5198       
C14-Cl15=1.7835      C14-H46=1.0896       C14-H47=1.0898       Cl15-C14=1.7835      C16-C4=1.5372        C16-C7=1.5046        
C16-C17=1.5385       C16-H48=1.0947       C17-C16=1.5385       C17-C18=1.5262       C17-H49=1.0917       C17-H50=1.0920       
C18-C17=1.5262       C18-C19=1.5265       C18-H51=1.0923       C18-H52=1.0926       C19-C18=1.5265       C19-C20=1.5265       
C19-H53=1.0928       C19-H54=1.0918       C20-C19=1.5265       C20-C21=1.5234       C20-H55=1.0923       C20-H56=1.0928       
C21-C20=1.5234       C21-H57=1.0876       C21-H58=1.0877       C21-H59=1.0880       O22-C2=1.3640        O22-C23=1.4119       
C23-O22=1.4119       C23-C24=1.5007       C23-H60=1.0971       C23-H61=1.0993       C24-C23=1.5007       C24-C25=1.3276       
C24-H62=1.0806       C25-C24=1.3276       C25-C26=1.5016       C25-C27=1.5011       C26-C25=1.5016       C26-H63=1.0900       
C26-H64=1.0866       C26-H65=1.0896       C27-C25=1.5011       C27-C28=1.5414       C27-H66=1.0931       C27-H67=1.0905       
C28-C27=1.5414       C28-C29=1.4995       C28-H68=1.0918       C28-H69=1.0912       C29-C28=1.4995       C29-C30=1.3274       
C29-H70=1.0821       C30-C29=1.3274       C30-C31=1.4998       C30-C32=1.5007       C31-C30=1.4998       C31-H71=1.0905       
C31-H72=1.0854       C31-H73=1.0893       C32-C30=1.5007       C32-H74=1.0867       C32-H75=1.0897       C32-H76=1.0900       
H33-C1=1.0739        H34-C1=1.0741        H35-C3=1.0910        H36-C3=1.0904        H37-C4=1.0924        H38-C5=1.0874        
H39-C5=1.0913        H40-C6=1.0916        H41-C6=1.0887        H42-C12=1.0920       H43-C12=1.0903       H44-C13=1.0912       
H45-C13=1.0920       H46-C14=1.0896       H47-C14=1.0898       H48-C16=1.0947       H49-C17=1.0917       H50-C17=1.0920       
H51-C18=1.0923       H52-C18=1.0926       H53-C19=1.0928       H54-C19=1.0918       H55-C20=1.0923       H56-C20=1.0928       
H57-C21=1.0876       H58-C21=1.0877       H59-C21=1.0880       H60-C23=1.0971       H61-C23=1.0993       H62-C24=1.0806       
H63-C26=1.0900       H64-C26=1.0866       H65-C26=1.0896       H66-C27=1.0931       H67-C27=1.0905       H68-C28=1.0918       
H69-C28=1.0912       H70-C29=1.0821       H71-C31=1.0905       H72-C31=1.0854       H73-C31=1.0893       H74-C32=1.0867       
H75-C32=1.0897       H76-C32=1.0900       
 C  H  Rav=1.0897 sigma=0.0047  Rmin=1.0739  Rmax=1.0993    44
 C  C  Rav=1.4951 sigma=0.0635  Rmin=1.3271  Rmax=1.5414    25
 N  C  Rav=1.2620 sigma=0.0000  Rmin=1.2620  Rmax=1.2620     1
 O  C  Rav=1.3283 sigma=0.0799  Rmin=1.1974  Rmax=1.4119     4
 O  N  Rav=1.4218 sigma=0.0000  Rmin=1.4218  Rmax=1.4218     1
 Cl C  Rav=1.7835 sigma=0.0000  Rmin=1.7835  Rmax=1.7835     1

 selected bond angles (degree)
 --------------------
H33-C1-C2=123.66               H34-C1-C2=119.80               H34-C1-H33=116.53              C3-C2-C1=122.76                
O22-C2-C1=126.42               O22-C2-C3=110.82               C4-C3-C2=111.66                H35-C3-C2=109.04               
H35-C3-C4=108.93               H36-C3-C2=108.67               H36-C3-C4=109.68               H36-C3-H35=108.82              
C5-C4-C3=111.92                C16-C4-C3=110.89               C16-C4-C5=104.06               H37-C4-C3=108.00               
H37-C4-C5=110.76               H37-C4-C16=111.22              C6-C5-C4=104.92                H38-C5-C4=111.85               
H38-C5-C6=111.85               H39-C5-C4=109.80               H39-C5-C6=110.01               H39-C5-H38=108.38              
C7-C6-C5=104.36                H40-C6-C5=111.02               H40-C6-C7=108.80               H41-C6-C5=113.73               
H41-C6-C7=111.51               H41-C6-H40=107.36              N8-C7-C6=120.61                C16-C7-C6=110.74               
C16-C7-N8=128.65               O9-N8-C7=114.52                C10-O9-N8=115.66               O11-C10-O9=125.98              
C12-C10-O9=108.48              C12-C10-O11=125.52             

 selected dihedral angles (degree)
 ---------------------------------
C3-C2-C1-H33=182.50           C3-C2-C1-H34=  1.68           O22-C2-C1-H33=  1.69          O22-C2-C1-H34=180.87          
C4-C3-C2-C1= 83.02            C4-C3-C2-O22=263.72           H35-C3-C2-C1=322.61           H35-C3-C2-O22=143.31          
H36-C3-C2-C1=204.14           H36-C3-C2-O22= 24.83          C5-C4-C3-C2= 66.44            C5-C4-C3-H35=186.91           
C5-C4-C3-H36=305.91           C16-C4-C3-C2=182.15           C16-C4-C3-H35=302.63          C16-C4-C3-H36= 61.63          
H37-C4-C3-C2=304.26           H37-C4-C3-H35= 64.74          H37-C4-C3-H36=183.73          C6-C5-C4-C3= 84.89            
C6-C5-C4-C16=325.09           C6-C5-C4-H37=205.48           H38-C5-C4-C3=323.44           H38-C5-C4-C16=203.63          
H38-C5-C4-H37= 84.02          H39-C5-C4-C3=203.08           H39-C5-C4-C16= 83.27          H39-C5-C4-H37=323.66          
C7-C6-C5-C4= 27.73            C7-C6-C5-H38=149.18           C7-C6-C5-H39=269.69           H40-C6-C5-C4=270.68           
H40-C6-C5-H38= 32.13          H40-C6-C5-H39=152.64          H41-C6-C5-C4=149.47           H41-C6-C5-H38=270.92          
H41-C6-C5-H39= 31.43          N8-C7-C6-C5=169.93            N8-C7-C6-H40=288.50           N8-C7-C6-H41= 46.73           
C16-C7-C6-C5=349.81           C16-C7-C6-H40=108.38          C16-C7-C6-H41=226.61          O9-N8-C7-C6=177.09            
O9-N8-C7-C16=357.23           C10-O9-N8-C7=155.95           O11-C10-O9-N8=355.18          C12-C10-O9-N8=176.68          
           -------------------------------------------------
          |                Final Singlepoint                |
           -------------------------------------------------

          ...................................................
          :                      SETUP                      :
          :.................................................:
          :  # basis functions                 178          :
          :  # atomic orbitals                 177          :
          :  # shells                          109          :
          :  # electrons                       182          :
          :  max. iterations                   250          :
          :  Hamiltonian                  GFN2-xTB          :
          :  restarted?                      false          :
          :  GBSA solvation                  false          :
          :  PC potential                    false          :
          :  electronic temp.          300.0000000     K    :
          :  accuracy                    1.0000000          :
          :  -> integral cutoff          0.2500000E+02      :
          :  -> integral neglect         0.1000000E-07      :
          :  -> SCF convergence          0.1000000E-05 Eh   :
          :  -> wf. convergence          0.1000000E-03 e    :
          :  Broyden damping             0.4000000          :
          :  net charge                          0          :
          :  unpaired electrons                  0          :
          ...................................................

 iter      E             dE          RMSdq      gap      omega  full diag
   1   -101.2211829 -0.101221E+03  0.878E-05    3.39       0.0  T
   2   -101.2211829 -0.762981E-10  0.760E-05    3.39     150.9  T
   3   -101.2211829 -0.664784E-10  0.661E-05    3.39     173.7  T

   *** convergence criteria satisfied after 3 iterations ***

         #    Occupation            Energy/Eh            Energy/eV
      -------------------------------------------------------------
         1        2.0000           -1.0513213             -28.6079
       ...           ...                  ...                  ...
        85        2.0000           -0.4152127             -11.2985
        86        2.0000           -0.4121870             -11.2162
        87        2.0000           -0.4103527             -11.1663
        88        2.0000           -0.3886062             -10.5745
        89        2.0000           -0.3853987             -10.4872
        90        2.0000           -0.3760473             -10.2328
        91        2.0000           -0.3711491             -10.0995 (HOMO)
        92                         -0.2466627              -6.7120 (LUMO)
        93                         -0.2158051              -5.8724
        94                         -0.2011741              -5.4742
        95                         -0.1876618              -5.1065
        96                         -0.1848103              -5.0289
       ...                                ...                  ...
       177                          0.6789836              18.4761
      -------------------------------------------------------------
                  HL-Gap            0.1244864 Eh            3.3874 eV
             Fermi-level           -0.3089059 Eh           -8.4058 eV

 SCC (total)                   0 d,  0 h,  0 min,  0.138 sec
 SCC setup                      ...        0 min,  0.005 sec (  3.529%)
 Dispersion                     ...        0 min,  0.010 sec (  7.428%)
 classical contributions        ...        0 min,  0.005 sec (  3.319%)
 integral evaluation            ...        0 min,  0.017 sec ( 11.995%)
 iterations                     ...        0 min,  0.053 sec ( 38.577%)
 molecular gradient             ...        0 min,  0.048 sec ( 34.629%)
 printout                       ...        0 min,  0.001 sec (  0.497%)

         :::::::::::::::::::::::::::::::::::::::::::::::::::::
         ::                     SUMMARY                     ::
         :::::::::::::::::::::::::::::::::::::::::::::::::::::
         :: total energy             -99.882452076421 Eh    ::
         :: gradient norm              0.000150324382 Eh/a0 ::
         :: HOMO-LUMO gap              3.387448717505 eV    ::
         ::.................................................::
         :: SCC energy              -101.219993497821 Eh    ::
         :: -> isotropic ES            0.074814206401 Eh    ::
         :: -> anisotropic ES          0.013539919665 Eh    ::
         :: -> anisotropic XC          0.050371371092 Eh    ::
         :: -> dispersion             -0.072015816925 Eh    ::
         :: repulsion energy           1.337541421400 Eh    ::
         :: add. restraining           0.000000000000 Eh    ::
         :: total charge               0.000000000000 e     ::
         :::::::::::::::::::::::::::::::::::::::::::::::::::::

           -------------------------------------------------
          |                Property Printout                |
           -------------------------------------------------

    * Orbital Energies and Occupations

         #    Occupation            Energy/Eh            Energy/eV
      -------------------------------------------------------------
         1        2.0000           -1.0513213             -28.6079
       ...           ...                  ...                  ...
        79        2.0000           -0.4271596             -11.6236
        80        2.0000           -0.4254684             -11.5776
        81        2.0000           -0.4244019             -11.5486
        82        2.0000           -0.4196664             -11.4197
        83        2.0000           -0.4180785             -11.3765
        84        2.0000           -0.4170225             -11.3478
        85        2.0000           -0.4152127             -11.2985
        86        2.0000           -0.4121870             -11.2162
        87        2.0000           -0.4103527             -11.1663
        88        2.0000           -0.3886062             -10.5745
        89        2.0000           -0.3853987             -10.4872
        90        2.0000           -0.3760473             -10.2328
        91        2.0000           -0.3711491             -10.0995 (HOMO)
        92                         -0.2466627              -6.7120 (LUMO)
        93                         -0.2158051              -5.8724
        94                         -0.2011741              -5.4742
        95                         -0.1876618              -5.1065
        96                         -0.1848103              -5.0289
        97                         -0.1595566              -4.3418
        98                         -0.0935268              -2.5450
        99                          0.0144874               0.3942
       100                          0.0204341               0.5560
       101                          0.0238353               0.6486
       102                          0.0258588               0.7037
       ...                                ...                  ...
       177                          0.6789836              18.4761
      -------------------------------------------------------------
                  HL-Gap            0.1244864 Eh            3.3874 eV
             Fermi-level           -0.3089059 Eh           -8.4058 eV

     #   Z          covCN         q      C6AA      α(0)
     1   6 C        2.838    -0.151    31.896     9.255
     2   6 C        2.834     0.140    24.934     8.183
     3   6 C        3.809    -0.073    21.888     6.660
     4   6 C        3.878    -0.021    20.893     6.499
     5   6 C        3.832    -0.061    21.653     6.621
     6   6 C        3.825    -0.069    21.806     6.645
     7   6 C        2.911     0.114    25.486     8.278
     8   7 N        1.842    -0.124    24.474     7.332
     9   8 O        1.772    -0.210    17.473     5.644
    10   6 C        2.703     0.362    20.850     7.474
    11   8 O        0.856    -0.383    21.348     6.195
    12   6 C        3.804    -0.094    22.280     6.720
    13   6 C        3.830    -0.060    21.622     6.616
    14   6 C        3.715     0.031    20.171     6.417
    15  17 Cl       0.915    -0.212   105.809    15.737
    16   6 C        3.873    -0.030    21.063     6.526
    17   6 C        3.806    -0.050    21.468     6.596
    18   6 C        3.803    -0.057    21.598     6.617
    19   6 C        3.804    -0.061    21.664     6.626
    20   6 C        3.801    -0.052    21.512     6.604
    21   6 C        3.752    -0.102    22.517     6.767
    22   8 O        1.705    -0.280    18.645     5.830
    23   6 C        3.698     0.082    19.381     6.297
    24   6 C        2.896    -0.071    29.758     8.944
    25   6 C        2.941     0.006    27.896     8.662
    26   6 C        3.758    -0.108    22.615     6.780
    27   6 C        3.811    -0.060    21.645     6.622
    28   6 C        3.805    -0.052    21.508     6.602
    29   6 C        2.897    -0.059    29.457     8.899
    30   6 C        2.937     0.008    27.848     8.655
    31   6 C        3.758    -0.107    22.595     6.777
    32   6 C        3.760    -0.109    22.637     6.783
    33   1 H        0.926     0.035     2.513     2.479
    34   1 H        0.926     0.031     2.572     2.508
    35   1 H        0.924     0.045     2.388     2.417
    36   1 H        0.924     0.055     2.261     2.352
    37   1 H        0.924     0.040     2.450     2.448
    38   1 H        0.925     0.055     2.261     2.352
    39   1 H        0.924     0.034     2.529     2.487
    40   1 H        0.924     0.071     2.076     2.253
    41   1 H        0.925     0.065     2.146     2.291
    42   1 H        0.924     0.073     2.050     2.239
    43   1 H        0.924     0.078     1.997     2.210
    44   1 H        0.924     0.059     2.210     2.325
    45   1 H        0.924     0.070     2.090     2.261
    46   1 H        0.925     0.068     2.111     2.272
    47   1 H        0.925     0.062     2.174     2.306
    48   1 H        0.924     0.052     2.294     2.368
    49   1 H        0.924     0.042     2.425     2.435
    50   1 H        0.924     0.033     2.543     2.494
    51   1 H        0.924     0.029     2.600     2.521
    52   1 H        0.924     0.032     2.563     2.504
    53   1 H        0.924     0.029     2.607     2.525
    54   1 H        0.924     0.040     2.447     2.446
    55   1 H        0.924     0.030     2.590     2.517
    56   1 H        0.924     0.027     2.634     2.538
    57   1 H        0.925     0.032     2.553     2.499
    58   1 H        0.925     0.036     2.496     2.471
    59   1 H        0.925     0.033     2.549     2.497
    60   1 H        0.924     0.051     2.311     2.377
    61   1 H        0.923     0.034     2.536     2.491
    62   1 H        0.926     0.039     2.462     2.453
    63   1 H        0.925     0.040     2.455     2.450
    64   1 H        0.925     0.045     2.383     2.414
    65   1 H        0.925     0.043     2.410     2.428
    66   1 H        0.924     0.036     2.497     2.471
    67   1 H        0.924     0.039     2.458     2.452
    68   1 H        0.924     0.033     2.539     2.492
    69   1 H        0.924     0.034     2.530     2.487
    70   1 H        0.925     0.022     2.707     2.573
    71   1 H        0.924     0.041     2.435     2.440
    72   1 H        0.925     0.041     2.441     2.443
    73   1 H        0.925     0.040     2.447     2.446
    74   1 H        0.925     0.036     2.502     2.474
    75   1 H        0.925     0.043     2.407     2.426
    76   1 H        0.925     0.042     2.428     2.437

 Mol. C6AA /au·bohr⁶  :      51162.231657
 Mol. C8AA /au·bohr⁸  :    1173209.618777
 Mol. α(0) /au        :        341.629102


Wiberg/Mayer (AO) data.
largest (>0.10) Wiberg bond orders for each atom

 ---------------------------------------------------------------------------
     #   Z sym  total        # sym  WBO       # sym  WBO       # sym  WBO
 ---------------------------------------------------------------------------
     1   6 C    3.971 --     2 C    1.834    34 H    0.977    33 H    0.972
                            22 O    0.124
     2   6 C    3.933 --     1 C    1.834    22 O    1.057     3 C    0.997
     3   6 C    3.995 --     2 C    0.997     4 C    0.982    36 H    0.972
                            35 H    0.970
     4   6 C    3.994 --     5 C    0.996    16 C    0.982     3 C    0.982
                            37 H    0.966
     5   6 C    3.995 --     6 C    1.004     4 C    0.996    39 H    0.979
                            38 H    0.974
     6   6 C    3.992 --     7 C    1.009     5 C    1.004    41 H    0.961
                            40 H    0.948
     7   6 C    3.958 --     8 N    1.822     6 C    1.009    16 C    0.990
     8   7 N    2.967 --     7 C    1.822     9 O    0.949
     9   8 O    2.333 --    10 C    1.114     8 N    0.949    11 O    0.166
    10   6 C    3.917 --    11 O    1.782     9 O    1.114    12 C    0.957
    11   8 O    2.067 --    10 C    1.782     9 O    0.166
    12   6 C    3.992 --    13 C    1.004    43 H    0.966    10 C    0.957
                            42 H    0.950
    13   6 C    3.993 --    14 C    1.019    12 C    1.004    44 H    0.974
                            45 H    0.964
    14   6 C    3.938 --    13 C    1.019    47 H    0.979    46 H    0.977
                            15 Cl   0.944
    15  17 Cl   0.995 --    14 C    0.944
    16   6 C    3.994 --     7 C    0.990     4 C    0.982    17 C    0.969
                            48 H    0.949
    17   6 C    3.994 --    18 C    1.006    50 H    0.977    49 H    0.974
                            16 C    0.969
    18   6 C    3.997 --    19 C    1.006    17 C    1.006    52 H    0.977
                            51 H    0.975
    19   6 C    3.995 --    20 C    1.007    18 C    1.006    53 H    0.978
                            54 H    0.975
    20   6 C    3.997 --    21 C    1.019    19 C    1.007    56 H    0.979
                            55 H    0.979
    21   6 C    3.997 --    20 C    1.019    59 H    0.988    58 H    0.988
                            57 H    0.988
    22   8 O    2.232 --     2 C    1.057    23 C    0.969     1 C    0.124
    23   6 C    3.948 --    24 C    1.011    22 O    0.969    61 H    0.955
                            60 H    0.953
    24   6 C    3.984 --    25 C    1.878    23 C    1.011    62 H    0.963
    25   6 C    3.987 --    24 C    1.878    26 C    1.023    27 C    1.014
    26   6 C    3.997 --    25 C    1.023    64 H    0.985    65 H    0.972
                            63 H    0.971
    27   6 C    3.996 --    25 C    1.014    67 H    0.975    28 C    0.969
                            66 H    0.967
    28   6 C    3.997 --    29 C    1.022    69 H    0.977    27 C    0.969
                            68 H    0.966
    29   6 C    3.987 --    30 C    1.885    28 C    1.022    70 H    0.966
    30   6 C    3.988 --    29 C    1.885    31 C    1.024    32 C    1.022
    31   6 C    3.997 --    30 C    1.024    72 H    0.980    73 H    0.977
                            71 H    0.969
    32   6 C    3.997 --    30 C    1.022    74 H    0.985    75 H    0.974
                            76 H    0.973
    33   1 H    0.998 --     1 C    0.972
    34   1 H    0.999 --     1 C    0.977
    35   1 H    0.998 --     3 C    0.970
    36   1 H    0.997 --     3 C    0.972
    37   1 H    0.998 --     4 C    0.966
    38   1 H    0.996 --     5 C    0.974
    39   1 H    0.999 --     5 C    0.979
    40   1 H    0.995 --     6 C    0.948
    41   1 H    0.995 --     6 C    0.961
    42   1 H    0.994 --    12 C    0.950
    43   1 H    0.994 --    12 C    0.966
    44   1 H    0.996 --    13 C    0.974
    45   1 H    0.995 --    13 C    0.964
    46   1 H    0.995 --    14 C    0.977
    47   1 H    0.996 --    14 C    0.979
    48   1 H    0.997 --    16 C    0.949
    49   1 H    0.998 --    17 C    0.974
    50   1 H    0.999 --    17 C    0.977
    51   1 H    0.999 --    18 C    0.975
    52   1 H    0.999 --    18 C    0.977
    53   1 H    0.999 --    19 C    0.978
    54   1 H    0.998 --    19 C    0.975
    55   1 H    0.999 --    20 C    0.979
    56   1 H    0.999 --    20 C    0.979
    57   1 H    0.999 --    21 C    0.988
    58   1 H    0.999 --    21 C    0.988
    59   1 H    0.999 --    21 C    0.988
    60   1 H    0.997 --    23 C    0.953
    61   1 H    0.999 --    23 C    0.955
    62   1 H    0.998 --    24 C    0.963
    63   1 H    0.998 --    26 C    0.971
    64   1 H    0.998 --    26 C    0.985
    65   1 H    0.998 --    26 C    0.972
    66   1 H    0.998 --    27 C    0.967
    67   1 H    0.998 --    27 C    0.975
    68   1 H    0.998 --    28 C    0.966
    69   1 H    0.999 --    28 C    0.977
    70   1 H    1.000 --    29 C    0.966
    71   1 H    0.998 --    31 C    0.969
    72   1 H    0.998 --    31 C    0.980
    73   1 H    0.998 --    31 C    0.977
    74   1 H    0.999 --    32 C    0.985
    75   1 H    0.998 --    32 C    0.974
    76   1 H    0.998 --    32 C    0.973
 ---------------------------------------------------------------------------

Topologies differ in total number of bonds
Writing topology from bond orders to xtbtopo.mol

molecular dipole:
                 x           y           z       tot (Debye)
 q only:        0.902      -0.548       0.180
   full:        0.946      -0.894       0.251       3.370
molecular quadrupole (traceless):
                xx          xy          yy          xz          yz          zz
 q only:       14.601       1.672     -11.380       5.161       7.348      -3.222
  q+dip:       15.892       0.786     -14.582       4.560      11.898      -1.310
   full:       15.596       2.048     -14.940       3.670      11.705      -0.656

           -------------------------------------------------
          |                Geometry Summary                 |
           -------------------------------------------------

      molecular mass/u    :      466.0971178
   center of mass at/Å    :       -0.6396700       0.2211923      -0.1531062
  moments of inertia/u·Å² :        0.2687548E+04   0.1183634E+05   0.1254681E+05
rotational constants/cm⁻¹ :        0.6272495E-02   0.1424227E-02   0.1343579E-02

 * 64 selected distances

     #   Z          #   Z                                           value/Å
     1   6 C        2   6 C                                       1.3270872
     3   6 C        4   6 C                                       1.5361040
     4   6 C        5   6 C                                       1.5346686
     5   6 C        6   6 C                                       1.5289779
     7   6 C        8   7 N                                       1.2619592
     9   8 O       10   6 C                                       1.3399453
    10   6 C       11   8 O                                       1.1973811
    12   6 C       13   6 C                                       1.5272369
    13   6 C       14   6 C                                       1.5197948
    14   6 C       15  17 Cl                                      1.7835340 (max)
     4   6 C       16   6 C                                       1.5371893
    16   6 C       17   6 C                                       1.5385440
    17   6 C       18   6 C                                       1.5262329
    18   6 C       19   6 C                                       1.5265188
    19   6 C       20   6 C                                       1.5264684
    20   6 C       21   6 C                                       1.5233955
     2   6 C       22   8 O                                       1.3640485
    22   8 O       23   6 C                                       1.4118994
    24   6 C       25   6 C                                       1.3276072
    29   6 C       30   6 C                                       1.3273794
     1   6 C       33   1 H                                       1.0738586 (min)
     1   6 C       34   1 H                                       1.0741125
     3   6 C       35   1 H                                       1.0909607
     3   6 C       36   1 H                                       1.0904076
     4   6 C       37   1 H                                       1.0923650
     5   6 C       38   1 H                                       1.0874474
     5   6 C       39   1 H                                       1.0912615
     6   6 C       40   1 H                                       1.0916351
     6   6 C       41   1 H                                       1.0887387
    12   6 C       42   1 H                                       1.0919711
    12   6 C       43   1 H                                       1.0902903
    13   6 C       44   1 H                                       1.0911590
    13   6 C       45   1 H                                       1.0920444
    14   6 C       46   1 H                                       1.0895605
    14   6 C       47   1 H                                       1.0898083
    16   6 C       48   1 H                                       1.0946778
    17   6 C       49   1 H                                       1.0917037
    17   6 C       50   1 H                                       1.0919882
    18   6 C       51   1 H                                       1.0923302
    18   6 C       52   1 H                                       1.0926212
    19   6 C       53   1 H                                       1.0928171
    19   6 C       54   1 H                                       1.0918442
    20   6 C       55   1 H                                       1.0922999
    20   6 C       56   1 H                                       1.0928375
    21   6 C       57   1 H                                       1.0875820
    21   6 C       58   1 H                                       1.0877294
    21   6 C       59   1 H                                       1.0880001
    23   6 C       60   1 H                                       1.0970771
    23   6 C       61   1 H                                       1.0993337
    24   6 C       62   1 H                                       1.0806232
    26   6 C       63   1 H                                       1.0899551
    26   6 C       64   1 H                                       1.0866402
    26   6 C       65   1 H                                       1.0895531
    27   6 C       66   1 H                                       1.0930683
    27   6 C       67   1 H                                       1.0904891
    28   6 C       68   1 H                                       1.0918472
    28   6 C       69   1 H                                       1.0911885
    29   6 C       70   1 H                                       1.0820836
    31   6 C       71   1 H                                       1.0904597
    31   6 C       72   1 H                                       1.0854105
    31   6 C       73   1 H                                       1.0892839
    32   6 C       74   1 H                                       1.0866813
    32   6 C       75   1 H                                       1.0896701
    32   6 C       76   1 H                                       1.0900077

 * 5 distinct bonds (by element types)

   Z      Z             #   av. dist./Å        max./Å        min./Å
   1 H    6 C          44     1.0896687     1.0993337     1.0738586
   6 C    6 C          14     1.4862289     1.5385440     1.3270872
   6 C    7 N           1     1.2619592     1.2619592     1.2619592
   6 C    8 O           4     1.3283186     1.4118994     1.1973811
   6 C   17 Cl          1     1.7835340     1.7835340     1.7835340


optimized geometry written to: xtbopt.xyz


           -------------------------------------------------
          | TOTAL ENERGY              -99.882452076421 Eh   |
          | GRADIENT NORM               0.000150324382 Eh/α |
          | HOMO-LUMO GAP               3.387448717505 eV   |
           -------------------------------------------------

------------------------------------------------------------------------
 * finished run on 2026/07/06 at 19:24:56.947     
------------------------------------------------------------------------
 total:
 * wall-time:     0 d,  0 h,  0 min, 32.595 sec
 *  cpu-time:     0 d,  0 h,  8 min, 37.777 sec
 * ratio c/w:    15.885 speedup
 SCF:
 * wall-time:     0 d,  0 h,  0 min,  0.444 sec
 *  cpu-time:     0 d,  0 h,  0 min,  7.070 sec
 * ratio c/w:    15.914 speedup
 ANC optimizer:
 * wall-time:     0 d,  0 h,  0 min, 32.089 sec
 *  cpu-time:     0 d,  0 h,  8 min, 29.815 sec
 * ratio c/w:    15.887 speedup

