      -----------------------------------------------------------      
     |                   =====================                   |     
     |                           x T B                           |     
     |                   =====================                   |     
     |                         S. Grimme                         |     
     |          Mulliken Center for Theoretical Chemistry        |     
     |                    University of Bonn                     |     
      -----------------------------------------------------------      

   * xtb version 6.7.1 (edcfbbe) compiled by 'conda@5dfe00f5fb80' on 2026-06-10

   xtb is free software: you can redistribute it and/or modify it under
   the terms of the GNU Lesser General Public License as published by
   the Free Software Foundation, either version 3 of the License, or
   (at your option) any later version.
   
   xtb is distributed in the hope that it will be useful,
   but WITHOUT ANY WARRANTY; without even the implied warranty of
   MERCHANTABILITY or FITNESS FOR A PARTICULAR PURPOSE.  See the
   GNU Lesser General Public License for more details.
   
   Cite this work as:
   * C. Bannwarth, E. Caldeweyher, S. Ehlert, A. Hansen, P. Pracht,
     J. Seibert, S. Spicher, S. Grimme, WIREs Comput. Mol. Sci., 2020, 11,
     e01493. DOI: 10.1002/wcms.1493
   
   for GFN2-xTB:
   * C. Bannwarth, S. Ehlert and S. Grimme., J. Chem. Theory Comput., 2019,
     15, 1652-1671. DOI: 10.1021/acs.jctc.8b01176
   for GFN1-xTB:
   * S. Grimme, C. Bannwarth, P. Shushkov, J. Chem. Theory Comput., 2017,
     13, 1989-2009. DOI: 10.1021/acs.jctc.7b00118
   for GFN0-xTB:
   * P. Pracht, E. Caldeweyher, S. Ehlert, S. Grimme, ChemRxiv, 2019, preprint.
     DOI: 10.26434/chemrxiv.8326202.v1
   for GFN-FF:
   * S. Spicher and S. Grimme, Angew. Chem. Int. Ed., 2020, 59, 15665-15673.
     DOI: 10.1002/anie.202004239
   
   for ALPB and GBSA implicit solvation:
   * S. Ehlert, M. Stahn, S. Spicher, S. Grimme, J. Chem. Theory Comput.,
     2021, 17, 4250-4261. DOI: 10.1021/acs.jctc.1c00471
   
   for ddCOSMO and CPCM-X implicit solvation:
   * M. Stahn, S. Ehlert, S. Grimme, J. Phys. Chem. A,
     2023, XX, XXXX-XXXX. DOI: 10.1021/acs.jpca.3c04382
   
   for DFT-D4:
   * E. Caldeweyher, C. Bannwarth and S. Grimme, J. Chem. Phys., 2017,
     147, 034112. DOI: 10.1063/1.4993215
   * E. Caldeweyher, S. Ehlert, A. Hansen, H. Neugebauer, S. Spicher,
     C. Bannwarth and S. Grimme, J. Chem. Phys., 2019, 150, 154122.
     DOI: 10.1063/1.5090222
   * E. Caldeweyher, J.-M. Mewes, S. Ehlert and S. Grimme, Phys. Chem. Chem. Phys.
     2020, 22, 8499-8512. DOI: 10.1039/D0CP00502A
   
   for sTDA-xTB:
   * S. Grimme and C. Bannwarth, J. Chem. Phys., 2016, 145, 054103.
     DOI: 10.1063/1.4959605
   
   in the mass-spec context:
   * V. Asgeirsson, C. Bauer and S. Grimme, Chem. Sci., 2017, 8, 4879.
     DOI: 10.1039/c7sc00601b
   * J. Koopman and S. Grimme, ACS Omega 2019, 4, 12, 15120-15133.
     DOI: 10.1021/acsomega.9b02011
   
   for metadynamics refer to:
   * S. Grimme, J. Chem. Theory Comput., 2019, 155, 2847-2862
     DOI: 10.1021/acs.jctc.9b00143
   
   for SPH calculations refer to:
   * S. Spicher and S. Grimme, J. Chem. Theory Comput., 2021, 17, 1701-1714
     DOI: 10.1021/acs.jctc.0c01306
   
   for ONIOM refer to:
   * C. Plett, A. Katbashev, S. Ehlert, S. Grimme, M. Bursch,
     Phys. Chem. Chem. Phys., 2023, 25, 17860-17868. DOI: 10.1039/D3CP02178E
   
   for DIPRO refer to:
   * J. Kohn, N. Gildemeister, S. Grimme, D. Fazzi, A. Hansen,
     J. Chem. Phys., 2023, just accepted.
   
   for PTB refer to:
   * S. Grimme, M. Mueller, A. Hansen, J. Chem. Phys., 2023, 158, 124111.
     DOI: 10.1063/5.0137838
   
   with help from (in alphabetical order)
   P. Atkinson, C. Bannwarth, F. Bohle, G. Brandenburg, E. Caldeweyher
   M. Checinski, S. Dohm, S. Ehlert, S. Ehrlich, I. Gerasimov, C. Hölzer
   A. Katbashev, J. Kohn, J. Koopman, C. Lavigne, S. Lehtola, F. März, M. Müller,
   F. Musil, H. Neugebauer, J. Pisarek, C. Plett, P. Pracht, F. Pultar,
   J. Seibert, P. Shushkov, S. Spicher, M. Stahn, M. Steiner, T. Strunk,
   J. Stückrath, T. Rose, and J. Unsleber
   
 * started run on 2026/07/07 at 04:07:21.089     
   ID    Z sym.   atoms
    1    6 C      1-7, 10-19, 21-26
    2    8 O      8, 9
    3    7 N      20, 27
    4    1 H      28-57

           -------------------------------------------------
          |                Calculation Setup                |
           -------------------------------------------------

          program call               : /home/ws/xd2484/miniforge3/envs/p3z_dft/bin/xtb xtb_input.xyz --gfn 2 --opt tight --cycles 500 --chrg 0 --uhf 0
          hostname                   : gpu10
          coordinate file            : xtb_input.xyz
          omp threads                :                    16


           -------------------------------------------------
          |                 G F N 2 - x T B                 |
           -------------------------------------------------

        Reference                      10.1021/acs.jctc.8b01176
      * Hamiltonian:
        H0-scaling (s, p, d)           1.850000    2.230000    2.230000
        zeta-weighting                 0.500000
      * Dispersion:
        s8                             2.700000
        a1                             0.520000
        a2                             5.000000
        s9                             5.000000
      * Repulsion:
        kExp                           1.500000    1.000000
        rExp                           1.000000
      * Coulomb:
        alpha                          2.000000
        third order                    shell-resolved
        anisotropic                    true
        a3                             3.000000
        a5                             4.000000
        cn-shift                       1.200000
        cn-exp                         4.000000
        max-rad                        5.000000


          ...................................................
          :                      SETUP                      :
          :.................................................:
          :  # basis functions                 138          :
          :  # atomic orbitals                 138          :
          :  # shells                           84          :
          :  # electrons                       144          :
          :  max. iterations                   250          :
          :  Hamiltonian                  GFN2-xTB          :
          :  restarted?                      false          :
          :  GBSA solvation                  false          :
          :  PC potential                    false          :
          :  electronic temp.          300.0000000     K    :
          :  accuracy                    1.0000000          :
          :  -> integral cutoff          0.2500000E+02      :
          :  -> integral neglect         0.1000000E-07      :
          :  -> SCF convergence          0.1000000E-05 Eh   :
          :  -> wf. convergence          0.1000000E-03 e    :
          :  Broyden damping             0.4000000          :
          :  net charge                          0          :
          :  unpaired electrons                  0          :
          ...................................................

 iter      E             dE          RMSdq      gap      omega  full diag
   1    -79.4933719 -0.794934E+02  0.365E+00    3.00       0.0  T
   2    -79.6097630 -0.116391E+00  0.216E+00    2.90       1.0  T
   3    -79.6043922  0.537083E-02  0.113E+00    2.85       1.0  T
   4    -79.6209583 -0.165661E-01  0.487E-01    2.55       1.0  T
   5    -79.6296588 -0.870041E-02  0.144E-01    2.52       1.0  T
   6    -79.6303326 -0.673817E-03  0.533E-02    2.55       1.0  T
   7    -79.6303855 -0.529717E-04  0.277E-02    2.57       1.0  T
   8    -79.6303968 -0.112388E-04  0.104E-02    2.58       1.3  T
   9    -79.6303993 -0.251711E-05  0.428E-03    2.58       3.1  T
  10    -79.6303997 -0.424406E-06  0.209E-03    2.58       6.3  T
  11    -79.6303998 -0.120895E-06  0.816E-04    2.58      16.2  T
  12    -79.6303999 -0.185859E-07  0.417E-04    2.58      31.7  T

   *** convergence criteria satisfied after 12 iterations ***

         #    Occupation            Energy/Eh            Energy/eV
      -------------------------------------------------------------
         1        2.0000           -0.7350360             -20.0013
       ...           ...                  ...                  ...
        66        2.0000           -0.4156336             -11.3100
        67        2.0000           -0.4095209             -11.1436
        68        2.0000           -0.4043945             -11.0041
        69        2.0000           -0.3965590             -10.7909
        70        2.0000           -0.3898627             -10.6087
        71        2.0000           -0.3834925             -10.4354
        72        2.0000           -0.3741544             -10.1813 (HOMO)
        73                         -0.2794654              -7.6046 (LUMO)
        74                         -0.2290616              -6.2331
        75                         -0.2250488              -6.1239
        76                         -0.2120157              -5.7692
        77                         -0.1927758              -5.2457
       ...                                ...                  ...
       138                          0.6555138              17.8374
      -------------------------------------------------------------
                  HL-Gap            0.0946890 Eh            2.5766 eV
             Fermi-level           -0.3268099 Eh           -8.8930 eV

 SCC (total)                   0 d,  0 h,  0 min,  0.295 sec
 SCC setup                      ...        0 min,  0.005 sec (  1.614%)
 Dispersion                     ...        0 min,  0.008 sec (  2.673%)
 classical contributions        ...        0 min,  0.005 sec (  1.546%)
 integral evaluation            ...        0 min,  0.017 sec (  5.608%)
 iterations                     ...        0 min,  0.207 sec ( 69.916%)
 molecular gradient             ...        0 min,  0.055 sec ( 18.541%)
 printout                       ...        0 min,  0.000 sec (  0.091%)

         :::::::::::::::::::::::::::::::::::::::::::::::::::::
         ::                     SUMMARY                     ::
         :::::::::::::::::::::::::::::::::::::::::::::::::::::
         :: total energy             -78.497550648367 Eh    ::
         :: gradient norm              0.089450133219 Eh/a0 ::
         :: HOMO-LUMO gap              2.576618659099 eV    ::
         ::.................................................::
         :: SCC energy               -79.630123696907 Eh    ::
         :: -> isotropic ES            0.058845118134 Eh    ::
         :: -> anisotropic ES          0.010825845071 Eh    ::
         :: -> anisotropic XC          0.043186888566 Eh    ::
         :: -> dispersion             -0.053795295020 Eh    ::
         :: repulsion energy           1.132573048540 Eh    ::
         :: add. restraining           0.000000000000 Eh    ::
         :: total charge               0.000000000000 e     ::
         :::::::::::::::::::::::::::::::::::::::::::::::::::::

      ----------------------------------------------------------- 
     |                   =====================                   |
     |                        A N C O P T                        |
     |                   =====================                   |
     |               Approximate Normal Coordinate               |
     |                Rational Function Optimizer                |
      ----------------------------------------------------------- 
      ----------------------------------------------------------- 
     |                   =====================                   |
     |                        A N C O P T                        |
     |                   =====================                   |
     |               Approximate Normal Coordinate               |
     |                Rational Function Optimizer                |
      ----------------------------------------------------------- 

          ...................................................
          :                      SETUP                      :
          :.................................................:
          :   optimization level             tight          :
          :   max. optcycles                   500          :
          :   ANC micro-cycles                  20          :
          :   degrees of freedom               165          :
          :.................................................:
          :   RF solver                   davidson          :
          :   write xtbopt.log                true          :
          :   linear?                        false          :
          :   energy convergence         0.1000000E-05 Eh   :
          :   grad. convergence          0.8000000E-03 Eh/α :
          :   maxmium RF displ.          1.0000000          :
          :   Hlow (freq-cutoff)         0.1000000E-01      :
          :   Hmax (freq-cutoff)         5.0000000          :
          :   S6 in model hess.         20.0000000          :
          ...................................................

generating ANC from exact Hessian ...
Using Lindh-Hessian (1995)
 Shifting diagonal of input Hessian by    9.9319836534458063E-003
 Lowest  eigenvalues of input Hessian
    0.000000    0.000000    0.000000    0.000000    0.000000    0.000000
    0.010000    0.010043    0.010154    0.010438    0.010540    0.010695
    0.010874    0.010993    0.011315    0.011383    0.012260    0.013093
 Highest eigenvalues
    1.867877    1.881553    1.945186    2.043909    2.092681    2.370804


........................................................................
.............................. CYCLE    1 ..............................
........................................................................

 iter      E             dE          RMSdq      gap      omega  full diag
   1    -79.6303999 -0.796304E+02  0.182E-04    2.58       0.0  T
   2    -79.6303999 -0.253223E-09  0.123E-04    2.58     107.8  T
   3    -79.6303999 -0.194390E-09  0.873E-05    2.58     151.8  T
     SCC iter.                  ...        0 min,  0.069 sec
     gradient                   ...        0 min,  0.064 sec
 * total energy  :   -78.4975507 Eh     change       -0.2615124E-08 Eh
   gradient norm :     0.0894509 Eh/α   predicted     0.0000000E+00 (-100.00%)
   displ. norm   :     0.3183248 α      lambda       -0.1514827E-01
   maximum displ.:     0.0681382 α      in ANC's #47, #39, #22, ...

........................................................................
.............................. CYCLE    2 ..............................
........................................................................

 iter      E             dE          RMSdq      gap      omega  full diag
   1    -79.6850338 -0.796850E+02  0.179E-01    2.77       0.0  T
   2    -79.6851954 -0.161625E-03  0.107E-01    2.77       1.0  T
   3    -79.6851547  0.407847E-04  0.539E-02    2.78       1.0  T
   4    -79.6852429 -0.882238E-04  0.159E-02    2.77       1.0  T
   5    -79.6852538 -0.109470E-04  0.483E-03    2.77       2.7  T
   6    -79.6852544 -0.582159E-06  0.246E-03    2.78       5.4  T
   7    -79.6852545 -0.503205E-07  0.911E-04    2.78      14.5  T
   8    -79.6852545 -0.373926E-07  0.290E-04    2.78      45.7  T
     SCC iter.                  ...        0 min,  0.169 sec
     gradient                   ...        0 min,  0.054 sec
 * total energy  :   -78.5070839 Eh     change       -0.9533288E-02 Eh
   gradient norm :     0.0348433 Eh/α   predicted    -0.8346481E-02 ( -12.45%)
   displ. norm   :     0.2591208 α      lambda       -0.3276986E-02
   maximum displ.:     0.0859975 α      in ANC's #15, #25, #22, ...

........................................................................
.............................. CYCLE    3 ..............................
........................................................................

 iter      E             dE          RMSdq      gap      omega  full diag
   1    -79.7108048 -0.797108E+02  0.112E-01    2.88       0.0  T
   2    -79.7109119 -0.107110E-03  0.688E-02    2.88       1.0  T
   3    -79.7109231 -0.111503E-04  0.360E-02    2.88       1.0  T
   4    -79.7109438 -0.207600E-04  0.110E-02    2.88       1.2  T
   5    -79.7109489 -0.509772E-05  0.258E-03    2.88       5.1  T
   6    -79.7109492 -0.256358E-06  0.116E-03    2.88      11.4  T
   7    -79.7109492 -0.565073E-08  0.614E-04    2.88      21.6  T
   8    -79.7109492 -0.128970E-07  0.172E-04    2.88      77.0  T
     SCC iter.                  ...        0 min,  0.167 sec
     gradient                   ...        0 min,  0.061 sec
 * total energy  :   -78.5090096 Eh     change       -0.1925647E-02 Eh
   gradient norm :     0.0120056 Eh/α   predicted    -0.1749548E-02 (  -9.14%)
   displ. norm   :     0.1966191 α      lambda       -0.6768813E-03
   maximum displ.:     0.0727988 α      in ANC's #15, #12, #8, ...

........................................................................
.............................. CYCLE    4 ..............................
........................................................................

 iter      E             dE          RMSdq      gap      omega  full diag
   1    -79.7128472 -0.797128E+02  0.574E-02    2.91       0.0  T
   2    -79.7128614 -0.141356E-04  0.345E-02    2.91       1.0  T
   3    -79.7128571  0.426229E-05  0.146E-02    2.91       1.0  T
   4    -79.7128638 -0.663877E-05  0.419E-03    2.91       3.2  T
   5    -79.7128646 -0.820604E-06  0.105E-03    2.91      12.6  T
   6    -79.7128646 -0.324003E-07  0.528E-04    2.91      25.1  T
   7    -79.7128646 -0.299829E-08  0.214E-04    2.91      62.0  T
     SCC iter.                  ...        0 min,  0.141 sec
     gradient                   ...        0 min,  0.060 sec
 * total energy  :   -78.5095073 Eh     change       -0.4977569E-03 Eh
   gradient norm :     0.0061914 Eh/α   predicted    -0.3515595E-03 ( -29.37%)
   displ. norm   :     0.2896295 α      lambda       -0.5737707E-03
   maximum displ.:     0.0996277 α      in ANC's #10, #15, #16, ...

........................................................................
.............................. CYCLE    5 ..............................
........................................................................

 iter      E             dE          RMSdq      gap      omega  full diag
   1    -79.7118664 -0.797119E+02  0.731E-02    2.93       0.0  T
   2    -79.7118743 -0.799503E-05  0.432E-02    2.93       1.0  T
   3    -79.7118690  0.535362E-05  0.121E-02    2.93       1.1  T
   4    -79.7118754 -0.641420E-05  0.361E-03    2.93       3.7  T
   5    -79.7118759 -0.533491E-06  0.117E-03    2.93      11.3  T
   6    -79.7118760 -0.306871E-07  0.587E-04    2.93      22.5  T
   7    -79.7118760 -0.571346E-08  0.196E-04    2.93      67.7  T
     SCC iter.                  ...        0 min,  0.105 sec
     gradient                   ...        0 min,  0.032 sec
 * total energy  :   -78.5099098 Eh     change       -0.4024527E-03 Eh
   gradient norm :     0.0072207 Eh/α   predicted    -0.3109564E-03 ( -22.73%)
   displ. norm   :     0.2807573 α      lambda       -0.3410115E-03
   maximum displ.:     0.1183314 α      in ANC's #10, #8, #16, ...

........................................................................
.............................. CYCLE    6 ..............................
........................................................................

 iter      E             dE          RMSdq      gap      omega  full diag
   1    -79.7107945 -0.797108E+02  0.677E-02    2.94       0.0  T
   2    -79.7107968 -0.232347E-05  0.397E-02    2.94       1.0  T
   3    -79.7107942  0.267801E-05  0.813E-03    2.94       1.6  T
   4    -79.7107975 -0.338310E-05  0.168E-03    2.94       7.9  T
   5    -79.7107976 -0.534832E-07  0.868E-04    2.94      15.3  T
   6    -79.7107976 -0.155605E-07  0.400E-04    2.94      33.1  T
     SCC iter.                  ...        0 min,  0.071 sec
     gradient                   ...        0 min,  0.049 sec
 * total energy  :   -78.5101595 Eh     change       -0.2496742E-03 Eh
   gradient norm :     0.0075646 Eh/α   predicted    -0.1839496E-03 ( -26.32%)
   displ. norm   :     0.2927501 α      lambda       -0.2752830E-03
   maximum displ.:     0.1427413 α      in ANC's #10, #8, #4, ...

........................................................................
.............................. CYCLE    7 ..............................
........................................................................

 iter      E             dE          RMSdq      gap      omega  full diag
   1    -79.7107232 -0.797107E+02  0.704E-02    2.95       0.0  T
   2    -79.7107264 -0.326038E-05  0.412E-02    2.95       1.0  T
   3    -79.7107241  0.235160E-05  0.795E-03    2.95       1.7  T
   4    -79.7107270 -0.296362E-05  0.173E-03    2.95       7.7  T
   5    -79.7107271 -0.114551E-06  0.688E-04    2.95      19.2  T
   6    -79.7107271 -0.116113E-08  0.378E-04    2.95      35.0  T
     SCC iter.                  ...        0 min,  0.099 sec
     gradient                   ...        0 min,  0.050 sec
 * total energy  :   -78.5103601 Eh     change       -0.2006052E-03 Eh
   gradient norm :     0.0053791 Eh/α   predicted    -0.1494387E-03 ( -25.51%)
   displ. norm   :     0.2587455 α      lambda       -0.2005114E-03
   maximum displ.:     0.1358996 α      in ANC's #10, #8, #4, ...

........................................................................
.............................. CYCLE    8 ..............................
........................................................................

 iter      E             dE          RMSdq      gap      omega  full diag
   1    -79.7117673 -0.797118E+02  0.627E-02    2.95       0.0  T
   2    -79.7117705 -0.320355E-05  0.366E-02    2.95       1.0  T
   3    -79.7117699  0.683516E-06  0.560E-03    2.95       2.4  T
   4    -79.7117708 -0.933607E-06  0.156E-03    2.95       8.5  T
   5    -79.7117709 -0.990038E-07  0.527E-04    2.95      25.1  T
   6    -79.7117709 -0.244793E-08  0.245E-04    2.95      54.0  T
     SCC iter.                  ...        0 min,  0.113 sec
     gradient                   ...        0 min,  0.055 sec
 * total energy  :   -78.5105117 Eh     change       -0.1515833E-03 Eh
   gradient norm :     0.0032810 Eh/α   predicted    -0.1069681E-03 ( -29.43%)
   displ. norm   :     0.2727050 α      lambda       -0.1726518E-03
   maximum displ.:     0.1476077 α      in ANC's #10, #4, #5, ...

........................................................................
.............................. CYCLE    9 ..............................
........................................................................

 iter      E             dE          RMSdq      gap      omega  full diag
   1    -79.7127855 -0.797128E+02  0.654E-02    2.95       0.0  T
   2    -79.7127881 -0.268687E-05  0.383E-02    2.95       1.0  T
   3    -79.7127870  0.109181E-05  0.568E-03    2.95       2.3  T
   4    -79.7127884 -0.134710E-05  0.156E-03    2.95       8.5  T
   5    -79.7127885 -0.117131E-06  0.575E-04    2.95      23.0  T
   6    -79.7127885 -0.618726E-08  0.306E-04    2.95      43.3  T
     SCC iter.                  ...        0 min,  0.086 sec
     gradient                   ...        0 min,  0.037 sec
 * total energy  :   -78.5106463 Eh     change       -0.1346097E-03 Eh
   gradient norm :     0.0038215 Eh/α   predicted    -0.9274736E-04 ( -31.10%)
   displ. norm   :     0.3115124 α      lambda       -0.1706342E-03
   maximum displ.:     0.1696853 α      in ANC's #10, #5, #4, ...

........................................................................
.............................. CYCLE   10 ..............................
........................................................................

 iter      E             dE          RMSdq      gap      omega  full diag
   1    -79.7133255 -0.797133E+02  0.735E-02    2.95       0.0  T
   2    -79.7133276 -0.213799E-05  0.432E-02    2.95       1.0  T
   3    -79.7133247  0.292494E-05  0.787E-03    2.95       1.7  T
   4    -79.7133282 -0.347190E-05  0.154E-03    2.95       8.6  T
   5    -79.7133283 -0.923957E-07  0.730E-04    2.95      18.2  T
   6    -79.7133283 -0.117802E-07  0.367E-04    2.95      36.1  T
     SCC iter.                  ...        0 min,  0.067 sec
     gradient                   ...        0 min,  0.043 sec
 * total energy  :   -78.5107843 Eh     change       -0.1380709E-03 Eh
   gradient norm :     0.0049267 Eh/α   predicted    -0.9360346E-04 ( -32.21%)
   displ. norm   :     0.3779859 α      lambda       -0.1965666E-03
   maximum displ.:     0.2042836 α      in ANC's #10, #5, #4, ...

........................................................................
.............................. CYCLE   11 ..............................
........................................................................

 iter      E             dE          RMSdq      gap      omega  full diag
   1    -79.7132946 -0.797133E+02  0.880E-02    2.94       0.0  T
   2    -79.7132966 -0.208089E-05  0.517E-02    2.94       1.0  T
   3    -79.7132918  0.483504E-05  0.102E-02    2.94       1.3  T
   4    -79.7132975 -0.571416E-05  0.179E-03    2.94       7.4  T
   5    -79.7132976 -0.967443E-07  0.923E-04    2.94      14.4  T
   6    -79.7132976 -0.141182E-07  0.393E-04    2.94      33.7  T
     SCC iter.                  ...        0 min,  0.091 sec
     gradient                   ...        0 min,  0.031 sec
 * total energy  :   -78.5109447 Eh     change       -0.1603935E-03 Eh
   gradient norm :     0.0052749 Eh/α   predicted    -0.1123266E-03 ( -29.97%)
   displ. norm   :     0.4468477 α      lambda       -0.2244488E-03
   maximum displ.:     0.2372666 α      in ANC's #10, #5, #4, ...

........................................................................
.............................. CYCLE   12 ..............................
........................................................................

 iter      E             dE          RMSdq      gap      omega  full diag
   1    -79.7128637 -0.797129E+02  0.103E-01    2.93       0.0  T
   2    -79.7128664 -0.268520E-05  0.604E-02    2.93       1.0  T
   3    -79.7128605  0.589200E-05  0.117E-02    2.93       1.1  T
   4    -79.7128675 -0.699319E-05  0.228E-03    2.93       5.8  T
   5    -79.7128676 -0.153225E-06  0.115E-03    2.93      11.5  T
   6    -79.7128676 -0.201190E-07  0.483E-04    2.93      27.4  T
   7    -79.7128676 -0.210318E-08  0.191E-04    2.93      69.2  T
     SCC iter.                  ...        0 min,  0.088 sec
     gradient                   ...        0 min,  0.032 sec
 * total energy  :   -78.5111228 Eh     change       -0.1780676E-03 Eh
   gradient norm :     0.0050607 Eh/α   predicted    -0.1346338E-03 ( -24.39%)
   displ. norm   :     0.4500535 α      lambda       -0.2138263E-03
   maximum displ.:     0.2304648 α      in ANC's #10, #5, #4, ...

........................................................................
.............................. CYCLE   13 ..............................
........................................................................

 iter      E             dE          RMSdq      gap      omega  full diag
   1    -79.7126535 -0.797127E+02  0.102E-01    2.93       0.0  T
   2    -79.7126567 -0.322460E-05  0.597E-02    2.93       1.0  T
   3    -79.7126517  0.495837E-05  0.112E-02    2.93       1.2  T
   4    -79.7126576 -0.589708E-05  0.264E-03    2.93       5.0  T
   5    -79.7126578 -0.229694E-06  0.119E-03    2.93      11.1  T
   6    -79.7126579 -0.207166E-07  0.580E-04    2.93      22.8  T
   7    -79.7126579 -0.371799E-08  0.192E-04    2.93      69.1  T
     SCC iter.                  ...        0 min,  0.098 sec
     gradient                   ...        0 min,  0.053 sec
 * total energy  :   -78.5112852 Eh     change       -0.1623562E-03 Eh
   gradient norm :     0.0045248 Eh/α   predicted    -0.1285713E-03 ( -20.81%)
   displ. norm   :     0.3893936 α      lambda       -0.1625619E-03
   maximum displ.:     0.1883015 α      in ANC's #10, #5, #4, ...

........................................................................
.............................. CYCLE   14 ..............................
........................................................................

 iter      E             dE          RMSdq      gap      omega  full diag
   1    -79.7127037 -0.797127E+02  0.865E-02    2.92       0.0  T
   2    -79.7127065 -0.276366E-05  0.506E-02    2.92       1.0  T
   3    -79.7127033  0.317752E-05  0.901E-03    2.92       1.5  T
   4    -79.7127071 -0.375752E-05  0.250E-03    2.92       5.3  T
   5    -79.7127073 -0.236236E-06  0.991E-04    2.92      13.4  T
   6    -79.7127073 -0.125913E-07  0.503E-04    2.92      26.3  T
     SCC iter.                  ...        0 min,  0.190 sec
     gradient                   ...        0 min,  0.066 sec
 * total energy  :   -78.5114068 Eh     change       -0.1216087E-03 Eh
   gradient norm :     0.0039951 Eh/α   predicted    -0.9360901E-04 ( -23.02%)
   displ. norm   :     0.3393036 α      lambda       -0.1201733E-03
   maximum displ.:     0.1505986 α      in ANC's #10, #5, #4, ...

........................................................................
.............................. CYCLE   15 ..............................
........................................................................

 iter      E             dE          RMSdq      gap      omega  full diag
   1    -79.7129488 -0.797129E+02  0.736E-02    2.92       0.0  T
   2    -79.7129505 -0.172919E-05  0.431E-02    2.92       1.0  T
   3    -79.7129482  0.228607E-05  0.725E-03    2.92       1.8  T
   4    -79.7129509 -0.268800E-05  0.197E-03    2.92       6.7  T
   5    -79.7129510 -0.144114E-06  0.803E-04    2.92      16.5  T
   6    -79.7129510 -0.845959E-08  0.411E-04    2.92      32.2  T
     SCC iter.                  ...        0 min,  0.154 sec
     gradient                   ...        0 min,  0.046 sec
 * total energy  :   -78.5114964 Eh     change       -0.8965539E-04 Eh
   gradient norm :     0.0036016 Eh/α   predicted    -0.6700507E-04 ( -25.26%)
   displ. norm   :     0.3087726 α      lambda       -0.9306879E-04
   maximum displ.:     0.1285800 α      in ANC's #5, #10, #4, ...

........................................................................
.............................. CYCLE   16 ..............................
........................................................................

 iter      E             dE          RMSdq      gap      omega  full diag
   1    -79.7130990 -0.797131E+02  0.669E-02    2.92       0.0  T
   2    -79.7130998 -0.787074E-06  0.392E-02    2.92       1.0  T
   3    -79.7130983  0.152643E-05  0.586E-03    2.92       2.3  T
   4    -79.7131001 -0.184827E-05  0.122E-03    2.92      10.9  T
   5    -79.7131001 -0.305736E-07  0.646E-04    2.92      20.5  T
   6    -79.7131001 -0.669519E-08  0.307E-04    2.92      43.1  T
     SCC iter.                  ...        0 min,  0.073 sec
     gradient                   ...        0 min,  0.035 sec
 * total energy  :   -78.5115653 Eh     change       -0.6883219E-04 Eh
   gradient norm :     0.0033096 Eh/α   predicted    -0.5097278E-04 ( -25.95%)
   displ. norm   :     0.2363322 α      lambda       -0.7750701E-04
   maximum displ.:     0.0912647 α      in ANC's #5, #4, #3, ...

........................................................................
.............................. CYCLE   17 ..............................
........................................................................

 iter      E             dE          RMSdq      gap      omega  full diag
   1    -79.7152127 -0.797152E+02  0.493E-02    2.92       0.0  T
   2    -79.7152133 -0.623950E-06  0.289E-02    2.92       1.0  T
   3    -79.7152120  0.137246E-05  0.533E-03    2.92       2.5  T
   4    -79.7152136 -0.160205E-05  0.106E-03    2.92      12.5  T
   5    -79.7152136 -0.293319E-07  0.538E-04    2.92      24.6  T
   6    -79.7152136 -0.526059E-08  0.267E-04    2.92      49.6  T
     SCC iter.                  ...        0 min,  0.100 sec
     gradient                   ...        0 min,  0.039 sec
 * total energy  :   -78.5116164 Eh     change       -0.5109987E-04 Eh
   gradient norm :     0.0031519 Eh/α   predicted    -0.4091990E-04 ( -19.92%)
   displ. norm   :     0.4346741 α      lambda       -0.9615672E-04
   maximum displ.:     0.1763317 α      in ANC's #5, #10, #4, ...

........................................................................
.............................. CYCLE   18 ..............................
........................................................................

 iter      E             dE          RMSdq      gap      omega  full diag
   1    -79.7102853 -0.797103E+02  0.105E-01    2.91       0.0  T
   2    -79.7102888 -0.346347E-05  0.619E-02    2.91       1.0  T
   3    -79.7102847  0.414500E-05  0.100E-02    2.91       1.3  T
   4    -79.7102897 -0.502724E-05  0.214E-03    2.91       6.2  T
   5    -79.7102899 -0.158247E-06  0.101E-03    2.91      13.1  T
   6    -79.7102899 -0.184276E-07  0.501E-04    2.91      26.5  T
   7    -79.7102899 -0.245446E-08  0.201E-04    2.91      65.8  T
     SCC iter.                  ...        0 min,  0.115 sec
     gradient                   ...        0 min,  0.049 sec
 * total energy  :   -78.5116294 Eh     change       -0.1300185E-04 Eh
   gradient norm :     0.0059678 Eh/α   predicted    -0.5718722E-04 ( 339.84%)
   displ. norm   :     0.1287409 α      lambda       -0.9980673E-04
   maximum displ.:     0.0814267 α      in ANC's #10, #4, #5, ...

........................................................................
.............................. CYCLE   19 ..............................
........................................................................

 iter      E             dE          RMSdq      gap      omega  full diag
   1    -79.7148140 -0.797148E+02  0.314E-02    2.92       0.0  T
   2    -79.7148146 -0.575690E-06  0.185E-02    2.92       1.0  T
   3    -79.7148140  0.625593E-06  0.389E-03    2.92       3.4  T
   4    -79.7148147 -0.767524E-06  0.760E-04    2.92      17.4  T
   5    -79.7148148 -0.163579E-07  0.375E-04    2.92      35.3  T
     SCC iter.                  ...        0 min,  0.149 sec
     gradient                   ...        0 min,  0.051 sec
 * total energy  :   -78.5116889 Eh     change       -0.5957620E-04 Eh
   gradient norm :     0.0027897 Eh/α   predicted    -0.5073775E-04 ( -14.84%)
   displ. norm   :     0.1026276 α      lambda       -0.4872377E-04
   maximum displ.:     0.0450768 α      in ANC's #7, #3, #9, ...

........................................................................
.............................. CYCLE   20 ..............................
........................................................................

 iter      E             dE          RMSdq      gap      omega  full diag
   1    -79.7156308 -0.797156E+02  0.217E-02    2.92       0.0  T
   2    -79.7156311 -0.230511E-06  0.128E-02    2.92       1.0  T
   3    -79.7156307  0.317167E-06  0.280E-03    2.92       4.7  T
   4    -79.7156311 -0.388555E-06  0.491E-04    2.92      27.0  T
   5    -79.7156311 -0.483018E-08  0.272E-04    2.92      48.6  T
     SCC iter.                  ...        0 min,  0.082 sec
     gradient                   ...        0 min,  0.045 sec
 * total energy  :   -78.5117230 Eh     change       -0.3409999E-04 Eh
   gradient norm :     0.0029148 Eh/α   predicted    -0.2462744E-04 ( -27.78%)
   displ. norm   :     0.2435667 α      lambda       -0.7619011E-04
   maximum displ.:     0.1013309 α      in ANC's #7, #3, #9, ...
 * RMSD in coord.:     0.6060290 α      energy gain  -0.1417238E-01 Eh

generating ANC from exact Hessian ...
Using Lindh-Hessian (1995)
 Shifting diagonal of input Hessian by    9.9362674411323064E-003
 Lowest  eigenvalues of input Hessian
    0.000000    0.000000    0.000000    0.000000    0.000000    0.000000
    0.010000    0.010079    0.010176    0.010492    0.010544    0.010704
    0.010945    0.011121    0.011423    0.011716    0.012637    0.013402
 Highest eigenvalues
    1.937423    1.965451    2.025382    2.175584    2.210633    2.432309


........................................................................
.............................. CYCLE   21 ..............................
........................................................................

 iter      E             dE          RMSdq      gap      omega  full diag
   1    -79.7159065 -0.797159E+02  0.546E-02    2.92       0.0  T
   2    -79.7159071 -0.595271E-06  0.321E-02    2.92       1.0  T
   3    -79.7159061  0.107679E-05  0.490E-03    2.92       2.7  T
   4    -79.7159074 -0.128943E-05  0.979E-04    2.92      13.5  T
   5    -79.7159074 -0.272457E-07  0.511E-04    2.92      25.9  T
   6    -79.7159074 -0.504816E-08  0.236E-04    2.92      56.1  T
     SCC iter.                  ...        0 min,  0.136 sec
     gradient                   ...        0 min,  0.070 sec
 * total energy  :   -78.5117782 Eh     change       -0.5516010E-04 Eh
   gradient norm :     0.0033828 Eh/α   predicted     0.0000000E+00 (-100.00%)
   displ. norm   :     0.0310089 α      lambda       -0.2661099E-04
   maximum displ.:     0.0163311 α      in ANC's #7, #14, #24, ...

........................................................................
.............................. CYCLE   22 ..............................
........................................................................

 iter      E             dE          RMSdq      gap      omega  full diag
   1    -79.7148643 -0.797149E+02  0.783E-03    2.92       0.0  T
   2    -79.7148645 -0.179831E-06  0.474E-03    2.92       2.8  T
   3    -79.7148644  0.102471E-06  0.214E-03    2.92       6.2  T
   4    -79.7148645 -0.156990E-06  0.404E-04    2.92      32.8  T
   5    -79.7148645 -0.668615E-08  0.163E-04    2.92      81.1  T
     SCC iter.                  ...        0 min,  0.108 sec
     gradient                   ...        0 min,  0.064 sec
 * total energy  :   -78.5118021 Eh     change       -0.2393592E-04 Eh
   gradient norm :     0.0014942 Eh/α   predicted    -0.1581196E-04 ( -33.94%)
   displ. norm   :     0.1068742 α      lambda       -0.3459970E-04
   maximum displ.:     0.0610351 α      in ANC's #7, #14, #18, ...

........................................................................
.............................. CYCLE   23 ..............................
........................................................................

 iter      E             dE          RMSdq      gap      omega  full diag
   1    -79.7132432 -0.797132E+02  0.202E-02    2.92       0.0  T
   2    -79.7132441 -0.930254E-06  0.121E-02    2.92       1.1  T
   3    -79.7132434  0.675499E-06  0.495E-03    2.92       2.7  T
   4    -79.7132444 -0.928176E-06  0.851E-04    2.92      15.6  T
   5    -79.7132444 -0.309327E-07  0.341E-04    2.92      38.8  T
     SCC iter.                  ...        0 min,  0.169 sec
     gradient                   ...        0 min,  0.040 sec
 * total energy  :   -78.5118304 Eh     change       -0.2822426E-04 Eh
   gradient norm :     0.0025993 Eh/α   predicted    -0.1738808E-04 ( -38.39%)
   displ. norm   :     0.0517467 α      lambda       -0.1761499E-04
   maximum displ.:     0.0303005 α      in ANC's #7, #18, #3, ...

........................................................................
.............................. CYCLE   24 ..............................
........................................................................

 iter      E             dE          RMSdq      gap      omega  full diag
   1    -79.7134790 -0.797135E+02  0.891E-03    2.93       0.0  T
   2    -79.7134790 -0.223562E-07  0.529E-03    2.93       2.5  T
   3    -79.7134790  0.383782E-07  0.900E-04    2.93      14.7  T
   4    -79.7134790 -0.448956E-07  0.221E-04    2.93      60.0  T
     SCC iter.                  ...        0 min,  0.058 sec
     gradient                   ...        0 min,  0.038 sec
 * total energy  :   -78.5118471 Eh     change       -0.1672916E-04 Eh
   gradient norm :     0.0023872 Eh/α   predicted    -0.8987887E-05 ( -46.27%)
   displ. norm   :     0.2481968 α      lambda       -0.8280676E-04
   maximum displ.:     0.1370833 α      in ANC's #7, #18, #3, ...

........................................................................
.............................. CYCLE   25 ..............................
........................................................................

 iter      E             dE          RMSdq      gap      omega  full diag
   1    -79.7141197 -0.797141E+02  0.426E-02    2.93       0.0  T
   2    -79.7141201 -0.405877E-06  0.253E-02    2.93       1.0  T
   3    -79.7141197  0.441973E-06  0.313E-03    2.93       4.2  T
   4    -79.7141202 -0.562437E-06  0.866E-04    2.93      15.3  T
   5    -79.7141203 -0.161768E-07  0.452E-04    2.93      29.3  T
     SCC iter.                  ...        0 min,  0.073 sec
     gradient                   ...        0 min,  0.036 sec
 * total energy  :   -78.5119080 Eh     change       -0.6087600E-04 Eh
   gradient norm :     0.0026703 Eh/α   predicted    -0.4396860E-04 ( -27.77%)
   displ. norm   :     0.2334071 α      lambda       -0.5148140E-04
   maximum displ.:     0.1304020 α      in ANC's #7, #18, #3, ...

........................................................................
.............................. CYCLE   26 ..............................
........................................................................

 iter      E             dE          RMSdq      gap      omega  full diag
   1    -79.7141245 -0.797141E+02  0.396E-02    2.94       0.0  T
   2    -79.7141249 -0.352421E-06  0.234E-02    2.94       1.0  T
   3    -79.7141244  0.507069E-06  0.336E-03    2.94       3.9  T
   4    -79.7141250 -0.620400E-06  0.809E-04    2.94      16.4  T
   5    -79.7141250 -0.149918E-07  0.454E-04    2.94      29.2  T
     SCC iter.                  ...        0 min,  0.162 sec
     gradient                   ...        0 min,  0.071 sec
 * total energy  :   -78.5119425 Eh     change       -0.3456394E-04 Eh
   gradient norm :     0.0043043 Eh/α   predicted    -0.2714396E-04 ( -21.47%)
   displ. norm   :     0.1648751 α      lambda       -0.5155876E-04
   maximum displ.:     0.0942227 α      in ANC's #7, #3, #1, ...

........................................................................
.............................. CYCLE   27 ..............................
........................................................................

 iter      E             dE          RMSdq      gap      omega  full diag
   1    -79.7147923 -0.797148E+02  0.284E-02    2.94       0.0  T
   2    -79.7147926 -0.283762E-06  0.168E-02    2.94       1.0  T
   3    -79.7147921  0.496919E-06  0.333E-03    2.94       4.0  T
   4    -79.7147926 -0.578500E-06  0.708E-04    2.94      18.7  T
   5    -79.7147927 -0.165312E-07  0.319E-04    2.94      41.5  T
     SCC iter.                  ...        0 min,  0.066 sec
     gradient                   ...        0 min,  0.057 sec
 * total energy  :   -78.5119856 Eh     change       -0.4310963E-04 Eh
   gradient norm :     0.0038152 Eh/α   predicted    -0.2648038E-04 ( -38.57%)
   displ. norm   :     0.3035523 α      lambda       -0.1041902E-03
   maximum displ.:     0.1715697 α      in ANC's #7, #3, #1, ...

........................................................................
.............................. CYCLE   28 ..............................
........................................................................

 iter      E             dE          RMSdq      gap      omega  full diag
   1    -79.7149355 -0.797149E+02  0.518E-02    2.94       0.0  T
   2    -79.7149363 -0.776105E-06  0.307E-02    2.94       1.0  T
   3    -79.7149343  0.196261E-05  0.660E-03    2.93       2.0  T
   4    -79.7149365 -0.219340E-05  0.145E-03    2.94       9.1  T
   5    -79.7149366 -0.763808E-07  0.547E-04    2.94      24.2  T
   6    -79.7149366 -0.379451E-08  0.289E-04    2.94      45.9  T
     SCC iter.                  ...        0 min,  0.118 sec
     gradient                   ...        0 min,  0.041 sec
 * total energy  :   -78.5120651 Eh     change       -0.7949336E-04 Eh
   gradient norm :     0.0027471 Eh/α   predicted    -0.5689965E-04 ( -28.42%)
   displ. norm   :     0.3644748 α      lambda       -0.8534074E-04
   maximum displ.:     0.2011856 α      in ANC's #7, #3, #1, ...

........................................................................
.............................. CYCLE   29 ..............................
........................................................................

 iter      E             dE          RMSdq      gap      omega  full diag
   1    -79.7130738 -0.797131E+02  0.605E-02    2.93       0.0  T
   2    -79.7130745 -0.668202E-06  0.359E-02    2.93       1.0  T
   3    -79.7130723  0.218448E-05  0.686E-03    2.93       1.9  T
   4    -79.7130748 -0.247216E-05  0.129E-03    2.94      10.3  T
   5    -79.7130748 -0.419391E-07  0.595E-04    2.94      22.3  T
   6    -79.7130748 -0.150276E-08  0.296E-04    2.93      44.8  T
     SCC iter.                  ...        0 min,  0.076 sec
     gradient                   ...        0 min,  0.034 sec
 * total energy  :   -78.5121190 Eh     change       -0.5388177E-04 Eh
   gradient norm :     0.0042947 Eh/α   predicted    -0.4834114E-04 ( -10.28%)
   displ. norm   :     0.2607555 α      lambda       -0.1348419E-03
   maximum displ.:     0.1170340 α      in ANC's #7, #5, #3, ...

........................................................................
.............................. CYCLE   30 ..............................
........................................................................

 iter      E             dE          RMSdq      gap      omega  full diag
   1    -79.7151594 -0.797152E+02  0.454E-02    2.93       0.0  T
   2    -79.7151627 -0.330394E-05  0.264E-02    2.93       1.0  T
   3    -79.7151618  0.928412E-06  0.614E-03    2.93       2.2  T
   4    -79.7151629 -0.104464E-05  0.250E-03    2.93       5.3  T
   5    -79.7151631 -0.275635E-06  0.728E-04    2.93      18.2  T
   6    -79.7151631 -0.233959E-08  0.438E-04    2.93      30.3  T
     SCC iter.                  ...        0 min,  0.155 sec
     gradient                   ...        0 min,  0.047 sec
 * total energy  :   -78.5121194 Eh     change       -0.3559885E-06 Eh
   gradient norm :     0.0066050 Eh/α   predicted    -0.7200579E-04 (*******%)
   displ. norm   :     0.1796122 α      lambda       -0.1200438E-03
   maximum displ.:     0.0936994 α      in ANC's #7, #3, #22, ...

........................................................................
.............................. CYCLE   31 ..............................
........................................................................

 iter      E             dE          RMSdq      gap      omega  full diag
   1    -79.7127791 -0.797128E+02  0.326E-02    2.93       0.0  T
   2    -79.7127808 -0.169296E-05  0.189E-02    2.93       1.0  T
   3    -79.7127807  0.638444E-07  0.334E-03    2.94       4.0  T
   4    -79.7127808 -0.123995E-06  0.132E-03    2.93      10.0  T
   5    -79.7127809 -0.751906E-07  0.573E-04    2.93      23.1  T
   6    -79.7127809 -0.222202E-08  0.269E-04    2.93      49.2  T
     SCC iter.                  ...        0 min,  0.099 sec
     gradient                   ...        0 min,  0.042 sec
 * total energy  :   -78.5121834 Eh     change       -0.6408491E-04 Eh
   gradient norm :     0.0037366 Eh/α   predicted    -0.6198172E-04 (  -3.28%)
   displ. norm   :     0.0787933 α      lambda       -0.3800375E-04
   maximum displ.:     0.0443594 α      in ANC's #7, #17, #13, ...

........................................................................
.............................. CYCLE   32 ..............................
........................................................................

 iter      E             dE          RMSdq      gap      omega  full diag
   1    -79.7144011 -0.797144E+02  0.173E-02    2.94       0.0  T
   2    -79.7144015 -0.366660E-06  0.102E-02    2.94       1.3  T
   3    -79.7144006  0.827606E-06  0.447E-03    2.94       3.0  T
   4    -79.7144016 -0.934354E-06  0.985E-04    2.94      13.4  T
   5    -79.7144016 -0.407182E-07  0.270E-04    2.94      49.1  T
     SCC iter.                  ...        0 min,  0.079 sec
     gradient                   ...        0 min,  0.047 sec
 * total energy  :   -78.5122087 Eh     change       -0.2524758E-04 Eh
   gradient norm :     0.0017766 Eh/α   predicted    -0.1911988E-04 ( -24.27%)
   displ. norm   :     0.2400884 α      lambda       -0.4549466E-04
   maximum displ.:     0.1189584 α      in ANC's #5, #7, #22, ...

........................................................................
.............................. CYCLE   33 ..............................
........................................................................

 iter      E             dE          RMSdq      gap      omega  full diag
   1    -79.7149580 -0.797150E+02  0.417E-02    2.94       0.0  T
   2    -79.7149590 -0.108022E-05  0.247E-02    2.95       1.0  T
   3    -79.7149565  0.250053E-05  0.744E-03    2.95       1.8  T
   4    -79.7149593 -0.276179E-05  0.165E-03    2.95       8.0  T
   5    -79.7149594 -0.114011E-06  0.526E-04    2.95      25.2  T
   6    -79.7149594 -0.746797E-08  0.256E-04    2.95      51.7  T
     SCC iter.                  ...        0 min,  0.158 sec
     gradient                   ...        0 min,  0.048 sec
 * total energy  :   -78.5122545 Eh     change       -0.4579532E-04 Eh
   gradient norm :     0.0028167 Eh/α   predicted    -0.2333021E-04 ( -49.06%)
   displ. norm   :     0.1621091 α      lambda       -0.3901089E-04
   maximum displ.:     0.0908098 α      in ANC's #5, #7, #22, ...

........................................................................
.............................. CYCLE   34 ..............................
........................................................................

 iter      E             dE          RMSdq      gap      omega  full diag
   1    -79.7151461 -0.797151E+02  0.267E-02    2.95       0.0  T
   2    -79.7151463 -0.143663E-06  0.158E-02    2.95       1.0  T
   3    -79.7151458  0.439597E-06  0.307E-03    2.95       4.3  T
   4    -79.7151463 -0.498933E-06  0.532E-04    2.95      24.9  T
   5    -79.7151463 -0.648487E-08  0.250E-04    2.95      53.0  T
     SCC iter.                  ...        0 min,  0.105 sec
     gradient                   ...        0 min,  0.063 sec
 * total energy  :   -78.5122873 Eh     change       -0.3282658E-04 Eh
   gradient norm :     0.0023845 Eh/α   predicted    -0.2001826E-04 ( -39.02%)
   displ. norm   :     0.2833405 α      lambda       -0.5533615E-04
   maximum displ.:     0.1542116 α      in ANC's #5, #7, #1, ...

........................................................................
.............................. CYCLE   35 ..............................
........................................................................

 iter      E             dE          RMSdq      gap      omega  full diag
   1    -79.7144214 -0.797144E+02  0.465E-02    2.95       0.0  T
   2    -79.7144216 -0.216835E-06  0.275E-02    2.95       1.0  T
   3    -79.7144208  0.796783E-06  0.421E-03    2.95       3.1  T
   4    -79.7144217 -0.937022E-06  0.743E-04    2.95      17.8  T
   5    -79.7144217 -0.530817E-08  0.377E-04    2.95      35.2  T
     SCC iter.                  ...        0 min,  0.102 sec
     gradient                   ...        0 min,  0.052 sec
 * total energy  :   -78.5123316 Eh     change       -0.4425839E-04 Eh
   gradient norm :     0.0024089 Eh/α   predicted    -0.2989372E-04 ( -32.46%)
   displ. norm   :     0.3022429 α      lambda       -0.6560504E-04
   maximum displ.:     0.1904646 α      in ANC's #5, #11, #1, ...

........................................................................
.............................. CYCLE   36 ..............................
........................................................................

 iter      E             dE          RMSdq      gap      omega  full diag
   1    -79.7146517 -0.797147E+02  0.547E-02    2.95       0.0  T
   2    -79.7146522 -0.536708E-06  0.323E-02    2.95       1.0  T
   3    -79.7146496  0.261377E-05  0.744E-03    2.95       1.8  T
   4    -79.7146526 -0.294670E-05  0.107E-03    2.95      12.3  T
   5    -79.7146526 -0.252610E-07  0.558E-04    2.95      23.7  T
   6    -79.7146526 -0.258166E-08  0.256E-04    2.95      51.8  T
     SCC iter.                  ...        0 min,  0.106 sec
     gradient                   ...        0 min,  0.049 sec
 * total energy  :   -78.5123771 Eh     change       -0.4554535E-04 Eh
   gradient norm :     0.0017481 Eh/α   predicted    -0.3579982E-04 ( -21.40%)
   displ. norm   :     0.5507932 α      lambda       -0.4916385E-04
   maximum displ.:     0.3189346 α      in ANC's #5, #1, #3, ...

........................................................................
.............................. CYCLE   37 ..............................
........................................................................

 iter      E             dE          RMSdq      gap      omega  full diag
   1    -79.7104055 -0.797104E+02  0.932E-02    2.95       0.0  T
   2    -79.7104086 -0.301552E-05  0.548E-02    2.95       1.0  T
   3    -79.7104047  0.387767E-05  0.971E-03    2.95       1.4  T
   4    -79.7104090 -0.434712E-05  0.299E-03    2.94       4.4  T
   5    -79.7104094 -0.346292E-06  0.986E-04    2.94      13.4  T
   6    -79.7104094 -0.106840E-08  0.519E-04    2.94      25.5  T
     SCC iter.                  ...        0 min,  0.092 sec
     gradient                   ...        0 min,  0.040 sec
 * total energy  :   -78.5123579 Eh     change        0.1921521E-04 Eh
   gradient norm :     0.0071311 Eh/α   predicted    -0.2789754E-04 (-245.18%)
   displ. norm   :     0.1057592 α      lambda       -0.1225377E-03
   maximum displ.:     0.0645721 α      in ANC's #7, #22, #3, ...

........................................................................
.............................. CYCLE   38 ..............................
........................................................................

 iter      E             dE          RMSdq      gap      omega  full diag
   1    -79.7140100 -0.797140E+02  0.215E-02    2.94       0.0  T
   2    -79.7140111 -0.104185E-05  0.123E-02    2.94       1.1  T
   3    -79.7140104  0.654240E-06  0.476E-03    2.94       2.8  T
   4    -79.7140111 -0.712127E-06  0.172E-03    2.94       7.7  T
   5    -79.7140112 -0.125227E-06  0.418E-04    2.94      31.7  T
   6    -79.7140112  0.790138E-09  0.226E-04    2.94      58.6  T
     SCC iter.                  ...        0 min,  0.283 sec
     gradient                   ...        0 min,  0.122 sec
 * total energy  :   -78.5124309 Eh     change       -0.7302144E-04 Eh
   gradient norm :     0.0020956 Eh/α   predicted    -0.6195932E-04 ( -15.15%)
   displ. norm   :     0.0916269 α      lambda       -0.2850926E-04
   maximum displ.:     0.0580916 α      in ANC's #5, #1, #9, ...

........................................................................
.............................. CYCLE   39 ..............................
........................................................................

 iter      E             dE          RMSdq      gap      omega  full diag
   1    -79.7148851 -0.797149E+02  0.155E-02    2.94       0.0  T
   2    -79.7148853 -0.130381E-06  0.911E-03    2.94       1.5  T
   3    -79.7148850  0.298471E-06  0.251E-03    2.94       5.3  T
   4    -79.7148853 -0.328801E-06  0.542E-04    2.94      24.4  T
   5    -79.7148853 -0.115465E-07  0.187E-04    2.94      70.7  T
     SCC iter.                  ...        0 min,  0.178 sec
     gradient                   ...        0 min,  0.048 sec
 * total energy  :   -78.5124533 Eh     change       -0.2241635E-04 Eh
   gradient norm :     0.0014690 Eh/α   predicted    -0.1437808E-04 ( -35.86%)
   displ. norm   :     0.3577732 α      lambda       -0.5315257E-04
   maximum displ.:     0.2125569 α      in ANC's #5, #1, #9, ...

........................................................................
.............................. CYCLE   40 ..............................
........................................................................

 iter      E             dE          RMSdq      gap      omega  full diag
   1    -79.7160947 -0.797161E+02  0.546E-02    2.94       0.0  T
   2    -79.7160951 -0.461726E-06  0.323E-02    2.94       1.0  T
   3    -79.7160930  0.214413E-05  0.649E-03    2.94       2.0  T
   4    -79.7160954 -0.242096E-05  0.108E-03    2.94      12.3  T
   5    -79.7160954 -0.275135E-07  0.548E-04    2.94      24.2  T
   6    -79.7160954 -0.346589E-08  0.240E-04    2.94      55.1  T
     SCC iter.                  ...        0 min,  0.097 sec
     gradient                   ...        0 min,  0.035 sec
 * total energy  :   -78.5125062 Eh     change       -0.5284898E-04 Eh
   gradient norm :     0.0024290 Eh/α   predicted    -0.2808949E-04 ( -46.85%)
   displ. norm   :     0.3636294 α      lambda       -0.4917111E-04
   maximum displ.:     0.2200336 α      in ANC's #5, #1, #3, ...

........................................................................
.............................. CYCLE   41 ..............................
........................................................................

 iter      E             dE          RMSdq      gap      omega  full diag
   1    -79.7141224 -0.797141E+02  0.552E-02    2.94       0.0  T
   2    -79.7141229 -0.560167E-06  0.325E-02    2.94       1.0  T
   3    -79.7141215  0.145809E-05  0.562E-03    2.94       2.4  T
   4    -79.7141232 -0.167405E-05  0.120E-03    2.94      11.1  T
   5    -79.7141232 -0.380426E-07  0.515E-04    2.94      25.7  T
   6    -79.7141232 -0.970033E-10  0.277E-04    2.94      47.8  T
     SCC iter.                  ...        0 min,  0.144 sec
     gradient                   ...        0 min,  0.056 sec
 * total energy  :   -78.5125376 Eh     change       -0.3142100E-04 Eh
   gradient norm :     0.0023684 Eh/α   predicted    -0.2784053E-04 ( -11.40%)
   displ. norm   :     0.1616631 α      lambda       -0.2650399E-04
   maximum displ.:     0.0881628 α      in ANC's #5, #1, #9, ...

........................................................................
.............................. CYCLE   42 ..............................
........................................................................

 iter      E             dE          RMSdq      gap      omega  full diag
   1    -79.7142816 -0.797143E+02  0.225E-02    2.94       0.0  T
   2    -79.7142818 -0.201584E-06  0.132E-02    2.94       1.0  T
   3    -79.7142818  0.583111E-07  0.147E-03    2.94       9.0  T
   4    -79.7142819 -0.838039E-07  0.561E-04    2.94      23.6  T
   5    -79.7142819 -0.989778E-08  0.233E-04    2.94      56.8  T
     SCC iter.                  ...        0 min,  0.149 sec
     gradient                   ...        0 min,  0.034 sec
 * total energy  :   -78.5125544 Eh     change       -0.1678803E-04 Eh
   gradient norm :     0.0021238 Eh/α   predicted    -0.1360069E-04 ( -18.99%)
   displ. norm   :     0.1066068 α      lambda       -0.2504012E-04
   maximum displ.:     0.0445755 α      in ANC's #9, #5, #1, ...
 * RMSD in coord.:     0.5064289 α      energy gain  -0.8313688E-03 Eh

generating ANC from exact Hessian ...
Using Lindh-Hessian (1995)
 Shifting diagonal of input Hessian by    9.9380852348441729E-003
 Lowest  eigenvalues of input Hessian
    0.000000    0.000000    0.000000    0.000000    0.000000    0.000000
    0.010000    0.010096    0.010184    0.010480    0.010553    0.010710
    0.010968    0.011110    0.011442    0.011723    0.012614    0.013400
 Highest eigenvalues
    1.937564    1.962184    2.022002    2.171224    2.206849    2.435334


........................................................................
.............................. CYCLE   43 ..............................
........................................................................

 iter      E             dE          RMSdq      gap      omega  full diag
   1    -79.7152528 -0.797153E+02  0.141E-02    2.94       0.0  T
   2    -79.7152530 -0.194428E-06  0.829E-03    2.95       1.6  T
   3    -79.7152528  0.178200E-06  0.220E-03    2.95       6.0  T
   4    -79.7152530 -0.195247E-06  0.699E-04    2.95      18.9  T
   5    -79.7152530 -0.223330E-07  0.198E-04    2.95      67.0  T
     SCC iter.                  ...        0 min,  0.061 sec
     gradient                   ...        0 min,  0.033 sec
 * total energy  :   -78.5125725 Eh     change       -0.1807984E-04 Eh
   gradient norm :     0.0014122 Eh/α   predicted     0.0000000E+00 (-100.00%)
   displ. norm   :     0.0277627 α      lambda       -0.9323914E-05
   maximum displ.:     0.0116252 α      in ANC's #24, #16, #21, ...

........................................................................
.............................. CYCLE   44 ..............................
........................................................................

 iter      E             dE          RMSdq      gap      omega  full diag
   1    -79.7154334 -0.797154E+02  0.635E-03    2.95       0.0  T
   2    -79.7154335 -0.692932E-07  0.373E-03    2.95       3.6  T
   3    -79.7154334  0.396976E-07  0.118E-03    2.95      11.3  T
   4    -79.7154335 -0.501510E-07  0.327E-04    2.95      40.6  T
   5    -79.7154335 -0.371747E-08  0.125E-04    2.95     105.9  T
     SCC iter.                  ...        0 min,  0.062 sec
     gradient                   ...        0 min,  0.033 sec
 * total energy  :   -78.5125823 Eh     change       -0.9825120E-05 Eh
   gradient norm :     0.0004863 Eh/α   predicted    -0.4671426E-05 ( -52.45%)
   displ. norm   :     0.0580701 α      lambda       -0.9872325E-05
   maximum displ.:     0.0232825 α      in ANC's #24, #21, #16, ...

........................................................................
.............................. CYCLE   45 ..............................
........................................................................

 iter      E             dE          RMSdq      gap      omega  full diag
   1    -79.7154551 -0.797155E+02  0.947E-03    2.95       0.0  T
   2    -79.7154552 -0.569590E-07  0.567E-03    2.95       2.3  T
   3    -79.7154550  0.189196E-06  0.205E-03    2.95       6.4  T
   4    -79.7154552 -0.218386E-06  0.336E-04    2.95      39.4  T
   5    -79.7154552 -0.366815E-08  0.158E-04    2.95      83.9  T
     SCC iter.                  ...        0 min,  0.062 sec
     gradient                   ...        0 min,  0.032 sec
 * total energy  :   -78.5125932 Eh     change       -0.1086188E-04 Eh
   gradient norm :     0.0009840 Eh/α   predicted    -0.4946669E-05 ( -54.46%)
   displ. norm   :     0.0826595 α      lambda       -0.9249331E-05
   maximum displ.:     0.0292563 α      in ANC's #24, #9, #20, ...

........................................................................
.............................. CYCLE   46 ..............................
........................................................................

 iter      E             dE          RMSdq      gap      omega  full diag
   1    -79.7153169 -0.797153E+02  0.126E-02    2.95       0.0  T
   2    -79.7153169 -0.404757E-07  0.750E-03    2.95       1.8  T
   3    -79.7153168  0.153446E-06  0.171E-03    2.95       7.7  T
   4    -79.7153169 -0.177289E-06  0.274E-04    2.95      48.3  T
   5    -79.7153169 -0.929717E-09  0.171E-04    2.95      77.4  T
     SCC iter.                  ...        0 min,  0.067 sec
     gradient                   ...        0 min,  0.031 sec
 * total energy  :   -78.5126026 Eh     change       -0.9428487E-05 Eh
   gradient norm :     0.0009703 Eh/α   predicted    -0.4649056E-05 ( -50.69%)
   displ. norm   :     0.0772941 α      lambda       -0.6516941E-05
   maximum displ.:     0.0303319 α      in ANC's #20, #9, #4, ...

........................................................................
.............................. CYCLE   47 ..............................
........................................................................

 iter      E             dE          RMSdq      gap      omega  full diag
   1    -79.7152418 -0.797152E+02  0.112E-02    2.95       0.0  T
   2    -79.7152419 -0.340871E-07  0.666E-03    2.95       2.0  T
   3    -79.7152418  0.623695E-07  0.112E-03    2.95      11.8  T
   4    -79.7152419 -0.708192E-07  0.301E-04    2.95      44.0  T
   5    -79.7152419 -0.317607E-08  0.132E-04    2.95     100.2  T
     SCC iter.                  ...        0 min,  0.060 sec
     gradient                   ...        0 min,  0.032 sec
 * total energy  :   -78.5126099 Eh     change       -0.7299933E-05 Eh
   gradient norm :     0.0006977 Eh/α   predicted    -0.3268019E-05 ( -55.23%)
   displ. norm   :     0.1301241 α      lambda       -0.1007886E-04
   maximum displ.:     0.0551603 α      in ANC's #20, #9, #4, ...

........................................................................
.............................. CYCLE   48 ..............................
........................................................................

 iter      E             dE          RMSdq      gap      omega  full diag
   1    -79.7150856 -0.797151E+02  0.181E-02    2.95       0.0  T
   2    -79.7150857 -0.109163E-06  0.108E-02    2.95       1.2  T
   3    -79.7150856  0.986841E-07  0.158E-03    2.95       8.4  T
   4    -79.7150857 -0.118425E-06  0.449E-04    2.95      29.5  T
   5    -79.7150857 -0.650496E-08  0.206E-04    2.95      64.4  T
     SCC iter.                  ...        0 min,  0.099 sec
     gradient                   ...        0 min,  0.041 sec
 * total energy  :   -78.5126209 Eh     change       -0.1097070E-04 Eh
   gradient norm :     0.0008613 Eh/α   predicted    -0.5106012E-05 ( -53.46%)
   displ. norm   :     0.1613306 α      lambda       -0.1237769E-04
   maximum displ.:     0.0716834 α      in ANC's #20, #9, #4, ...

........................................................................
.............................. CYCLE   49 ..............................
........................................................................

 iter      E             dE          RMSdq      gap      omega  full diag
   1    -79.7149484 -0.797149E+02  0.218E-02    2.95       0.0  T
   2    -79.7149486 -0.139962E-06  0.130E-02    2.95       1.0  T
   3    -79.7149485  0.105482E-06  0.175E-03    2.95       7.6  T
   4    -79.7149486 -0.137395E-06  0.444E-04    2.95      29.8  T
   5    -79.7149486 -0.378951E-08  0.222E-04    2.95      59.8  T
     SCC iter.                  ...        0 min,  0.067 sec
     gradient                   ...        0 min,  0.033 sec
 * total energy  :   -78.5126341 Eh     change       -0.1327703E-04 Eh
   gradient norm :     0.0015147 Eh/α   predicted    -0.6261679E-05 ( -52.84%)
   displ. norm   :     0.1536633 α      lambda       -0.1332610E-04
   maximum displ.:     0.0681139 α      in ANC's #20, #9, #4, ...

........................................................................
.............................. CYCLE   50 ..............................
........................................................................

 iter      E             dE          RMSdq      gap      omega  full diag
   1    -79.7152443 -0.797152E+02  0.202E-02    2.95       0.0  T
   2    -79.7152444 -0.693896E-07  0.121E-02    2.95       1.1  T
   3    -79.7152442  0.123383E-06  0.175E-03    2.95       7.6  T
   4    -79.7152444 -0.152562E-06  0.434E-04    2.95      30.5  T
   5    -79.7152444 -0.269696E-08  0.246E-04    2.95      53.9  T
     SCC iter.                  ...        0 min,  0.061 sec
     gradient                   ...        0 min,  0.032 sec
 * total energy  :   -78.5126480 Eh     change       -0.1384787E-04 Eh
   gradient norm :     0.0014565 Eh/α   predicted    -0.6735000E-05 ( -51.36%)
   displ. norm   :     0.1421984 α      lambda       -0.9071847E-05
   maximum displ.:     0.0646986 α      in ANC's #20, #9, #2, ...

........................................................................
.............................. CYCLE   51 ..............................
........................................................................

 iter      E             dE          RMSdq      gap      omega  full diag
   1    -79.7150683 -0.797151E+02  0.193E-02    2.95       0.0  T
   2    -79.7150684 -0.853048E-07  0.115E-02    2.95       1.2  T
   3    -79.7150683  0.384832E-07  0.114E-03    2.95      11.7  T
   4    -79.7150684 -0.564440E-07  0.476E-04    2.95      27.8  T
   5    -79.7150684 -0.682878E-08  0.221E-04    2.95      60.1  T
     SCC iter.                  ...        0 min,  0.061 sec
     gradient                   ...        0 min,  0.032 sec
 * total energy  :   -78.5126572 Eh     change       -0.9194057E-05 Eh
   gradient norm :     0.0011678 Eh/α   predicted    -0.4581725E-05 ( -50.17%)
   displ. norm   :     0.0936605 α      lambda       -0.1119703E-04
   maximum displ.:     0.0358810 α      in ANC's #2, #20, #1, ...

........................................................................
.............................. CYCLE   52 ..............................
........................................................................

 iter      E             dE          RMSdq      gap      omega  full diag
   1    -79.7162753 -0.797163E+02  0.162E-02    2.95       0.0  T
   2    -79.7162756 -0.358934E-06  0.947E-03    2.95       1.4  T
   3    -79.7162756  0.603334E-07  0.182E-03    2.95       7.3  T
   4    -79.7162756 -0.885550E-07  0.630E-04    2.95      21.0  T
   5    -79.7162757 -0.158592E-07  0.259E-04    2.95      51.2  T
     SCC iter.                  ...        0 min,  0.062 sec
     gradient                   ...        0 min,  0.041 sec
 * total energy  :   -78.5126605 Eh     change       -0.3353031E-05 Eh
   gradient norm :     0.0017725 Eh/α   predicted    -0.5626253E-05 (  67.80%)
   displ. norm   :     0.1435055 α      lambda       -0.1094454E-04
   maximum displ.:     0.0678930 α      in ANC's #20, #2, #9, ...

........................................................................
.............................. CYCLE   53 ..............................
........................................................................

 iter      E             dE          RMSdq      gap      omega  full diag
   1    -79.7152433 -0.797152E+02  0.203E-02    2.95       0.0  T
   2    -79.7152436 -0.318754E-06  0.120E-02    2.95       1.1  T
   3    -79.7152435  0.535090E-07  0.169E-03    2.95       7.8  T
   4    -79.7152436 -0.729920E-07  0.747E-04    2.95      17.7  T
   5    -79.7152436 -0.230253E-07  0.300E-04    2.95      44.2  T
     SCC iter.                  ...        0 min,  0.072 sec
     gradient                   ...        0 min,  0.047 sec
 * total energy  :   -78.5126686 Eh     change       -0.8100863E-05 Eh
   gradient norm :     0.0013732 Eh/α   predicted    -0.5528413E-05 ( -31.76%)
   displ. norm   :     0.0361512 α      lambda       -0.6043235E-05
   maximum displ.:     0.0163404 α      in ANC's #16, #11, #14, ...

........................................................................
.............................. CYCLE   54 ..............................
........................................................................

 iter      E             dE          RMSdq      gap      omega  full diag
   1    -79.7152479 -0.797152E+02  0.605E-03    2.95       0.0  T
   2    -79.7152480 -0.390163E-07  0.357E-03    2.95       3.7  T
   3    -79.7152479  0.351068E-07  0.991E-04    2.95      13.4  T
   4    -79.7152480 -0.394728E-07  0.326E-04    2.95      40.7  T
     SCC iter.                  ...        0 min,  0.133 sec
     gradient                   ...        0 min,  0.061 sec
 * total energy  :   -78.5126755 Eh     change       -0.6838911E-05 Eh
   gradient norm :     0.0007631 Eh/α   predicted    -0.3025374E-05 ( -55.76%)
   displ. norm   :     0.1102233 α      lambda       -0.1071803E-04
   maximum displ.:     0.0436450 α      in ANC's #2, #5, #11, ...

........................................................................
.............................. CYCLE   55 ..............................
........................................................................

 iter      E             dE          RMSdq      gap      omega  full diag
   1    -79.7151436 -0.797151E+02  0.184E-02    2.96       0.0  T
   2    -79.7151437 -0.904629E-07  0.109E-02    2.96       1.2  T
   3    -79.7151436  0.150075E-06  0.191E-03    2.96       6.9  T
   4    -79.7151438 -0.186605E-06  0.521E-04    2.96      25.4  T
   5    -79.7151438 -0.643099E-08  0.256E-04    2.96      51.8  T
     SCC iter.                  ...        0 min,  0.139 sec
     gradient                   ...        0 min,  0.062 sec
 * total energy  :   -78.5126875 Eh     change       -0.1198239E-04 Eh
   gradient norm :     0.0006727 Eh/α   predicted    -0.5392341E-05 ( -55.00%)
   displ. norm   :     0.1798626 α      lambda       -0.1033229E-04
   maximum displ.:     0.0774969 α      in ANC's #2, #20, #5, ...

........................................................................
.............................. CYCLE   56 ..............................
........................................................................

 iter      E             dE          RMSdq      gap      omega  full diag
   1    -79.7149971 -0.797150E+02  0.281E-02    2.96       0.0  T
   2    -79.7149973 -0.156711E-06  0.166E-02    2.96       1.0  T
   3    -79.7149969  0.388663E-06  0.303E-03    2.96       4.4  T
   4    -79.7149974 -0.478591E-06  0.702E-04    2.96      18.9  T
   5    -79.7149974 -0.685812E-08  0.394E-04    2.96      33.6  T
     SCC iter.                  ...        0 min,  0.092 sec
     gradient                   ...        0 min,  0.041 sec
 * total energy  :   -78.5126989 Eh     change       -0.1140848E-04 Eh
   gradient norm :     0.0009280 Eh/α   predicted    -0.5241460E-05 ( -54.06%)
   displ. norm   :     0.1674356 α      lambda       -0.8869156E-05
   maximum displ.:     0.0738609 α      in ANC's #2, #5, #1, ...

........................................................................
.............................. CYCLE   57 ..............................
........................................................................

 iter      E             dE          RMSdq      gap      omega  full diag
   1    -79.7153062 -0.797153E+02  0.259E-02    2.96       0.0  T
   2    -79.7153063 -0.128828E-06  0.153E-02    2.96       1.0  T
   3    -79.7153060  0.321254E-06  0.278E-03    2.96       4.8  T
   4    -79.7153064 -0.396831E-06  0.642E-04    2.96      20.6  T
   5    -79.7153064 -0.489774E-08  0.374E-04    2.96      35.5  T
     SCC iter.                  ...        0 min,  0.074 sec
     gradient                   ...        0 min,  0.038 sec
 * total energy  :   -78.5127081 Eh     change       -0.9195190E-05 Eh
   gradient norm :     0.0005275 Eh/α   predicted    -0.4493846E-05 ( -51.13%)
   displ. norm   :     0.1749734 α      lambda       -0.5999694E-05
   maximum displ.:     0.0794073 α      in ANC's #2, #1, #20, ...

........................................................................
.............................. CYCLE   58 ..............................
........................................................................

 iter      E             dE          RMSdq      gap      omega  full diag
   1    -79.7150341 -0.797150E+02  0.245E-02    2.96       0.0  T
   2    -79.7150343 -0.187163E-06  0.145E-02    2.96       1.0  T
   3    -79.7150339  0.378095E-06  0.296E-03    2.96       4.5  T
   4    -79.7150344 -0.446641E-06  0.712E-04    2.96      18.6  T
   5    -79.7150344 -0.123301E-07  0.366E-04    2.96      36.2  T
     SCC iter.                  ...        0 min,  0.071 sec
     gradient                   ...        0 min,  0.046 sec
 * total energy  :   -78.5127118 Eh     change       -0.3740492E-05 Eh
   gradient norm :     0.0014588 Eh/α   predicted    -0.3041437E-05 ( -18.69%)
   displ. norm   :     0.0699020 α      lambda       -0.7761498E-05
   maximum displ.:     0.0280937 α      in ANC's #5, #2, #1, ...

........................................................................
.............................. CYCLE   59 ..............................
........................................................................

 iter      E             dE          RMSdq      gap      omega  full diag
   1    -79.7160775 -0.797161E+02  0.108E-02    2.96       0.0  T
   2    -79.7160776 -0.174426E-06  0.631E-03    2.96       2.1  T
   3    -79.7160775  0.818928E-07  0.169E-03    2.96       7.8  T
   4    -79.7160776 -0.934616E-07  0.614E-04    2.96      21.6  T
   5    -79.7160777 -0.155407E-07  0.191E-04    2.96      69.2  T
     SCC iter.                  ...        0 min,  0.063 sec
     gradient                   ...        0 min,  0.034 sec
 * total energy  :   -78.5127155 Eh     change       -0.3660998E-05 Eh
   gradient norm :     0.0008372 Eh/α   predicted    -0.3889928E-05 (   6.25%)
   displ. norm   :     0.0335748 α      lambda       -0.3161906E-05
   maximum displ.:     0.0127785 α      in ANC's #1, #2, #9, ...

........................................................................
.............................. CYCLE   60 ..............................
........................................................................

 iter      E             dE          RMSdq      gap      omega  full diag
   1    -79.7157158 -0.797157E+02  0.474E-03    2.96       0.0  T
   2    -79.7157159 -0.298132E-07  0.281E-03    2.96       4.7  T
   3    -79.7157158  0.501382E-07  0.112E-03    2.96      11.8  T
   4    -79.7157159 -0.553571E-07  0.278E-04    2.96      47.7  T
   5    -79.7157159 -0.325622E-08  0.741E-05    2.96     178.7  T
     SCC iter.                  ...        0 min,  0.071 sec
     gradient                   ...        0 min,  0.040 sec
 * total energy  :   -78.5127185 Eh     change       -0.2995185E-05 Eh
   gradient norm :     0.0004301 Eh/α   predicted    -0.1583174E-05 ( -47.14%)
   displ. norm   :     0.0468724 α      lambda       -0.2380248E-05
   maximum displ.:     0.0207969 α      in ANC's #1, #2, #9, ...

........................................................................
.............................. CYCLE   61 ..............................
........................................................................

 iter      E             dE          RMSdq      gap      omega  full diag
   1    -79.7153508 -0.797154E+02  0.521E-03    2.96       0.0  T
   2    -79.7153508 -0.222795E-07  0.309E-03    2.96       4.3  T
   3    -79.7153508  0.255783E-07  0.823E-04    2.96      16.1  T
   4    -79.7153508 -0.287188E-07  0.212E-04    2.96      62.5  T
     SCC iter.                  ...        0 min,  0.062 sec
     gradient                   ...        0 min,  0.040 sec
 * total energy  :   -78.5127210 Eh     change       -0.2498524E-05 Eh
   gradient norm :     0.0005606 Eh/α   predicted    -0.1195876E-05 ( -52.14%)
   displ. norm   :     0.0583760 α      lambda       -0.2228664E-05
   maximum displ.:     0.0287661 α      in ANC's #1, #2, #7, ...

........................................................................
.............................. CYCLE   62 ..............................
........................................................................

 iter      E             dE          RMSdq      gap      omega  full diag
   1    -79.7153505 -0.797154E+02  0.603E-03    2.96       0.0  T
   2    -79.7153505 -0.807452E-08  0.358E-03    2.96       3.7  T
   3    -79.7153505  0.325009E-07  0.821E-04    2.96      16.1  T
   4    -79.7153506 -0.374474E-07  0.132E-04    2.96     100.7  T
     SCC iter.                  ...        0 min,  0.075 sec
     gradient                   ...        0 min,  0.051 sec
 * total energy  :   -78.5127233 Eh     change       -0.2380635E-05 Eh
   gradient norm :     0.0004694 Eh/α   predicted    -0.1118571E-05 ( -53.01%)
   displ. norm   :     0.0517537 α      lambda       -0.1632472E-05
   maximum displ.:     0.0274362 α      in ANC's #1, #2, #7, ...

........................................................................
.............................. CYCLE   63 ..............................
........................................................................

 iter      E             dE          RMSdq      gap      omega  full diag
   1    -79.7154717 -0.797155E+02  0.537E-03    2.96       0.0  T
   2    -79.7154717 -0.121560E-07  0.318E-03    2.96       4.2  T
   3    -79.7154717  0.384917E-07  0.930E-04    2.96      14.2  T
   4    -79.7154717 -0.435581E-07  0.156E-04    2.96      85.0  T
     SCC iter.                  ...        0 min,  0.059 sec
     gradient                   ...        0 min,  0.040 sec
 * total energy  :   -78.5127251 Eh     change       -0.1785613E-05 Eh
   gradient norm :     0.0002097 Eh/α   predicted    -0.8216590E-06 ( -53.98%)
   displ. norm   :     0.0736285 α      lambda       -0.1708482E-05
   maximum displ.:     0.0395782 α      in ANC's #2, #1, #5, ...

........................................................................
.............................. CYCLE   64 ..............................
........................................................................

 iter      E             dE          RMSdq      gap      omega  full diag
   1    -79.7155877 -0.797156E+02  0.817E-03    2.96       0.0  T
   2    -79.7155877 -0.131314E-07  0.482E-03    2.96       2.7  T
   3    -79.7155877  0.146446E-07  0.584E-04    2.96      22.7  T
   4    -79.7155877 -0.189821E-07  0.157E-04    2.96      84.1  T
     SCC iter.                  ...        0 min,  0.054 sec
     gradient                   ...        0 min,  0.041 sec
 * total energy  :   -78.5127272 Eh     change       -0.2066276E-05 Eh
   gradient norm :     0.0002663 Eh/α   predicted    -0.8579820E-06 ( -58.48%)
   displ. norm   :     0.0931158 α      lambda       -0.2017742E-05
   maximum displ.:     0.0514234 α      in ANC's #2, #1, #5, ...

........................................................................
.............................. CYCLE   65 ..............................
........................................................................

 iter      E             dE          RMSdq      gap      omega  full diag
   1    -79.7156417 -0.797156E+02  0.107E-02    2.96       0.0  T
   2    -79.7156417 -0.191978E-07  0.630E-03    2.96       2.1  T
   3    -79.7156416  0.267615E-07  0.811E-04    2.96      16.3  T
   4    -79.7156417 -0.348589E-07  0.196E-04    2.96      67.7  T
     SCC iter.                  ...        0 min,  0.057 sec
     gradient                   ...        0 min,  0.032 sec
 * total energy  :   -78.5127296 Eh     change       -0.2406692E-05 Eh
   gradient norm :     0.0002795 Eh/α   predicted    -0.1013866E-05 ( -57.87%)
   displ. norm   :     0.0884603 α      lambda       -0.1527725E-05
   maximum displ.:     0.0502297 α      in ANC's #2, #1, #5, ...

........................................................................
.............................. CYCLE   66 ..............................
........................................................................

 iter      E             dE          RMSdq      gap      omega  full diag
   1    -79.7155724 -0.797156E+02  0.102E-02    2.96       0.0  T
   2    -79.7155724 -0.179958E-07  0.599E-03    2.96       2.2  T
   3    -79.7155724  0.415184E-07  0.997E-04    2.96      13.3  T
   4    -79.7155724 -0.503578E-07  0.197E-04    2.96      67.3  T
     SCC iter.                  ...        0 min,  0.049 sec
     gradient                   ...        0 min,  0.030 sec
 * total energy  :   -78.5127314 Eh     change       -0.1758553E-05 Eh
   gradient norm :     0.0002043 Eh/α   predicted    -0.7709789E-06 ( -56.16%)
   displ. norm   :     0.0492287 α      lambda       -0.8578855E-06
   maximum displ.:     0.0293362 α      in ANC's #2, #1, #5, ...
 * RMSD in coord.:     0.2454627 α      energy gain  -0.1769567E-03 Eh

generating ANC from exact Hessian ...
Using Lindh-Hessian (1995)
 Shifting diagonal of input Hessian by    9.9416121443189794E-003
 Lowest  eigenvalues of input Hessian
    0.000000    0.000000    0.000000    0.000000    0.000000    0.000000
    0.010000    0.010115    0.010201    0.010487    0.010574    0.010715
    0.010973    0.011106    0.011453    0.011725    0.012597    0.013440
 Highest eigenvalues
    1.938105    1.962493    2.022159    2.172545    2.207558    2.433186


........................................................................
.............................. CYCLE   67 ..............................
........................................................................

 iter      E             dE          RMSdq      gap      omega  full diag
   1    -79.7156329 -0.797156E+02  0.557E-03    2.96       0.0  T
   2    -79.7156329 -0.544919E-08  0.328E-03    2.96       4.0  T
   3    -79.7156329  0.272451E-07  0.770E-04    2.96      17.2  T
   4    -79.7156329 -0.311702E-07  0.106E-04    2.96     124.5  T
     SCC iter.                  ...        0 min,  0.049 sec
     gradient                   ...        0 min,  0.032 sec
 * total energy  :   -78.5127324 Eh     change       -0.1047718E-05 Eh
   gradient norm :     0.0002008 Eh/α   predicted     0.0000000E+00 (-100.00%)
   displ. norm   :     0.0079741 α      lambda       -0.5562822E-07
   maximum displ.:     0.0039456 α      in ANC's #2, #11, #1, ...

........................................................................
.............................. CYCLE   68 ..............................
........................................................................

 iter      E             dE          RMSdq      gap      omega  full diag
   1    -79.7155337 -0.797155E+02  0.165E-03    2.96       0.0  T
   2    -79.7155337 -0.217814E-08  0.967E-04    2.96      13.7  T
   3    -79.7155337  0.489716E-08  0.328E-04    2.96      40.4  T
     SCC iter.                  ...        0 min,  0.038 sec
     gradient                   ...        0 min,  0.034 sec
 * total energy  :   -78.5127329 Eh     change       -0.5098599E-06 Eh
   gradient norm :     0.0001044 Eh/α   predicted    -0.2103061E-06 ( -58.75%)
   displ. norm   :     0.0267489 α      lambda       -0.9925843E-06
   maximum displ.:     0.0126839 α      in ANC's #2, #11, #1, ...

   *** GEOMETRY OPTIMIZATION CONVERGED AFTER 68 ITERATIONS ***

------------------------------------------------------------------------
 total energy gain   :        -0.0151823 Eh       -9.5270 kcal/mol
 total RMSD          :         1.0750178 a0        0.5689 Å
 total power (kW/mol):        -0.5861917 (step)   -3.2734 (real)
------------------------------------------------------------------------

 ANCopt (total)                0 d,  0 h,  0 min, 12.177 sec
 optimizer setup                ...        0 min,  0.001 sec (  0.006%)
 model hessian                  ...        0 min,  0.123 sec (  1.009%)
 ANC generation                 ...        0 min,  0.018 sec (  0.149%)
 coordinate transformation      ...        0 min,  0.003 sec (  0.021%)
 single point calculation       ...        0 min, 11.781 sec ( 96.745%)
 optimization log               ...        0 min,  0.015 sec (  0.123%)
 hessian update                 ...        0 min,  0.187 sec (  1.536%)
 rational function              ...        0 min,  0.016 sec (  0.128%)

================
 final structure:
================
57
 xtb: 6.7.1 (edcfbbe)
C           -2.45943963184637        3.11270301432122       -3.37360299536270
C           -1.75415160394342        3.71982981228636       -2.16811941089338
C           -2.47176078479811        3.37607931038329       -0.85716858576259
C           -2.44780643962788        1.91147798980654       -0.58895333464247
C           -1.34729651183907        1.11173006449272       -0.25121747544370
C           -1.85417005866061       -0.17444549259624       -0.13660063446774
C           -1.10181937965679       -1.41801011450886        0.04253190276867
O           -1.48957887922107       -2.53186552673183       -0.22315667520827
O            0.12263006399513       -1.14979365350547        0.50896886172578
C            1.00531111703942       -2.26283312338963        0.66694987684817
C            2.23946284107170       -1.76226960688531        1.34174131742185
C            3.48463150369164       -2.14436929155534        1.08364376366021
C            3.82705040553332       -3.18793853556192        0.06012425682567
C            4.63727259279914       -1.49437612421575        1.79449941068421
C            5.27112239331489       -0.40702954992896        0.90237573529476
C            4.24348269354490        0.59455383396317        0.46539465354951
C            3.76965024787275        1.60741196501419        1.18058739256867
C            4.22285504605956        1.95354951238069        2.56769777266434
C            2.69132886828650        2.50327578077089        0.64544545229994
N           -3.18876267824296       -0.08372792749291       -0.40234191754161
C           -4.17327522475043       -1.08489274058640       -0.36787340995037
C           -5.17027226031233       -1.06686840120066       -1.33595660070535
C           -6.16378475990249       -2.02732176578316       -1.31384804351035
C           -6.16619897201229       -3.00257124422322       -0.33037994675702
C           -5.18235827108698       -3.00417231803056        0.64441293328214
C           -4.18919504697912       -2.04242140433739        0.63784530893904
N           -3.53961474613674        1.16655636431004       -0.67505419614104
H           -3.48068324661930        3.48062771271817       -3.44040252832814
H           -2.49401563334010        2.02917310739671       -3.28830877238679
H           -1.93747258203415        3.37035729130923       -4.29249954824743
H           -1.71766776639845        4.80605825001824       -2.27548765925047
H           -0.72636986086296        3.35301088471910       -2.12216753651650
H           -1.98302924444152        3.89979291721534       -0.03184705128705
H           -3.51191635705322        3.69939466153704       -0.91132178214493
H           -0.32756146908798        1.40787146760996       -0.11856913476908
H            0.49796755474958       -3.03119426757030        1.26802433909742
H            1.21226436432458       -2.69616533076912       -0.31738203239232
H            2.04882190209955       -1.00229243625093        2.08517565594568
H            3.39146017661210       -2.94309343314450       -0.90760709104977
H            4.90376218518091       -3.27280873677556       -0.05915031948434
H            3.43802305553996       -4.15983902818235        0.36127846146835
H            5.39524529022155       -2.23941090918192        2.04650846810888
H            4.28754643865035       -1.02984564577886        2.71651539776268
H            5.71003142087561       -0.87699096043925        0.02080343817576
H            6.07691554753146        0.07555623615878        1.45946867166818
H            3.82806108644525        0.42226065600040       -0.51845154580863
H            5.15625944946135        1.46314507889759        2.82666716968066
H            3.46561620549227        1.65137205398307        3.29206288933062
H            4.35559329910541        3.03063340400868        2.66153945156942
H            2.36622852864141        2.18020271000419       -0.34015250651176
H            1.83370498889936        2.49685906419279        1.31827003929012
H            3.04802047622482        3.53103393269392        0.57524867343449
H           -5.15206111544926       -0.29626228966258       -2.09067523832650
H           -6.93540408895322       -2.01715688407250       -2.06906604740300
H           -6.93834161345257       -3.75722812880758       -0.31891169575012
H           -5.19154063480364       -3.75447613073434        1.42060938807809
H           -3.43477088177539       -2.03284607427639        1.40832726362392

 Bond Distances (Angstroems)
 ---------------------------
C1-C2=1.5229         C1-H28=1.0876        C1-H29=1.0874        C1-H30=1.0878        C2-C1=1.5229         C2-C3=1.5335         
C2-H31=1.0921        C2-H32=1.0922        C3-C2=1.5335         C3-C4=1.4892         C3-H33=1.0928        C3-H34=1.0906        
C4-C3=1.4892         C4-C5=1.4017         C4-N27=1.3245        C5-C4=1.4017         C5-C6=1.3872         C5-H35=1.0701        
C6-C5=1.3872         C6-C7=1.4644         C6-N20=1.3638        C7-C6=1.4644         C7-O8=1.2090         C7-O9=1.3375         
O8-C7=1.2090         O9-C7=1.3375         O9-C10=1.4293        C10-O9=1.4293        C10-C11=1.4930       C10-H36=1.0996       
C10-H37=1.0952       C11-C10=1.4930       C11-C12=1.3278       C11-H38=1.0801       C12-C11=1.3278       C12-C13=1.5013       
C12-C14=1.5021       C13-C12=1.5013       C13-H39=1.0891       C13-H40=1.0866       C13-H41=1.0893       C14-C12=1.5021       
C14-C15=1.5427       C14-H42=1.0923       C14-H43=1.0901       C15-C14=1.5427       C15-C16=1.5001       C15-H44=1.0912       
C15-H45=1.0920       C16-C15=1.5001       C16-C17=1.3274       C16-H46=1.0818       C17-C16=1.3274       C17-C18=1.4998       
C17-C19=1.5006       C18-C17=1.4998       C18-H47=1.0857       C18-H48=1.0906       C18-H49=1.0893       C19-C17=1.5006       
C19-H50=1.0870       C19-H51=1.0901       C19-H52=1.0902       N20-C6=1.3638        N20-C21=1.4046       N20-N27=1.3269       
C21-N20=1.4046       C21-C22=1.3898       C21-C26=1.3887       C22-C21=1.3898       C22-C23=1.3820       C22-H53=1.0788       
C23-C22=1.3820       C23-C24=1.3850       C23-H54=1.0797       C24-C23=1.3850       C24-C25=1.3850       C24-H55=1.0797       
C25-C24=1.3850       C25-C26=1.3825       C25-H56=1.0796       C26-C21=1.3887       C26-C25=1.3825       C26-H57=1.0784       
N27-C4=1.3245        N27-N20=1.3269       H28-C1=1.0876        H29-C1=1.0874        H30-C1=1.0878        H31-C2=1.0921        
H32-C2=1.0922        H33-C3=1.0928        H34-C3=1.0906        H35-C5=1.0701        H36-C10=1.0996       H37-C10=1.0952       
H38-C11=1.0801       H39-C13=1.0891       H40-C13=1.0866       H41-C13=1.0893       H42-C14=1.0923       H43-C14=1.0901       
H44-C15=1.0912       H45-C15=1.0920       H46-C16=1.0818       H47-C18=1.0857       H48-C18=1.0906       H49-C18=1.0893       
H50-C19=1.0870       H51-C19=1.0901       H52-C19=1.0902       H53-C22=1.0788       H54-C23=1.0797       H55-C24=1.0797       
H56-C25=1.0796       H57-C26=1.0784       
 C  H  Rav=1.0872 sigma=0.0061  Rmin=1.0701  Rmax=1.0996    30
 C  C  Rav=1.4432 sigma=0.0682  Rmin=1.3274  Rmax=1.5427    21
 N  C  Rav=1.3643 sigma=0.0327  Rmin=1.3245  Rmax=1.4046     3
 N  N  Rav=1.3269 sigma=0.0000  Rmin=1.3269  Rmax=1.3269     1
 O  C  Rav=1.3252 sigma=0.0904  Rmin=1.2090  Rmax=1.4293     3

 selected bond angles (degree)
 --------------------
H28-C1-C2=110.40               H29-C1-C2=110.48               H29-C1-H28=108.18              H30-C1-C2=110.61               
H30-C1-H28=108.58              H30-C1-H29=108.51              C3-C2-C1=111.75                H31-C2-C1=109.52               
H31-C2-C3=108.82               H32-C2-C1=109.58               H32-C2-C3=109.21               H32-C2-H31=107.86              
C4-C3-C2=111.52                H33-C3-C2=109.20               H33-C3-C4=109.15               H34-C3-C2=109.72               
H34-C3-C4=108.41               H34-C3-H33=108.78              C5-C4-C3=128.11                N27-C4-C3=121.88               
N27-C4-C5=110.00               C6-C5-C4=105.19                H35-C5-C4=128.33               H35-C5-C6=126.48               
C7-C6-C5=127.57                N20-C6-C5=106.25               N20-C6-C7=125.67               O8-C7-C6=126.21                
O9-C7-C6=110.04                O9-C7-O8=123.71                C10-O9-C7=116.60               C11-C10-O9=107.42              
H36-C10-O9=108.64              H36-C10-C11=111.63             H37-C10-O9=108.99              H37-C10-C11=112.50             
H37-C10-H36=107.58             

 selected dihedral angles (degree)
 ---------------------------------
C3-C2-C1-H28= 59.62           C3-C2-C1-H29=299.99           C3-C2-C1-H30=179.82           H31-C2-C1-H28=298.95          
H31-C2-C1-H29=179.33          H31-C2-C1-H30= 59.16          H32-C2-C1-H28=180.82          H32-C2-C1-H29= 61.19          
H32-C2-C1-H30=301.02          C4-C3-C2-C1= 64.05            C4-C3-C2-H31=185.12           C4-C3-C2-H32=302.64           
H33-C3-C2-C1=184.77           H33-C3-C2-H31=305.84          H33-C3-C2-H32= 63.36          H34-C3-C2-C1=303.92           
H34-C3-C2-H31= 64.99          H34-C3-C2-H32=182.50          C5-C4-C3-C2= 69.20            C5-C4-C3-H33=308.45           
C5-C4-C3-H34=190.10           N27-C4-C3-C2=250.60           N27-C4-C3-H33=129.85          N27-C4-C3-H34= 11.50          
C6-C5-C4-C3=181.16            C6-C5-C4-N27=359.90           H35-C5-C4-C3=  0.44           H35-C5-C4-N27=179.18          
C7-C6-C5-C4=172.05            C7-C6-C5-H35=352.75           N20-C6-C5-C4=  0.00           N20-C6-C5-H35=180.69          
O8-C7-C6-C5=201.97            O8-C7-C6-N20= 12.57           O9-C7-C6-C5= 19.80            O9-C7-C6-N20=190.40           
C10-O9-C7-C6=183.30           C10-O9-C7-O8=  1.20           C11-C10-O9-C7=186.53          H36-C10-O9-C7=307.44          
H37-C10-O9-C7= 64.38          
           -------------------------------------------------
          |                Final Singlepoint                |
           -------------------------------------------------

          ...................................................
          :                      SETUP                      :
          :.................................................:
          :  # basis functions                 138          :
          :  # atomic orbitals                 138          :
          :  # shells                           84          :
          :  # electrons                       144          :
          :  max. iterations                   250          :
          :  Hamiltonian                  GFN2-xTB          :
          :  restarted?                      false          :
          :  GBSA solvation                  false          :
          :  PC potential                    false          :
          :  electronic temp.          300.0000000     K    :
          :  accuracy                    1.0000000          :
          :  -> integral cutoff          0.2500000E+02      :
          :  -> integral neglect         0.1000000E-07      :
          :  -> SCF convergence          0.1000000E-05 Eh   :
          :  -> wf. convergence          0.1000000E-03 e    :
          :  Broyden damping             0.4000000          :
          :  net charge                          0          :
          :  unpaired electrons                  0          :
          ...................................................

 iter      E             dE          RMSdq      gap      omega  full diag
   1    -79.7155337 -0.797155E+02  0.777E-05    2.96       0.0  T
   2    -79.7155337 -0.933653E-11  0.655E-05    2.96     202.2  T
   3    -79.7155337 -0.226393E-09  0.189E-05    2.96     702.0  T

   *** convergence criteria satisfied after 3 iterations ***

         #    Occupation            Energy/Eh            Energy/eV
      -------------------------------------------------------------
         1        2.0000           -0.7375475             -20.0697
       ...           ...                  ...                  ...
        66        2.0000           -0.4128735             -11.2349
        67        2.0000           -0.4076025             -11.0914
        68        2.0000           -0.4064839             -11.0610
        69        2.0000           -0.3926255             -10.6839
        70        2.0000           -0.3864346             -10.5154
        71        2.0000           -0.3857456             -10.4967
        72        2.0000           -0.3761364             -10.2352 (HOMO)
        73                         -0.2674120              -7.2767 (LUMO)
        74                         -0.2267724              -6.1708
        75                         -0.2243343              -6.1044
        76                         -0.2045534              -5.5662
        77                         -0.1873033              -5.0968
       ...                                ...                  ...
       138                          0.6846478              18.6302
      -------------------------------------------------------------
                  HL-Gap            0.1087244 Eh            2.9585 eV
             Fermi-level           -0.3217742 Eh           -8.7559 eV

 SCC (total)                   0 d,  0 h,  0 min,  0.104 sec
 SCC setup                      ...        0 min,  0.004 sec (  3.873%)
 Dispersion                     ...        0 min,  0.005 sec (  5.121%)
 classical contributions        ...        0 min,  0.003 sec (  2.941%)
 integral evaluation            ...        0 min,  0.014 sec ( 13.144%)
 iterations                     ...        0 min,  0.044 sec ( 42.326%)
 molecular gradient             ...        0 min,  0.033 sec ( 32.080%)
 printout                       ...        0 min,  0.001 sec (  0.481%)

         :::::::::::::::::::::::::::::::::::::::::::::::::::::
         ::                     SUMMARY                     ::
         :::::::::::::::::::::::::::::::::::::::::::::::::::::
         :: total energy             -78.512732919538 Eh    ::
         :: gradient norm              0.000104814094 Eh/a0 ::
         :: HOMO-LUMO gap              2.958540993404 eV    ::
         ::.................................................::
         :: SCC energy               -79.715068185656 Eh    ::
         :: -> isotropic ES            0.059286123071 Eh    ::
         :: -> anisotropic ES          0.009988826195 Eh    ::
         :: -> anisotropic XC          0.041988235358 Eh    ::
         :: -> dispersion             -0.056550845722 Eh    ::
         :: repulsion energy           1.202335266117 Eh    ::
         :: add. restraining           0.000000000000 Eh    ::
         :: total charge               0.000000000000 e     ::
         :::::::::::::::::::::::::::::::::::::::::::::::::::::

           -------------------------------------------------
          |                Property Printout                |
           -------------------------------------------------

    * Orbital Energies and Occupations

         #    Occupation            Energy/Eh            Energy/eV
      -------------------------------------------------------------
         1        2.0000           -0.7375475             -20.0697
       ...           ...                  ...                  ...
        60        2.0000           -0.4334730             -11.7954
        61        2.0000           -0.4290258             -11.6744
        62        2.0000           -0.4282305             -11.6527
        63        2.0000           -0.4252514             -11.5717
        64        2.0000           -0.4201723             -11.4335
        65        2.0000           -0.4185219             -11.3886
        66        2.0000           -0.4128735             -11.2349
        67        2.0000           -0.4076025             -11.0914
        68        2.0000           -0.4064839             -11.0610
        69        2.0000           -0.3926255             -10.6839
        70        2.0000           -0.3864346             -10.5154
        71        2.0000           -0.3857456             -10.4967
        72        2.0000           -0.3761364             -10.2352 (HOMO)
        73                         -0.2674120              -7.2767 (LUMO)
        74                         -0.2267724              -6.1708
        75                         -0.2243343              -6.1044
        76                         -0.2045534              -5.5662
        77                         -0.1873033              -5.0968
        78                         -0.1828973              -4.9769
        79                         -0.1396375              -3.7997
        80                         -0.0935903              -2.5467
        81                         -0.0065637              -0.1786
        82                          0.0375769               1.0225
        83                          0.0813844               2.2146
       ...                                ...                  ...
       138                          0.6846478              18.6302
      -------------------------------------------------------------
                  HL-Gap            0.1087244 Eh            2.9585 eV
             Fermi-level           -0.3217742 Eh           -8.7559 eV

     #   Z          covCN         q      C6AA      α(0)
     1   6 C        3.752    -0.102    22.503     6.765
     2   6 C        3.802    -0.049    21.453     6.594
     3   6 C        3.806    -0.064    21.730     6.636
     4   6 C        3.133     0.072    26.175     8.375
     5   6 C        3.019    -0.070    29.718     8.942
     6   6 C        3.063    -0.011    28.215     8.710
     7   6 C        2.720     0.350    21.052     7.511
     8   8 O        0.856    -0.431    22.317     6.334
     9   8 O        1.707    -0.265    18.400     5.792
    10   6 C        3.705     0.087    19.280     6.277
    11   6 C        2.897    -0.068    29.686     8.933
    12   6 C        2.941     0.013    27.727     8.636
    13   6 C        3.757    -0.111    22.668     6.788
    14   6 C        3.812    -0.062    21.683     6.628
    15   6 C        3.805    -0.051    21.494     6.600
    16   6 C        2.897    -0.058    29.438     8.896
    17   6 C        2.937     0.008    27.838     8.653
    18   6 C        3.758    -0.106    22.585     6.776
    19   6 C        3.760    -0.106    22.566     6.772
    20   7 N        3.022     0.098    19.543     6.566
    21   6 C        2.920     0.060    26.649     8.465
    22   6 C        2.924    -0.033    28.815     8.803
    23   6 C        2.921    -0.026    28.651     8.778
    24   6 C        2.920    -0.029    28.722     8.788
    25   6 C        2.922    -0.023    28.591     8.768
    26   6 C        2.921    -0.027    28.684     8.783
    27   7 N        2.020    -0.229    26.776     7.675
    28   1 H        0.925     0.039     2.466     2.456
    29   1 H        0.925     0.036     2.499     2.472
    30   1 H        0.925     0.033     2.550     2.497
    31   1 H        0.924     0.032     2.557     2.501
    32   1 H        0.924     0.033     2.551     2.498
    33   1 H        0.924     0.039     2.464     2.455
    34   1 H        0.924     0.054     2.269     2.355
    35   1 H        0.927     0.043     2.410     2.427
    36   1 H        0.923     0.052     2.294     2.369
    37   1 H        0.924     0.051     2.303     2.373
    38   1 H        0.926     0.048     2.340     2.392
    39   1 H        0.925     0.046     2.370     2.408
    40   1 H        0.925     0.048     2.349     2.397
    41   1 H        0.925     0.045     2.380     2.413
    42   1 H        0.924     0.038     2.473     2.459
    43   1 H        0.925     0.041     2.432     2.439
    44   1 H        0.924     0.034     2.530     2.487
    45   1 H        0.924     0.034     2.526     2.485
    46   1 H        0.925     0.024     2.672     2.556
    47   1 H        0.925     0.040     2.445     2.445
    48   1 H        0.924     0.041     2.435     2.441
    49   1 H        0.925     0.040     2.452     2.449
    50   1 H        0.925     0.035     2.520     2.483
    51   1 H        0.925     0.043     2.414     2.430
    52   1 H        0.925     0.040     2.449     2.447
    53   1 H        0.926     0.057     2.239     2.340
    54   1 H        0.926     0.041     2.433     2.439
    55   1 H        0.926     0.039     2.459     2.452
    56   1 H        0.926     0.042     2.420     2.433
    57   1 H        0.926     0.044     2.397     2.421

 Mol. C6AA /au·bohr⁶  :      32731.875559
 Mol. C8AA /au·bohr⁸  :     756325.295858
 Mol. α(0) /au        :        280.463852


Wiberg/Mayer (AO) data.
largest (>0.10) Wiberg bond orders for each atom

 ---------------------------------------------------------------------------
     #   Z sym  total        # sym  WBO       # sym  WBO       # sym  WBO
 ---------------------------------------------------------------------------
     1   6 C    3.997 --     2 C    1.021    28 H    0.987    30 H    0.987
                            29 H    0.987
     2   6 C    3.996 --     1 C    1.021     3 C    0.990    32 H    0.979
                            31 H    0.978
     3   6 C    3.996 --     4 C    1.017     2 C    0.990    34 H    0.973
                            33 H    0.967
     4   6 C    3.972 --    27 N    1.460     5 C    1.355     3 C    1.017
     5   6 C    3.976 --     6 C    1.435     4 C    1.355    35 H    0.971
     6   6 C    3.953 --     5 C    1.435    20 N    1.213     7 C    1.024
                            27 N    0.135
     7   6 C    3.926 --     8 O    1.698     9 O    1.125     6 C    1.024
     8   8 O    2.018 --     7 C    1.698     9 O    0.170
     9   8 O    2.304 --     7 C    1.125    10 C    0.933     8 O    0.170
    10   6 C    3.923 --    11 C    1.018    37 H    0.960    36 H    0.952
                             9 O    0.933
    11   6 C    3.980 --    12 C    1.879    10 C    1.018    38 H    0.962
    12   6 C    3.986 --    11 C    1.879    13 C    1.023    14 C    1.014
    13   6 C    3.997 --    12 C    1.023    40 H    0.985    41 H    0.972
                            39 H    0.970
    14   6 C    3.996 --    12 C    1.014    43 H    0.974    42 H    0.969
                            15 C    0.968
    15   6 C    3.996 --    16 C    1.022    44 H    0.978    14 C    0.968
                            45 H    0.966
    16   6 C    3.987 --    17 C    1.886    15 C    1.022    46 H    0.966
    17   6 C    3.988 --    16 C    1.886    18 C    1.024    19 C    1.022
    18   6 C    3.997 --    17 C    1.024    47 H    0.980    49 H    0.978
                            48 H    0.969
    19   6 C    3.997 --    17 C    1.022    50 H    0.985    52 H    0.973
                            51 H    0.973
    20   7 N    3.697 --    27 N    1.213     6 C    1.213    21 C    1.023
    21   6 C    3.961 --    26 C    1.386    22 C    1.385    20 N    1.023
                            24 C    0.102
    22   6 C    3.988 --    23 C    1.449    21 C    1.385    53 H    0.967
                            25 C    0.109
    23   6 C    3.991 --    22 C    1.449    24 C    1.436    54 H    0.970
                            26 C    0.109
    24   6 C    3.983 --    25 C    1.436    23 C    1.436    55 H    0.971
                            21 C    0.102
    25   6 C    3.991 --    26 C    1.448    24 C    1.436    56 H    0.970
                            22 C    0.109
    26   6 C    3.990 --    25 C    1.448    21 C    1.386    57 H    0.968
                            23 C    0.109
    27   7 N    2.975 --     4 C    1.460    20 N    1.213     6 C    0.135
    28   1 H    0.998 --     1 C    0.987
    29   1 H    0.999 --     1 C    0.987
    30   1 H    0.999 --     1 C    0.987
    31   1 H    0.998 --     2 C    0.978
    32   1 H    0.999 --     2 C    0.979
    33   1 H    0.998 --     3 C    0.967
    34   1 H    0.997 --     3 C    0.973
    35   1 H    0.998 --     5 C    0.971
    36   1 H    0.996 --    10 C    0.952
    37   1 H    0.997 --    10 C    0.960
    38   1 H    0.998 --    11 C    0.962
    39   1 H    0.998 --    13 C    0.970
    40   1 H    0.998 --    13 C    0.985
    41   1 H    0.998 --    13 C    0.972
    42   1 H    0.998 --    14 C    0.969
    43   1 H    0.998 --    14 C    0.974
    44   1 H    0.999 --    15 C    0.978
    45   1 H    0.998 --    15 C    0.966
    46   1 H    0.999 --    16 C    0.966
    47   1 H    0.998 --    18 C    0.980
    48   1 H    0.998 --    18 C    0.969
    49   1 H    0.998 --    18 C    0.978
    50   1 H    0.999 --    19 C    0.985
    51   1 H    0.998 --    19 C    0.973
    52   1 H    0.998 --    19 C    0.973
    53   1 H    0.997 --    22 C    0.967
    54   1 H    0.998 --    23 C    0.970
    55   1 H    0.998 --    24 C    0.971
    56   1 H    0.998 --    25 C    0.970
    57   1 H    0.998 --    26 C    0.968
 ---------------------------------------------------------------------------

Topologies differ in total number of bonds
Writing topology from bond orders to xtbtopo.mol

molecular dipole:
                 x           y           z       tot (Debye)
 q only:        0.457       0.331       0.285
   full:        0.827       0.243       0.390       2.405
molecular quadrupole (traceless):
                xx          xy          yy          xz          yz          zz
 q only:       10.132      -2.089      -4.921       4.591      -2.713      -5.211
  q+dip:        4.378      -0.344      -2.858       3.695      -2.519      -1.521
   full:        3.269      -0.990      -3.158       2.059      -2.112      -0.110

           -------------------------------------------------
          |                Geometry Summary                 |
           -------------------------------------------------

      molecular mass/u    :      366.4973645
   center of mass at/Å    :       -0.5674298      -0.2679707       0.0152029
  moments of inertia/u·Å² :        0.1991268E+04   0.5186155E+04   0.6671472E+04
rotational constants/cm⁻¹ :        0.8465776E-02   0.3250507E-02   0.2526823E-02

 * 50 selected distances

     #   Z          #   Z                                           value/Å
     1   6 C        2   6 C                                       1.5229003
     2   6 C        3   6 C                                       1.5335318 (max)
     3   6 C        4   6 C                                       1.4891510
     4   6 C        5   6 C                                       1.4017078
     5   6 C        6   6 C                                       1.3871935
     7   6 C        8   8 O                                       1.2089756
     7   6 C        9   8 O                                       1.3374529
     9   8 O       10   6 C                                       1.4293149
    11   6 C       12   6 C                                       1.3278026
    16   6 C       17   6 C                                       1.3273657
     6   6 C       20   7 N                                       1.3638130
    20   7 N       21   6 C                                       1.4045584
    21   6 C       22   6 C                                       1.3897890
    22   6 C       23   6 C                                       1.3820372
    23   6 C       24   6 C                                       1.3850369
    24   6 C       25   6 C                                       1.3849789
    21   6 C       26   6 C                                       1.3887351
    25   6 C       26   6 C                                       1.3825272
     4   6 C       27   7 N                                       1.3245253
    20   7 N       27   7 N                                       1.3269063
     1   6 C       28   1 H                                       1.0875521
     1   6 C       29   1 H                                       1.0874318
     1   6 C       30   1 H                                       1.0877529
     2   6 C       31   1 H                                       1.0921316
     2   6 C       32   1 H                                       1.0922469
     3   6 C       33   1 H                                       1.0928359
     3   6 C       34   1 H                                       1.0905912
     5   6 C       35   1 H                                       1.0701192 (min)
    10   6 C       36   1 H                                       1.0995759
    10   6 C       37   1 H                                       1.0952242
    11   6 C       38   1 H                                       1.0800945
    13   6 C       39   1 H                                       1.0891245
    13   6 C       40   1 H                                       1.0866176
    13   6 C       41   1 H                                       1.0893241
    14   6 C       42   1 H                                       1.0922949
    14   6 C       43   1 H                                       1.0900508
    15   6 C       44   1 H                                       1.0911805
    15   6 C       45   1 H                                       1.0920368
    16   6 C       46   1 H                                       1.0817641
    18   6 C       47   1 H                                       1.0857282
    18   6 C       48   1 H                                       1.0906085
    18   6 C       49   1 H                                       1.0892822
    19   6 C       50   1 H                                       1.0869545
    19   6 C       51   1 H                                       1.0900702
    19   6 C       52   1 H                                       1.0901576
    22   6 C       53   1 H                                       1.0787798
    23   6 C       54   1 H                                       1.0797473
    24   6 C       55   1 H                                       1.0797421
    25   6 C       56   1 H                                       1.0795931
    26   6 C       57   1 H                                       1.0783739

 * 5 distinct bonds (by element types)

   Z      Z             #   av. dist./Å        max./Å        min./Å
   1 H    6 C          30     1.0872329     1.0995759     1.0701192
   6 C    6 C          13     1.4079044     1.5335318     1.3273657
   6 C    7 N           3     1.3642989     1.4045584     1.3245253
   7 N    7 N           1     1.3269063     1.3269063     1.3269063
   6 C    8 O           3     1.3252478     1.4293149     1.2089756


optimized geometry written to: xtbopt.xyz


           -------------------------------------------------
          | TOTAL ENERGY              -78.512732919538 Eh   |
          | GRADIENT NORM               0.000104814094 Eh/α |
          | HOMO-LUMO GAP               2.958540993404 eV   |
           -------------------------------------------------

------------------------------------------------------------------------
 * finished run on 2026/07/07 at 04:07:33.735     
------------------------------------------------------------------------
 total:
 * wall-time:     0 d,  0 h,  0 min, 12.646 sec
 *  cpu-time:     0 d,  0 h,  3 min, 21.097 sec
 * ratio c/w:    15.902 speedup
 SCF:
 * wall-time:     0 d,  0 h,  0 min,  0.296 sec
 *  cpu-time:     0 d,  0 h,  0 min,  4.723 sec
 * ratio c/w:    15.956 speedup
 ANC optimizer:
 * wall-time:     0 d,  0 h,  0 min, 12.288 sec
 *  cpu-time:     0 d,  0 h,  3 min, 15.503 sec
 * ratio c/w:    15.909 speedup

