28
REP_00185 MMFF geometry for GFN2-xTB preoptimization
C  -4.137253276538  1.055131016344 -0.521505954060
C  -3.577891988385 -0.107686062994  0.290431597629
C  -4.315248833669 -1.399772730135 -0.039617203233
O  -2.193502048923 -0.310486798395 -0.048312489836
C  -1.302696250167  0.469132339620  0.613701983176
O  -1.554710824249  1.314389183810  1.455578026350
C   0.048862224144  0.118141630969  0.132751071865
C   1.120843769293  0.758319517528  0.623461835407
C   2.504253255289  0.471715313237  0.220974420025
C   3.521957617458  0.585575092469  1.177353232581
C   4.854525115501  0.346557306017  0.832007245864
C   5.184829890365  0.002448737510 -0.476670298286
C   4.184475682554 -0.097491563825 -1.441084576336
C   2.851309236479  0.140868873686 -1.095774557658
H  -3.611530749087  1.985659149426 -0.284017547332
H  -4.001591209354  0.883922529786 -1.595148158496
H  -5.203001681583  1.201723251171 -0.320943347866
H  -3.685853582049  0.088879993996  1.364185221104
H  -4.204571060602 -1.656999271637 -1.098941924522
H  -5.381450409248 -1.320509359794  0.193391071043
H  -3.894418014495 -2.234296276137  0.531762323034
H   0.119842448887 -0.671352783860 -0.604472548872
H   0.997202671193  1.527483999691  1.384679778321
H   3.285512006833  0.854477958289  2.204773667278
H   5.633412007133  0.431442319468  1.585372535730
H   6.221584023958 -0.181607168978 -0.746085944472
H   4.441556233328 -0.354922203103 -2.465371236468
H   2.093553745932  0.076841831887 -1.872478221969
