28
 energy: -40.952025528027 gnorm: 0.000073645083 xtb: 6.7.1 (edcfbbe)
C           -4.17091252098218        1.16033493084251       -0.37711564287118
C           -3.59427127359433       -0.10594045494793        0.24843125340202
C           -4.34355048299334       -1.35648824570355       -0.18887159935629
O           -2.22782498670646       -0.26353648874038       -0.15929865690950
C           -1.28698671514495        0.33761973060854        0.58212014896573
O           -1.52043355670339        0.99247089096667        1.57140749143195
C            0.05103828924818        0.08043645577365        0.03025362543685
C            1.14108593810824        0.55824236525237        0.64261245435955
C            2.52231467237085        0.39294555755421        0.23528085668034
C            3.53517691539947        0.83929126812358        1.08904922723554
C            4.86558145748845        0.69714676755720        0.74638240919272
C            5.21276156516748        0.11258760664918       -0.46082024512863
C            4.21970336401141       -0.32867475333440       -1.32153521027352
C            2.88888665165797       -0.19273225004821       -0.97942904741108
H           -3.60785718310794        2.02831789209745       -0.04231388807474
H           -4.11431918794645        1.09907912438461       -1.46170692886274
H           -5.20888706375843        1.27974502565887       -0.07999282307765
H           -3.60873961483650       -0.01029272500510        1.34233374237209
H           -4.30481268449259       -1.45172423777690       -1.27102076644364
H           -5.38096026965940       -1.29308545892276        0.12648756435804
H           -3.89225482621869       -2.24044081244102        0.25434130511460
H            0.07576678921194       -0.51032506712170       -0.87133490897828
H            0.98038738461833        1.12476587789354        1.55288554845692
H            3.26707869186842        1.29606261323869        2.03085393042899
H            5.63554962219797        1.04417397735651        1.41975379182042
H            6.25238092367956        0.00310267815400       -0.73166908889945
H            4.48769590812724       -0.78068078033033       -2.26540187491143
H            2.12640219298755       -0.53481566169277       -1.66168266805699
