38
 energy: -51.322302880107 gnorm: 0.000221619773 xtb: 6.7.1 (edcfbbe)
O            0.52162202869379       -0.70626136348835        1.01097335941457
C            0.64280309952762       -0.33576847431784       -0.12720303358477
O           -0.36484348880669        0.14457299667976       -0.86269891924709
C           -1.66904855652195        0.18098454126814       -0.26250287615697
C           -2.45537901883926        1.30771449156180       -0.92213491562771
C           -3.86691511607230        1.36498994529460       -0.34521941527882
C           -4.57935447269033        0.02942642576956       -0.53748080855356
C           -3.78495297366426       -1.09687430301402        0.11716728401093
C           -2.37261400995646       -1.16054111361375       -0.45526504545335
C            1.95149494570827       -0.27585928458389       -0.91880060113440
O            1.69671093815229       -0.43554354325196       -2.30147859754910
C            2.92089098577472       -1.39578573905797       -0.52279085626093
C            3.50359846944184       -1.22427498810832        0.87574641023904
C            4.15797861049862        0.14375140790557        1.02965564051674
C            3.13119777488691        1.23783505049469        0.75882112462941
C            2.58635546835081        1.10855107509526       -0.65851115032797
H           -1.54147130473869        0.37610201174267        0.81017439405496
H           -2.49912752502779        1.12059411306056       -1.99702625798912
H           -1.93929799984473        2.25666756705962       -0.76432342012508
H           -4.42837275794896        2.16307957617291       -0.83395904101070
H           -3.81236064648825        1.59661505844234        0.72074451822949
H           -5.57984024019527        0.07807253037578       -0.10398828080049
H           -4.68597584891042       -0.17428091900254       -1.60519251116533
H           -4.28680157997510       -2.05221992022834       -0.04463159181095
H           -3.72954703434065       -0.92482781826675        1.19417658875824
H           -2.41000792818689       -1.38676089605039       -1.52349015933183
H           -1.79547128694776       -1.94323528051113        0.04032726194486
H            0.93763546152554        0.11123723176514       -2.53717898103163
H            3.71899349102060       -1.38864112688559       -1.26799354501971
H            2.39937209076458       -2.35091187379664       -0.60138314262683
H            2.70686184797418       -1.32747366970497        1.61194247217498
H            4.23630960486447       -2.01398044619856        1.05253418073617
H            4.98710510306355        0.23871326498716        0.32415898840322
H            4.55879068145052        0.25191311443185        2.03900000556889
H            3.58484057228941        2.22370629829232        0.88202906226679
H            2.31451691454487        1.14813416650926        1.47757674390395
H            1.84466421596562        1.88696086926455       -0.85960937618003
H            3.39963948466647        1.22361902390358       -1.37913742662362
