37
REP_00213 MMFF geometry for GFN2-xTB preoptimization
C   4.481921495692  0.917048470519  0.482838853414
C   3.045036938857  0.770363001794  0.959398339755
C   2.175755355234  0.067626946584 -0.090739986063
C   0.708888374136 -0.053485440573  0.364826687276
O   0.650760290344 -0.829985171865  1.569657635042
C  -0.277548065417 -0.648022886413 -0.692664213360
C  -0.276206185946  0.205246831878 -1.979790513082
C   0.180374311292 -2.071791172301 -1.119016095509
C  -1.733092486454 -0.772322286893 -0.096729460647
O  -1.735640670777 -1.841402465715  0.867232353647
C  -2.384275924449  0.454565379193  0.604149650403
C  -2.484375537933  1.710970114312 -0.256725865008
C  -3.797980296399  0.091079791757  1.096568602934
H   4.532065199414  1.509650220010 -0.436193754617
H   4.931731812674 -0.061398502061  0.286329418111
H   5.084302460414  1.421097765456  1.245063064013
H   2.635844889382  1.764151191389  1.175092878597
H   3.038555125760  0.204939128366  1.898022719907
H   2.598977006668 -0.927730979200 -0.268921993084
H   2.235911316935  0.628285229392 -1.029435125705
H   0.364606116124  0.951230780934  0.634545547465
H   1.246151729120 -1.593997184302  1.458755246601
H  -0.289328754944  1.276619988912 -1.772918587377
H   0.621555056464  0.022693968371 -2.581889270778
H  -1.136473961246 -0.033556641585 -2.614789357443
H   0.302611463339 -2.745153708859 -0.264721540512
H   1.137642794673 -2.047799052701 -1.650880308695
H  -0.551320749062 -2.526572464199 -1.797276309436
H  -2.403276291120 -1.100691808650 -0.901839124839
H  -1.074814759971 -1.583895279435  1.544910705038
H  -1.807023079447  0.699468632675  1.504731486600
H  -3.145552287832  2.453440143705  0.204482719305
H  -1.511999352677  2.197363587024 -0.359311341466
H  -2.881020400660  1.485176397701 -1.251582017585
H  -3.775543530956 -0.743005997130  1.805114152795
H  -4.260568671774  0.938820277644  1.613959358528
H  -4.446650729456 -0.189026805734  0.259518843417
