      -----------------------------------------------------------      
     |                   =====================                   |     
     |                           x T B                           |     
     |                   =====================                   |     
     |                         S. Grimme                         |     
     |          Mulliken Center for Theoretical Chemistry        |     
     |                    University of Bonn                     |     
      -----------------------------------------------------------      

   * xtb version 6.7.1 (edcfbbe) compiled by 'conda@5dfe00f5fb80' on 2026-06-10

   xtb is free software: you can redistribute it and/or modify it under
   the terms of the GNU Lesser General Public License as published by
   the Free Software Foundation, either version 3 of the License, or
   (at your option) any later version.
   
   xtb is distributed in the hope that it will be useful,
   but WITHOUT ANY WARRANTY; without even the implied warranty of
   MERCHANTABILITY or FITNESS FOR A PARTICULAR PURPOSE.  See the
   GNU Lesser General Public License for more details.
   
   Cite this work as:
   * C. Bannwarth, E. Caldeweyher, S. Ehlert, A. Hansen, P. Pracht,
     J. Seibert, S. Spicher, S. Grimme, WIREs Comput. Mol. Sci., 2020, 11,
     e01493. DOI: 10.1002/wcms.1493
   
   for GFN2-xTB:
   * C. Bannwarth, S. Ehlert and S. Grimme., J. Chem. Theory Comput., 2019,
     15, 1652-1671. DOI: 10.1021/acs.jctc.8b01176
   for GFN1-xTB:
   * S. Grimme, C. Bannwarth, P. Shushkov, J. Chem. Theory Comput., 2017,
     13, 1989-2009. DOI: 10.1021/acs.jctc.7b00118
   for GFN0-xTB:
   * P. Pracht, E. Caldeweyher, S. Ehlert, S. Grimme, ChemRxiv, 2019, preprint.
     DOI: 10.26434/chemrxiv.8326202.v1
   for GFN-FF:
   * S. Spicher and S. Grimme, Angew. Chem. Int. Ed., 2020, 59, 15665-15673.
     DOI: 10.1002/anie.202004239
   
   for ALPB and GBSA implicit solvation:
   * S. Ehlert, M. Stahn, S. Spicher, S. Grimme, J. Chem. Theory Comput.,
     2021, 17, 4250-4261. DOI: 10.1021/acs.jctc.1c00471
   
   for ddCOSMO and CPCM-X implicit solvation:
   * M. Stahn, S. Ehlert, S. Grimme, J. Phys. Chem. A,
     2023, XX, XXXX-XXXX. DOI: 10.1021/acs.jpca.3c04382
   
   for DFT-D4:
   * E. Caldeweyher, C. Bannwarth and S. Grimme, J. Chem. Phys., 2017,
     147, 034112. DOI: 10.1063/1.4993215
   * E. Caldeweyher, S. Ehlert, A. Hansen, H. Neugebauer, S. Spicher,
     C. Bannwarth and S. Grimme, J. Chem. Phys., 2019, 150, 154122.
     DOI: 10.1063/1.5090222
   * E. Caldeweyher, J.-M. Mewes, S. Ehlert and S. Grimme, Phys. Chem. Chem. Phys.
     2020, 22, 8499-8512. DOI: 10.1039/D0CP00502A
   
   for sTDA-xTB:
   * S. Grimme and C. Bannwarth, J. Chem. Phys., 2016, 145, 054103.
     DOI: 10.1063/1.4959605
   
   in the mass-spec context:
   * V. Asgeirsson, C. Bauer and S. Grimme, Chem. Sci., 2017, 8, 4879.
     DOI: 10.1039/c7sc00601b
   * J. Koopman and S. Grimme, ACS Omega 2019, 4, 12, 15120-15133.
     DOI: 10.1021/acsomega.9b02011
   
   for metadynamics refer to:
   * S. Grimme, J. Chem. Theory Comput., 2019, 155, 2847-2862
     DOI: 10.1021/acs.jctc.9b00143
   
   for SPH calculations refer to:
   * S. Spicher and S. Grimme, J. Chem. Theory Comput., 2021, 17, 1701-1714
     DOI: 10.1021/acs.jctc.0c01306
   
   for ONIOM refer to:
   * C. Plett, A. Katbashev, S. Ehlert, S. Grimme, M. Bursch,
     Phys. Chem. Chem. Phys., 2023, 25, 17860-17868. DOI: 10.1039/D3CP02178E
   
   for DIPRO refer to:
   * J. Kohn, N. Gildemeister, S. Grimme, D. Fazzi, A. Hansen,
     J. Chem. Phys., 2023, just accepted.
   
   for PTB refer to:
   * S. Grimme, M. Mueller, A. Hansen, J. Chem. Phys., 2023, 158, 124111.
     DOI: 10.1063/5.0137838
   
   with help from (in alphabetical order)
   P. Atkinson, C. Bannwarth, F. Bohle, G. Brandenburg, E. Caldeweyher
   M. Checinski, S. Dohm, S. Ehlert, S. Ehrlich, I. Gerasimov, C. Hölzer
   A. Katbashev, J. Kohn, J. Koopman, C. Lavigne, S. Lehtola, F. März, M. Müller,
   F. Musil, H. Neugebauer, J. Pisarek, C. Plett, P. Pracht, F. Pultar,
   J. Seibert, P. Shushkov, S. Spicher, M. Stahn, M. Steiner, T. Strunk,
   J. Stückrath, T. Rose, and J. Unsleber
   
 * started run on 2026/07/07 at 19:09:31.023     
   ID    Z sym.   atoms
    1    6 C      1, 2, 4, 5, 7-9
    2    8 O      3, 6
    3    1 H      10-25

           -------------------------------------------------
          |                Calculation Setup                |
           -------------------------------------------------

          program call               : /home/ws/xd2484/miniforge3/envs/p3z_dft/bin/xtb xtb_input.xyz --gfn 2 --opt tight --cycles 500 --chrg 0 --uhf 0
          hostname                   : gpu10
          coordinate file            : xtb_input.xyz
          omp threads                :                    16


           -------------------------------------------------
          |                 G F N 2 - x T B                 |
           -------------------------------------------------

        Reference                      10.1021/acs.jctc.8b01176
      * Hamiltonian:
        H0-scaling (s, p, d)           1.850000    2.230000    2.230000
        zeta-weighting                 0.500000
      * Dispersion:
        s8                             2.700000
        a1                             0.520000
        a2                             5.000000
        s9                             5.000000
      * Repulsion:
        kExp                           1.500000    1.000000
        rExp                           1.000000
      * Coulomb:
        alpha                          2.000000
        third order                    shell-resolved
        anisotropic                    true
        a3                             3.000000
        a5                             4.000000
        cn-shift                       1.200000
        cn-exp                         4.000000
        max-rad                        5.000000


          ...................................................
          :                      SETUP                      :
          :.................................................:
          :  # basis functions                  52          :
          :  # atomic orbitals                  52          :
          :  # shells                           34          :
          :  # electrons                        56          :
          :  max. iterations                   250          :
          :  Hamiltonian                  GFN2-xTB          :
          :  restarted?                      false          :
          :  GBSA solvation                  false          :
          :  PC potential                    false          :
          :  electronic temp.          300.0000000     K    :
          :  accuracy                    1.0000000          :
          :  -> integral cutoff          0.2500000E+02      :
          :  -> integral neglect         0.1000000E-07      :
          :  -> SCF convergence          0.1000000E-05 Eh   :
          :  -> wf. convergence          0.1000000E-03 e    :
          :  Broyden damping             0.4000000          :
          :  net charge                          0          :
          :  unpaired electrons                  0          :
          ...................................................

 iter      E             dE          RMSdq      gap      omega  full diag
   1    -31.5718234 -0.315718E+02  0.314E+00   11.22       0.0  T
   2    -31.6247629 -0.529395E-01  0.170E+00   10.64       1.0  T
   3    -31.6259855 -0.122262E-02  0.738E-01   10.53       1.0  T
   4    -31.6264721 -0.486587E-03  0.146E-01   10.44       1.0  T
   5    -31.6266126 -0.140549E-03  0.680E-02   10.48       1.0  T
   6    -31.6266162 -0.359246E-05  0.147E-02   10.51       1.4  T
   7    -31.6266170 -0.801248E-06  0.612E-03   10.50       3.3  T
   8    -31.6266171 -0.104945E-06  0.197E-03   10.50      10.1  T
   9    -31.6266171 -0.677131E-08  0.780E-04   10.50      25.6  T
  10    -31.6266171 -0.189094E-08  0.207E-04   10.50      96.8  T

   *** convergence criteria satisfied after 10 iterations ***

         #    Occupation            Energy/Eh            Energy/eV
      -------------------------------------------------------------
         1        2.0000           -0.6976687             -18.9845
       ...           ...                  ...                  ...
        22        2.0000           -0.4533163             -12.3354
        23        2.0000           -0.4471873             -12.1686
        24        2.0000           -0.4432002             -12.0601
        25        2.0000           -0.4400849             -11.9753
        26        2.0000           -0.4237854             -11.5318
        27        2.0000           -0.4109694             -11.1830
        28        2.0000           -0.3858465             -10.4994 (HOMO)
        29                          0.0000345               0.0009 (LUMO)
        30                          0.0378653               1.0304
        31                          0.0537599               1.4629
        32                          0.0651544               1.7729
        33                          0.0928243               2.5259
       ...                                ...                  ...
        52                          0.2995866               8.1522
      -------------------------------------------------------------
                  HL-Gap            0.3858810 Eh           10.5004 eV
             Fermi-level           -0.1929060 Eh           -5.2492 eV

 SCC (total)                   0 d,  0 h,  0 min,  0.200 sec
 SCC setup                      ...        0 min,  0.003 sec (  1.563%)
 Dispersion                     ...        0 min,  0.008 sec (  3.772%)
 classical contributions        ...        0 min,  0.004 sec (  1.853%)
 integral evaluation            ...        0 min,  0.012 sec (  5.888%)
 iterations                     ...        0 min,  0.131 sec ( 65.646%)
 molecular gradient             ...        0 min,  0.042 sec ( 21.179%)
 printout                       ...        0 min,  0.000 sec (  0.083%)

         :::::::::::::::::::::::::::::::::::::::::::::::::::::
         ::                     SUMMARY                     ::
         :::::::::::::::::::::::::::::::::::::::::::::::::::::
         :: total energy             -31.281169125316 Eh    ::
         :: gradient norm              0.035258308191 Eh/a0 ::
         :: HOMO-LUMO gap             10.500356171582 eV    ::
         ::.................................................::
         :: SCC energy               -31.626499417799 Eh    ::
         :: -> isotropic ES            0.054506162773 Eh    ::
         :: -> anisotropic ES          0.004654590051 Eh    ::
         :: -> anisotropic XC          0.008578523070 Eh    ::
         :: -> dispersion             -0.016741500251 Eh    ::
         :: repulsion energy           0.345330292483 Eh    ::
         :: add. restraining           0.000000000000 Eh    ::
         :: total charge              -0.000000000000 e     ::
         :::::::::::::::::::::::::::::::::::::::::::::::::::::

      ----------------------------------------------------------- 
     |                   =====================                   |
     |                        A N C O P T                        |
     |                   =====================                   |
     |               Approximate Normal Coordinate               |
     |                Rational Function Optimizer                |
      ----------------------------------------------------------- 
      ----------------------------------------------------------- 
     |                   =====================                   |
     |                        A N C O P T                        |
     |                   =====================                   |
     |               Approximate Normal Coordinate               |
     |                Rational Function Optimizer                |
      ----------------------------------------------------------- 

          ...................................................
          :                      SETUP                      :
          :.................................................:
          :   optimization level             tight          :
          :   max. optcycles                   500          :
          :   ANC micro-cycles                  20          :
          :   degrees of freedom                69          :
          :.................................................:
          :   RF solver                   davidson          :
          :   write xtbopt.log                true          :
          :   linear?                        false          :
          :   energy convergence         0.1000000E-05 Eh   :
          :   grad. convergence          0.8000000E-03 Eh/α :
          :   maxmium RF displ.          1.0000000          :
          :   Hlow (freq-cutoff)         0.1000000E-01      :
          :   Hmax (freq-cutoff)         5.0000000          :
          :   S6 in model hess.         20.0000000          :
          ...................................................

generating ANC from exact Hessian ...
Using Lindh-Hessian (1995)
 Shifting diagonal of input Hessian by    8.6405665874653079E-003
 Lowest  eigenvalues of input Hessian
    0.000000    0.000000    0.000000    0.000000    0.000000    0.000000
    0.010000    0.010547    0.011404    0.013051    0.016741    0.017175
    0.017443    0.018321    0.019216    0.021903    0.025645    0.029787
 Highest eigenvalues
    1.204500    1.241679    1.247687    1.310886    1.411286    1.427571


........................................................................
.............................. CYCLE    1 ..............................
........................................................................

 iter      E             dE          RMSdq      gap      omega  full diag
   1    -31.6266171 -0.316266E+02  0.616E-05   10.50       0.0  T
   2    -31.6266171 -0.640554E-11  0.369E-05   10.50     542.5  T
   3    -31.6266171 -0.121858E-11  0.104E-05   10.50    1914.4  T
     SCC iter.                  ...        0 min,  0.041 sec
     gradient                   ...        0 min,  0.040 sec
 * total energy  :   -31.2811691 Eh     change       -0.1088587E-09 Eh
   gradient norm :     0.0352599 Eh/α   predicted     0.0000000E+00 (-100.00%)
   displ. norm   :     0.1804184 α      lambda       -0.2640118E-02
   maximum displ.:     0.0684398 α      in ANC's #6, #16, #4, ...

........................................................................
.............................. CYCLE    2 ..............................
........................................................................

 iter      E             dE          RMSdq      gap      omega  full diag
   1    -31.6386415 -0.316386E+02  0.115E-01   10.73       0.0  T
   2    -31.6386515 -0.100017E-04  0.665E-02   10.75       1.0  T
   3    -31.6386519 -0.359341E-06  0.117E-02   10.76       1.7  T
   4    -31.6386527 -0.771549E-06  0.325E-03   10.75       6.2  T
   5    -31.6386527 -0.476951E-07  0.143E-03   10.75      14.0  T
   6    -31.6386527 -0.341903E-08  0.537E-04   10.75      37.3  T
   7    -31.6386527 -0.680828E-09  0.149E-04   10.75     134.0  T
     SCC iter.                  ...        0 min,  0.098 sec
     gradient                   ...        0 min,  0.039 sec
 * total energy  :   -31.2829497 Eh     change       -0.1780555E-02 Eh
   gradient norm :     0.0153662 Eh/α   predicted    -0.1363063E-02 ( -23.45%)
   displ. norm   :     0.1741354 α      lambda       -0.7984972E-03
   maximum displ.:     0.0877007 α      in ANC's #4, #6, #16, ...

........................................................................
.............................. CYCLE    3 ..............................
........................................................................

 iter      E             dE          RMSdq      gap      omega  full diag
   1    -31.6445281 -0.316445E+02  0.665E-02   10.93       0.0  T
   2    -31.6445350 -0.688981E-05  0.384E-02   10.94       1.0  T
   3    -31.6445351 -0.123851E-06  0.118E-02   10.95       1.7  T
   4    -31.6445358 -0.693660E-06  0.274E-03   10.95       7.3  T
   5    -31.6445358 -0.361041E-07  0.105E-03   10.95      19.1  T
   6    -31.6445358 -0.155360E-08  0.431E-04   10.95      46.4  T
   7    -31.6445358 -0.377806E-09  0.107E-04   10.95     187.2  T
     SCC iter.                  ...        0 min,  0.119 sec
     gradient                   ...        0 min,  0.042 sec
 * total energy  :   -31.2834350 Eh     change       -0.4852973E-03 Eh
   gradient norm :     0.0047668 Eh/α   predicted    -0.4114273E-03 ( -15.22%)
   displ. norm   :     0.1311642 α      lambda       -0.1947093E-03
   maximum displ.:     0.0699086 α      in ANC's #4, #6, #2, ...

........................................................................
.............................. CYCLE    4 ..............................
........................................................................

 iter      E             dE          RMSdq      gap      omega  full diag
   1    -31.6449588 -0.316450E+02  0.303E-02   11.02       0.0  T
   2    -31.6449601 -0.123380E-05  0.181E-02   11.02       1.1  T
   3    -31.6449601  0.136082E-07  0.524E-03   11.03       3.8  T
   4    -31.6449603 -0.200269E-06  0.123E-03   11.03      16.3  T
   5    -31.6449603 -0.711593E-08  0.413E-04   11.03      48.5  T
   6    -31.6449603 -0.184450E-09  0.168E-04   11.03     119.3  T
     SCC iter.                  ...        0 min,  0.094 sec
     gradient                   ...        0 min,  0.045 sec
 * total energy  :   -31.2835853 Eh     change       -0.1503166E-03 Eh
   gradient norm :     0.0037499 Eh/α   predicted    -0.9903133E-04 ( -34.12%)
   displ. norm   :     0.2218552 α      lambda       -0.2225831E-03
   maximum displ.:     0.1146833 α      in ANC's #4, #2, #6, ...

........................................................................
.............................. CYCLE    5 ..............................
........................................................................

 iter      E             dE          RMSdq      gap      omega  full diag
   1    -31.6438856 -0.316439E+02  0.459E-02   11.09       0.0  T
   2    -31.6438869 -0.123454E-05  0.276E-02   11.10       1.0  T
   3    -31.6438869  0.184219E-07  0.475E-03   11.10       4.2  T
   4    -31.6438871 -0.259614E-06  0.147E-03   11.10      13.6  T
   5    -31.6438871 -0.860028E-08  0.545E-04   11.10      36.7  T
   6    -31.6438871 -0.348990E-09  0.163E-04   11.10     122.5  T
     SCC iter.                  ...        0 min,  0.087 sec
     gradient                   ...        0 min,  0.041 sec
 * total energy  :   -31.2837316 Eh     change       -0.1462692E-03 Eh
   gradient norm :     0.0043049 Eh/α   predicted    -0.1168848E-03 ( -20.09%)
   displ. norm   :     0.1371734 α      lambda       -0.7775969E-04
   maximum displ.:     0.0668869 α      in ANC's #4, #2, #9, ...

........................................................................
.............................. CYCLE    6 ..............................
........................................................................

 iter      E             dE          RMSdq      gap      omega  full diag
   1    -31.6434721 -0.316435E+02  0.272E-02   11.11       0.0  T
   2    -31.6434722 -0.137234E-06  0.163E-02   11.12       1.2  T
   3    -31.6434723 -0.324331E-07  0.122E-03   11.12      16.3  T
   4    -31.6434723 -0.110444E-07  0.627E-04   11.12      31.9  T
   5    -31.6434723 -0.794124E-09  0.241E-04   11.12      82.9  T
     SCC iter.                  ...        0 min,  0.068 sec
     gradient                   ...        0 min,  0.039 sec
 * total energy  :   -31.2837870 Eh     change       -0.5541132E-04 Eh
   gradient norm :     0.0037481 Eh/α   predicted    -0.3961432E-04 ( -28.51%)
   displ. norm   :     0.1089919 α      lambda       -0.5183212E-04
   maximum displ.:     0.0560374 α      in ANC's #2, #4, #9, ...

........................................................................
.............................. CYCLE    7 ..............................
........................................................................

 iter      E             dE          RMSdq      gap      omega  full diag
   1    -31.6437326 -0.316437E+02  0.220E-02   11.12       0.0  T
   2    -31.6437329 -0.312353E-06  0.132E-02   11.12       1.5  T
   3    -31.6437329  0.315945E-07  0.271E-03   11.12       7.4  T
   4    -31.6437329 -0.861652E-07  0.572E-04   11.12      35.0  T
   5    -31.6437329 -0.907551E-09  0.211E-04   11.12      94.6  T
     SCC iter.                  ...        0 min,  0.064 sec
     gradient                   ...        0 min,  0.035 sec
 * total energy  :   -31.2838225 Eh     change       -0.3549661E-04 Eh
   gradient norm :     0.0020123 Eh/α   predicted    -0.2622797E-04 ( -26.11%)
   displ. norm   :     0.0657373 α      lambda       -0.2280311E-04
   maximum displ.:     0.0351692 α      in ANC's #2, #1, #9, ...

........................................................................
.............................. CYCLE    8 ..............................
........................................................................

 iter      E             dE          RMSdq      gap      omega  full diag
   1    -31.6442014 -0.316442E+02  0.153E-02   11.11       0.0  T
   2    -31.6442016 -0.239419E-06  0.923E-03   11.11       2.2  T
   3    -31.6442016  0.192254E-07  0.236E-03   11.11       8.5  T
   4    -31.6442017 -0.550076E-07  0.443E-04   11.11      45.2  T
   5    -31.6442017 -0.767038E-09  0.140E-04   11.11     142.8  T
     SCC iter.                  ...        0 min,  0.069 sec
     gradient                   ...        0 min,  0.041 sec
 * total energy  :   -31.2838381 Eh     change       -0.1558417E-04 Eh
   gradient norm :     0.0010050 Eh/α   predicted    -0.1147501E-04 ( -26.37%)
   displ. norm   :     0.0706435 α      lambda       -0.1074099E-04
   maximum displ.:     0.0416783 α      in ANC's #1, #2, #3, ...

........................................................................
.............................. CYCLE    9 ..............................
........................................................................

 iter      E             dE          RMSdq      gap      omega  full diag
   1    -31.6445886 -0.316446E+02  0.184E-02   11.10       0.0  T
   2    -31.6445888 -0.170116E-06  0.112E-02   11.10       1.8  T
   3    -31.6445888  0.171169E-07  0.188E-03   11.10      10.6  T
   4    -31.6445888 -0.481458E-07  0.476E-04   11.10      42.1  T
   5    -31.6445888 -0.628958E-09  0.147E-04   11.10     135.8  T
     SCC iter.                  ...        0 min,  0.071 sec
     gradient                   ...        0 min,  0.047 sec
 * total energy  :   -31.2838479 Eh     change       -0.9868792E-05 Eh
   gradient norm :     0.0015410 Eh/α   predicted    -0.5382590E-05 ( -45.46%)
   displ. norm   :     0.0432694 α      lambda       -0.6103121E-05
   maximum displ.:     0.0304406 α      in ANC's #1, #3, #2, ...

........................................................................
.............................. CYCLE   10 ..............................
........................................................................

 iter      E             dE          RMSdq      gap      omega  full diag
   1    -31.6445500 -0.316446E+02  0.121E-02   11.10       0.0  T
   2    -31.6445501 -0.227338E-07  0.732E-03   11.10       2.7  T
   3    -31.6445501 -0.565591E-08  0.531E-04   11.10      37.7  T
   4    -31.6445501 -0.214326E-08  0.260E-04   11.10      77.0  T
     SCC iter.                  ...        0 min,  0.058 sec
     gradient                   ...        0 min,  0.041 sec
 * total energy  :   -31.2838555 Eh     change       -0.7601161E-05 Eh
   gradient norm :     0.0011350 Eh/α   predicted    -0.3054593E-05 ( -59.81%)
   displ. norm   :     0.0655094 α      lambda       -0.8164034E-05
   maximum displ.:     0.0498524 α      in ANC's #1, #6, #2, ...

........................................................................
.............................. CYCLE   11 ..............................
........................................................................

 iter      E             dE          RMSdq      gap      omega  full diag
   1    -31.6443381 -0.316443E+02  0.190E-02   11.10       0.0  T
   2    -31.6443382 -0.756106E-07  0.114E-02   11.10       1.7  T
   3    -31.6443382 -0.338343E-08  0.111E-03   11.10      18.0  T
   4    -31.6443382 -0.163401E-07  0.396E-04   11.10      50.5  T
   5    -31.6443382 -0.367482E-09  0.133E-04   11.10     150.9  T
     SCC iter.                  ...        0 min,  0.061 sec
     gradient                   ...        0 min,  0.035 sec
 * total energy  :   -31.2838649 Eh     change       -0.9404661E-05 Eh
   gradient norm :     0.0005148 Eh/α   predicted    -0.4094457E-05 ( -56.46%)
   displ. norm   :     0.0601116 α      lambda       -0.5498232E-05
   maximum displ.:     0.0499016 α      in ANC's #1, #2, #6, ...

........................................................................
.............................. CYCLE   12 ..............................
........................................................................

 iter      E             dE          RMSdq      gap      omega  full diag
   1    -31.6441926 -0.316442E+02  0.176E-02   11.10       0.0  T
   2    -31.6441926 -0.392614E-07  0.106E-02   11.10       1.9  T
   3    -31.6441926 -0.753517E-08  0.723E-04   11.10      27.7  T
   4    -31.6441926 -0.543105E-08  0.333E-04   11.10      60.1  T
     SCC iter.                  ...        0 min,  0.060 sec
     gradient                   ...        0 min,  0.037 sec
 * total energy  :   -31.2838720 Eh     change       -0.7050668E-05 Eh
   gradient norm :     0.0006759 Eh/α   predicted    -0.2755268E-05 ( -60.92%)
   displ. norm   :     0.0519726 α      lambda       -0.4914444E-05
   maximum displ.:     0.0434195 α      in ANC's #1, #2, #6, ...

........................................................................
.............................. CYCLE   13 ..............................
........................................................................

 iter      E             dE          RMSdq      gap      omega  full diag
   1    -31.6441977 -0.316442E+02  0.146E-02   11.11       0.0  T
   2    -31.6441978 -0.192741E-07  0.882E-03   11.11       2.3  T
   3    -31.6441978 -0.690126E-08  0.471E-04   11.11      42.5  T
   4    -31.6441978 -0.118048E-08  0.248E-04   11.11      80.7  T
     SCC iter.                  ...        0 min,  0.111 sec
     gradient                   ...        0 min,  0.047 sec
 * total energy  :   -31.2838787 Eh     change       -0.6706219E-05 Eh
   gradient norm :     0.0007045 Eh/α   predicted    -0.2463149E-05 ( -63.27%)
   displ. norm   :     0.0591687 α      lambda       -0.5574140E-05
   maximum displ.:     0.0479596 α      in ANC's #1, #2, #3, ...

........................................................................
.............................. CYCLE   14 ..............................
........................................................................

 iter      E             dE          RMSdq      gap      omega  full diag
   1    -31.6442434 -0.316442E+02  0.159E-02   11.11       0.0  T
   2    -31.6442434 -0.262614E-07  0.958E-03   11.11       2.1  T
   3    -31.6442434 -0.714436E-08  0.602E-04   11.11      33.2  T
   4    -31.6442434 -0.288475E-08  0.292E-04   11.11      68.5  T
     SCC iter.                  ...        0 min,  0.056 sec
     gradient                   ...        0 min,  0.042 sec
 * total energy  :   -31.2838861 Eh     change       -0.7370597E-05 Eh
   gradient norm :     0.0004766 Eh/α   predicted    -0.2796081E-05 ( -62.06%)
   displ. norm   :     0.0639402 α      lambda       -0.4939441E-05
   maximum displ.:     0.0513842 α      in ANC's #1, #2, #3, ...

........................................................................
.............................. CYCLE   15 ..............................
........................................................................

 iter      E             dE          RMSdq      gap      omega  full diag
   1    -31.6442773 -0.316443E+02  0.168E-02   11.11       0.0  T
   2    -31.6442773 -0.328714E-07  0.101E-02   11.11       2.0  T
   3    -31.6442773 -0.798792E-08  0.671E-04   11.11      29.8  T
   4    -31.6442773 -0.356370E-08  0.311E-04   11.11      64.3  T
     SCC iter.                  ...        0 min,  0.078 sec
     gradient                   ...        0 min,  0.039 sec
 * total energy  :   -31.2838925 Eh     change       -0.6396649E-05 Eh
   gradient norm :     0.0002668 Eh/α   predicted    -0.2478755E-05 ( -61.25%)
   displ. norm   :     0.0575262 α      lambda       -0.3531187E-05
   maximum displ.:     0.0468382 α      in ANC's #1, #2, #3, ...

........................................................................
.............................. CYCLE   16 ..............................
........................................................................

 iter      E             dE          RMSdq      gap      omega  full diag
   1    -31.6443678 -0.316444E+02  0.150E-02   11.11       0.0  T
   2    -31.6443678 -0.247928E-07  0.907E-03   11.11       2.2  T
   3    -31.6443678 -0.701227E-08  0.570E-04   11.11      35.1  T
   4    -31.6443678 -0.202140E-08  0.270E-04   11.11      74.1  T
     SCC iter.                  ...        0 min,  0.055 sec
     gradient                   ...        0 min,  0.042 sec
 * total energy  :   -31.2838971 Eh     change       -0.4694880E-05 Eh
   gradient norm :     0.0002996 Eh/α   predicted    -0.1770632E-05 ( -62.29%)
   displ. norm   :     0.0487923 α      lambda       -0.2668252E-05
   maximum displ.:     0.0401809 α      in ANC's #1, #2, #5, ...

........................................................................
.............................. CYCLE   17 ..............................
........................................................................

 iter      E             dE          RMSdq      gap      omega  full diag
   1    -31.6443857 -0.316444E+02  0.130E-02   11.11       0.0  T
   2    -31.6443857 -0.160509E-07  0.782E-03   11.11       2.6  T
   3    -31.6443857 -0.560269E-08  0.435E-04   11.11      46.0  T
   4    -31.6443857 -0.564263E-09  0.192E-04   11.11     104.1  T
     SCC iter.                  ...        0 min,  0.052 sec
     gradient                   ...        0 min,  0.035 sec
 * total energy  :   -31.2839008 Eh     change       -0.3673570E-05 Eh
   gradient norm :     0.0003457 Eh/α   predicted    -0.1337799E-05 ( -63.58%)
   displ. norm   :     0.0463822 α      lambda       -0.2451782E-05
   maximum displ.:     0.0381345 α      in ANC's #1, #2, #5, ...

........................................................................
.............................. CYCLE   18 ..............................
........................................................................

 iter      E             dE          RMSdq      gap      omega  full diag
   1    -31.6444004 -0.316444E+02  0.124E-02   11.11       0.0  T
   2    -31.6444004 -0.137550E-07  0.749E-03   11.11       2.7  T
   3    -31.6444004 -0.530030E-08  0.387E-04   11.11      51.6  T
   4    -31.6444004 -0.295042E-09  0.147E-04   11.11     135.8  T
     SCC iter.                  ...        0 min,  0.059 sec
     gradient                   ...        0 min,  0.043 sec
 * total energy  :   -31.2839042 Eh     change       -0.3348695E-05 Eh
   gradient norm :     0.0003028 Eh/α   predicted    -0.1228182E-05 ( -63.32%)
   displ. norm   :     0.0476715 α      lambda       -0.2343306E-05
   maximum displ.:     0.0394640 α      in ANC's #1, #2, #5, ...

........................................................................
.............................. CYCLE   19 ..............................
........................................................................

 iter      E             dE          RMSdq      gap      omega  full diag
   1    -31.6444161 -0.316444E+02  0.128E-02   11.11       0.0  T
   2    -31.6444161 -0.138399E-07  0.769E-03   11.11       2.6  T
   3    -31.6444161 -0.523993E-08  0.396E-04   11.11      50.5  T
   4    -31.6444161 -0.379892E-09  0.175E-04   11.11     114.5  T
     SCC iter.                  ...        0 min,  0.057 sec
     gradient                   ...        0 min,  0.042 sec
 * total energy  :   -31.2839073 Eh     change       -0.3094116E-05 Eh
   gradient norm :     0.0001952 Eh/α   predicted    -0.1173852E-05 ( -62.06%)
   displ. norm   :     0.0442458 α      lambda       -0.1800000E-05
   maximum displ.:     0.0370755 α      in ANC's #1, #2, #3, ...

........................................................................
.............................. CYCLE   20 ..............................
........................................................................

 iter      E             dE          RMSdq      gap      omega  full diag
   1    -31.6443412 -0.316443E+02  0.121E-02   11.11       0.0  T
   2    -31.6443412 -0.115905E-07  0.728E-03   11.11       2.7  T
   3    -31.6443412 -0.458482E-08  0.352E-04   11.11      56.9  T
   4    -31.6443412 -0.246690E-09  0.150E-04   11.11     133.1  T
     SCC iter.                  ...        0 min,  0.046 sec
     gradient                   ...        0 min,  0.036 sec
 * total energy  :   -31.2839096 Eh     change       -0.2330157E-05 Eh
   gradient norm :     0.0001460 Eh/α   predicted    -0.9012746E-06 ( -61.32%)
   displ. norm   :     0.0314815 α      lambda       -0.1068819E-05
   maximum displ.:     0.0275213 α      in ANC's #1, #2, #3, ...
 * RMSD in coord.:     0.2493075 α      energy gain  -0.2740471E-02 Eh

generating ANC from exact Hessian ...
Using Lindh-Hessian (1995)
 Shifting diagonal of input Hessian by    8.5594657466868170E-003
 Lowest  eigenvalues of input Hessian
    0.000000    0.000000    0.000000    0.000000    0.000000    0.000000
    0.010000    0.010555    0.011421    0.013118    0.016827    0.017459
    0.017907    0.018217    0.019810    0.021869    0.023930    0.031017
 Highest eigenvalues
    1.224344    1.257844    1.275030    1.331269    1.473339    1.490921


........................................................................
.............................. CYCLE   21 ..............................
........................................................................

 iter      E             dE          RMSdq      gap      omega  full diag
   1    -31.6444028 -0.316444E+02  0.827E-03   11.11       0.0  T
   2    -31.6444028 -0.656016E-08  0.499E-03   11.11       4.0  T
   3    -31.6444028 -0.189533E-08  0.290E-04   11.11      69.0  T
   4    -31.6444028 -0.578726E-09  0.147E-04   11.11     136.3  T
     SCC iter.                  ...        0 min,  0.051 sec
     gradient                   ...        0 min,  0.040 sec
 * total energy  :   -31.2839110 Eh     change       -0.1412120E-05 Eh
   gradient norm :     0.0001337 Eh/α   predicted     0.0000000E+00 (-100.00%)
   displ. norm   :     0.0087008 α      lambda       -0.2414018E-07
   maximum displ.:     0.0082567 α      in ANC's #1, #2, #7, ...

........................................................................
.............................. CYCLE   22 ..............................
........................................................................

 iter      E             dE          RMSdq      gap      omega  full diag
   1    -31.6443736 -0.316444E+02  0.204E-03   11.11       0.0  T
   2    -31.6443736 -0.394117E-09  0.121E-03   11.11      16.5  T
   3    -31.6443736 -0.147651E-10  0.814E-05   11.11     245.6  T
   4    -31.6443736 -0.889848E-10  0.287E-05   11.11     696.3  T
     SCC iter.                  ...        0 min,  0.068 sec
     gradient                   ...        0 min,  0.049 sec
 * total energy  :   -31.2839115 Eh     change       -0.5129828E-06 Eh
   gradient norm :     0.0000846 Eh/α   predicted    -0.1939156E-06 ( -62.20%)
   displ. norm   :     0.0105103 α      lambda       -0.3925437E-06
   maximum displ.:     0.0093519 α      in ANC's #1, #2, #7, ...

   *** GEOMETRY OPTIMIZATION CONVERGED AFTER 22 ITERATIONS ***

------------------------------------------------------------------------
 total energy gain   :        -0.0027424 Eh       -1.7209 kcal/mol
 total RMSD          :         0.2501134 a0        0.1324 Å
 total power (kW/mol):        -0.3272799 (step)   -2.2255 (real)
------------------------------------------------------------------------

 ANCopt (total)                0 d,  0 h,  0 min,  3.235 sec
 optimizer setup                ...        0 min,  0.001 sec (  0.020%)
 model hessian                  ...        0 min,  0.040 sec (  1.246%)
 ANC generation                 ...        0 min,  0.002 sec (  0.066%)
 coordinate transformation      ...        0 min,  0.000 sec (  0.007%)
 single point calculation       ...        0 min,  3.101 sec ( 95.853%)
 optimization log               ...        0 min,  0.002 sec (  0.073%)
 hessian update                 ...        0 min,  0.083 sec (  2.575%)
 rational function              ...        0 min,  0.002 sec (  0.053%)

================
 final structure:
================
25
 xtb: 6.7.1 (edcfbbe)
C            2.98434647966682       -0.97839209828223       -0.89746877565775
C            1.96840222048833       -0.75977143893542        0.22084034902497
O            2.58792577163067        0.01520826147429        1.22066555204909
C            0.69895500632520       -0.08146609341285       -0.31452212250649
C           -0.44246173658696       -0.10056687283301        0.70457504530812
O           -0.05112563190922        0.72252033965992        1.79504678870487
C           -1.80000725681345        0.36539670462163        0.13810763815663
C           -1.71066231104559        1.76374386998963       -0.46875648953448
C           -2.37360760550544       -0.63238781196995       -0.86379725275750
H            3.22402099500024       -0.02871873684978       -1.36828167751380
H            2.59122739941451       -1.66345678691383       -1.64364782893112
H            3.89599647193391       -1.39216856911105       -0.47631110240820
H            1.68946600916010       -1.74366630965972        0.64335202489080
H            1.88474377697362        0.42350627240281        1.74521681171978
H            0.37719115867545       -0.59635969573466       -1.21838237265929
H            0.94264433617630        0.95319534545034       -0.55696611984424
H           -0.56702723357184       -1.13636275496782        1.06823758672051
H           -0.77174354554605        0.76337218083002        2.43265642231122
H           -2.48786557222260        0.41028952276044        0.99504263057237
H           -1.17165074661367        1.73937964507427       -1.41203197436127
H           -1.19403918410174        2.43743877388723        0.21111265465704
H           -2.70764490693550        2.15625380045126       -0.65535552780269
H           -1.77521303020686       -0.66229439007580       -1.77056846142385
H           -2.40671016553162       -1.63302949790053       -0.43813964783685
H           -3.38516069885367       -0.34166365995425       -1.13719652603195

 Bond Distances (Angstroems)
 ---------------------------
C1-C2=1.5266         C1-H10=1.0867        C1-H11=1.0866        C1-H12=1.0861        C2-C1=1.5266         C2-O3=1.4086         
C2-C4=1.5356         C2-H13=1.1065        O3-C2=1.4086         O3-H14=0.9676        C4-C2=1.5356         C4-C5=1.5303         
C4-H15=1.0889        C4-H16=1.0903        C5-C4=1.5303         C5-O6=1.4212         C5-C7=1.5430         C5-H17=1.1048        
O6-C5=1.4212         O6-H18=0.9631        C7-C5=1.5430         C7-C8=1.5270         C7-C9=1.5259         C7-H19=1.0998        
C8-C7=1.5270         C8-H20=1.0867        C8-H21=1.0877        C8-H22=1.0876        C9-C7=1.5259         C9-H23=1.0868        
C9-H24=1.0879        C9-H25=1.0874        H10-C1=1.0867        H11-C1=1.0866        H12-C1=1.0861        H13-C2=1.1065        
H14-O3=0.9676        H15-C4=1.0889        H16-C4=1.0903        H17-C5=1.1048        H18-O6=0.9631        H19-C7=1.0998        
H20-C8=1.0867        H21-C8=1.0877        H22-C8=1.0876        H23-C9=1.0868        H24-C9=1.0879        H25-C9=1.0874        
 C  H  Rav=1.0910 sigma=0.0068  Rmin=1.0861  Rmax=1.1065    14
 C  C  Rav=1.5314 sigma=0.0062  Rmin=1.5259  Rmax=1.5430     6
 O  H  Rav=0.9654 sigma=0.0023  Rmin=0.9631  Rmax=0.9676     2
 O  C  Rav=1.4149 sigma=0.0063  Rmin=1.4086  Rmax=1.4212     2

 selected bond angles (degree)
 --------------------
H10-C1-C2=109.82               H11-C1-C2=110.64               H11-C1-H10=109.47              H12-C1-C2=109.21               
H12-C1-H10=108.41              H12-C1-H11=109.25              O3-C2-C1=107.82                C4-C2-C1=110.98                
C4-C2-O3=111.59                H13-C2-C1=108.67               H13-C2-O3=109.21               H13-C2-C4=108.51               
H14-O3-C2=107.30               C5-C4-C2=112.27                H15-C4-C2=108.95               H15-C4-C5=109.06               
H16-C4-C2=108.18               H16-C4-C5=109.07               H16-C4-H15=109.28              O6-C5-C4=107.36                
C7-C5-C4=114.08                C7-C5-O6=110.43                H17-C5-C4=108.36               H17-C5-O6=108.75               
H17-C5-C7=107.74               H18-O6-C5=109.06               C8-C7-C5=111.78                C9-C7-C5=111.98                
C9-C7-C8=111.09                H19-C7-C5=106.05               H19-C7-C8=107.99               H19-C7-C9=107.65               
H20-C8-C7=110.70               H21-C8-C7=110.28               H21-C8-H20=108.72              H22-C8-C7=110.18               
H22-C8-H20=108.29              H22-C8-H21=108.61              H23-C9-C7=111.03               H24-C9-C7=110.85               
H24-C9-H23=108.53              H25-C9-C7=109.87               H25-C9-H23=108.04              H25-C9-H24=108.42              

 selected dihedral angles (degree)
 ---------------------------------
O3-C2-C1-H10=294.68           O3-C2-C1-H11=173.73           O3-C2-C1-H12= 53.44           C4-C2-C1-H10= 57.18           
C4-C2-C1-H11=296.23           C4-C2-C1-H12=175.94           H13-C2-C1-H10=176.42          H13-C2-C1-H11= 55.47          
H13-C2-C1-H12=295.18          H14-O3-C2-C1=159.28           H14-O3-C2-C4= 37.16           H14-O3-C2-H13=277.19          
C5-C4-C2-C1=168.51            C5-C4-C2-O3=288.79            C5-C4-C2-H13= 49.17           H15-C4-C2-C1= 47.60           
H15-C4-C2-O3=167.89           H15-C4-C2-H13=288.27          H16-C4-C2-C1=288.90           H16-C4-C2-O3= 49.19           
H16-C4-C2-H13=169.57          O6-C5-C4-C2= 66.49            O6-C5-C4-H15=187.34           O6-C5-C4-H16=306.61           
C7-C5-C4-C2=189.19            C7-C5-C4-H15=310.04           C7-C5-C4-H16= 69.31           H17-C5-C4-C2=309.19           
H17-C5-C4-H15= 70.04          H17-C5-C4-H16=189.31          H18-O6-C5-C4=177.20           H18-O6-C5-C7= 52.27           
H18-O6-C5-H17=294.24          C8-C7-C5-C4=303.75            C8-C7-C5-O6= 64.76            C8-C7-C5-H17=183.41           
C9-C7-C5-C4= 69.14            C9-C7-C5-O6=190.15            C9-C7-C5-H17=308.80           H19-C7-C5-C4=186.30           
H19-C7-C5-O6=307.31           H19-C7-C5-H17= 65.95          H20-C8-C7-C5= 72.89           H20-C8-C7-C9=307.01           
H20-C8-C7-H19=189.17          H21-C8-C7-C5=312.54           H21-C8-C7-C9=186.66           H21-C8-C7-H19= 68.82          
H22-C8-C7-C5=192.65           H22-C8-C7-C9= 66.77           H22-C8-C7-H19=308.93          H23-C9-C7-C5=291.75           
H23-C9-C7-C8= 57.51           H23-C9-C7-H19=175.56          H24-C9-C7-C5= 52.47           H24-C9-C7-C8=178.24           
H24-C9-C7-H19=296.28          H25-C9-C7-C5=172.29           H25-C9-C7-C8=298.05           H25-C9-C7-H19= 56.10          
           -------------------------------------------------
          |                Final Singlepoint                |
           -------------------------------------------------

          ...................................................
          :                      SETUP                      :
          :.................................................:
          :  # basis functions                  52          :
          :  # atomic orbitals                  52          :
          :  # shells                           34          :
          :  # electrons                        56          :
          :  max. iterations                   250          :
          :  Hamiltonian                  GFN2-xTB          :
          :  restarted?                      false          :
          :  GBSA solvation                  false          :
          :  PC potential                    false          :
          :  electronic temp.          300.0000000     K    :
          :  accuracy                    1.0000000          :
          :  -> integral cutoff          0.2500000E+02      :
          :  -> integral neglect         0.1000000E-07      :
          :  -> SCF convergence          0.1000000E-05 Eh   :
          :  -> wf. convergence          0.1000000E-03 e    :
          :  Broyden damping             0.4000000          :
          :  net charge                          0          :
          :  unpaired electrons                  0          :
          ...................................................

 iter      E             dE          RMSdq      gap      omega  full diag
   1    -31.6443736 -0.316444E+02  0.897E-06   11.11       0.0  T
   2    -31.6443736 -0.994760E-13  0.539E-06   11.11    3709.4  T
   3    -31.6443736 -0.284217E-13  0.210E-06   11.11    9521.8  T

   *** convergence criteria satisfied after 3 iterations ***

         #    Occupation            Energy/Eh            Energy/eV
      -------------------------------------------------------------
         1        2.0000           -0.6973334             -18.9754
       ...           ...                  ...                  ...
        22        2.0000           -0.4549163             -12.3789
        23        2.0000           -0.4469735             -12.1628
        24        2.0000           -0.4451050             -12.1119
        25        2.0000           -0.4408022             -11.9948
        26        2.0000           -0.4248012             -11.5594
        27        2.0000           -0.4090253             -11.1301
        28        2.0000           -0.3887773             -10.5792 (HOMO)
        29                          0.0193901               0.5276 (LUMO)
        30                          0.0455538               1.2396
        31                          0.0600311               1.6335
        32                          0.0812612               2.2112
        33                          0.0962409               2.6188
       ...                                ...                  ...
        52                          0.3087707               8.4021
      -------------------------------------------------------------
                  HL-Gap            0.4081674 Eh           11.1068 eV
             Fermi-level           -0.1846936 Eh           -5.0258 eV

 SCC (total)                   0 d,  0 h,  0 min,  0.109 sec
 SCC setup                      ...        0 min,  0.002 sec (  2.110%)
 Dispersion                     ...        0 min,  0.009 sec (  7.900%)
 classical contributions        ...        0 min,  0.004 sec (  3.960%)
 integral evaluation            ...        0 min,  0.014 sec ( 12.460%)
 iterations                     ...        0 min,  0.038 sec ( 34.446%)
 molecular gradient             ...        0 min,  0.043 sec ( 38.994%)
 printout                       ...        0 min,  0.000 sec (  0.105%)

         :::::::::::::::::::::::::::::::::::::::::::::::::::::
         ::                     SUMMARY                     ::
         :::::::::::::::::::::::::::::::::::::::::::::::::::::
         :: total energy             -31.283911520978 Eh    ::
         :: gradient norm              0.000084588852 Eh/a0 ::
         :: HOMO-LUMO gap             11.106799521992 eV    ::
         ::.................................................::
         :: SCC energy               -31.644251636259 Eh    ::
         :: -> isotropic ES            0.053358491537 Eh    ::
         :: -> anisotropic ES          0.004383878911 Eh    ::
         :: -> anisotropic XC          0.007964861965 Eh    ::
         :: -> dispersion             -0.016831769165 Eh    ::
         :: repulsion energy           0.360340115281 Eh    ::
         :: add. restraining           0.000000000000 Eh    ::
         :: total charge              -0.000000000000 e     ::
         :::::::::::::::::::::::::::::::::::::::::::::::::::::

           -------------------------------------------------
          |                Property Printout                |
           -------------------------------------------------

    * Orbital Energies and Occupations

         #    Occupation            Energy/Eh            Energy/eV
      -------------------------------------------------------------
         1        2.0000           -0.6973334             -18.9754
       ...           ...                  ...                  ...
        16        2.0000           -0.4968016             -13.5187
        17        2.0000           -0.4818494             -13.1118
        18        2.0000           -0.4730076             -12.8712
        19        2.0000           -0.4696042             -12.7786
        20        2.0000           -0.4591408             -12.4939
        21        2.0000           -0.4586299             -12.4800
        22        2.0000           -0.4549163             -12.3789
        23        2.0000           -0.4469735             -12.1628
        24        2.0000           -0.4451050             -12.1119
        25        2.0000           -0.4408022             -11.9948
        26        2.0000           -0.4248012             -11.5594
        27        2.0000           -0.4090253             -11.1301
        28        2.0000           -0.3887773             -10.5792 (HOMO)
        29                          0.0193901               0.5276 (LUMO)
        30                          0.0455538               1.2396
        31                          0.0600311               1.6335
        32                          0.0812612               2.2112
        33                          0.0962409               2.6188
        34                          0.1110188               3.0210
        35                          0.1251689               3.4060
        36                          0.1355338               3.6881
        37                          0.1413924               3.8475
        38                          0.1585802               4.3152
        39                          0.1648501               4.4858
       ...                                ...                  ...
        52                          0.3087707               8.4021
      -------------------------------------------------------------
                  HL-Gap            0.4081674 Eh           11.1068 eV
             Fermi-level           -0.1846936 Eh           -5.0258 eV

     #   Z          covCN         q      C6AA      α(0)
     1   6 C        3.753    -0.115    22.750     6.801
     2   6 C        3.723     0.124    18.656     6.168
     3   8 O        1.656    -0.459    22.031     6.336
     4   6 C        3.803    -0.083    22.086     6.691
     5   6 C        3.725     0.114    18.818     6.194
     6   8 O        1.655    -0.452    21.894     6.317
     7   6 C        3.848    -0.023    20.956     6.511
     8   6 C        3.754    -0.108    22.628     6.783
     9   6 C        3.754    -0.110    22.662     6.788
    10   1 H        0.925     0.049     2.336     2.390
    11   1 H        0.925     0.033     2.547     2.496
    12   1 H        0.925     0.055     2.255     2.348
    13   1 H        0.922     0.006     2.964     2.692
    14   1 H        0.805     0.312     0.687     1.302
    15   1 H        0.925     0.040     2.446     2.446
    16   1 H        0.924     0.062     2.171     2.304
    17   1 H        0.922     0.009     2.910     2.668
    18   1 H        0.805     0.286     0.766     1.375
    19   1 H        0.923     0.023     2.688     2.564
    20   1 H        0.925     0.041     2.438     2.442
    21   1 H        0.925     0.047     2.356     2.400
    22   1 H        0.925     0.035     2.511     2.478
    23   1 H        0.925     0.039     2.461     2.453
    24   1 H        0.925     0.034     2.533     2.489
    25   1 H        0.925     0.043     2.415     2.430

 Mol. C6AA /au·bohr⁶  :       4260.567242
 Mol. C8AA /au·bohr⁸  :      88593.198767
 Mol. α(0) /au        :         95.865376


Wiberg/Mayer (AO) data.
largest (>0.10) Wiberg bond orders for each atom

 ---------------------------------------------------------------------------
     #   Z sym  total        # sym  WBO       # sym  WBO       # sym  WBO
 ---------------------------------------------------------------------------
     1   6 C    3.994 --     2 C    1.003    11 H    0.987    10 H    0.986
                            12 H    0.984
     2   6 C    3.964 --     1 C    1.003     3 O    0.999     4 C    0.987
                            13 H    0.958
     3   8 O    1.948 --     2 C    0.999    14 H    0.868
     4   6 C    3.994 --     5 C    0.995     2 C    0.987    16 H    0.971
                            15 H    0.970
     5   6 C    3.949 --     4 C    0.995     6 O    0.976     7 C    0.974
                            17 H    0.959
     6   8 O    1.970 --     5 C    0.976    18 H    0.897
     7   6 C    3.995 --     8 C    1.010     9 C    1.009     5 C    0.974
                            19 H    0.965
     8   6 C    3.996 --     7 C    1.010    22 H    0.987    20 H    0.986
                            21 H    0.984
     9   6 C    3.996 --     7 C    1.009    24 H    0.986    25 H    0.986
                            23 H    0.983
    10   1 H    0.998 --     1 C    0.986
    11   1 H    0.999 --     1 C    0.987
    12   1 H    0.997 --     1 C    0.984
    13   1 H    1.000 --     2 C    0.958
    14   1 H    0.903 --     3 O    0.868
    15   1 H    0.998 --     4 C    0.970
    16   1 H    0.996 --     4 C    0.971
    17   1 H    1.000 --     5 C    0.959
    18   1 H    0.918 --     6 O    0.897
    19   1 H    0.999 --     7 C    0.965
    20   1 H    0.998 --     8 C    0.986
    21   1 H    0.998 --     8 C    0.984
    22   1 H    0.999 --     8 C    0.987
    23   1 H    0.998 --     9 C    0.983
    24   1 H    0.999 --     9 C    0.986
    25   1 H    0.998 --     9 C    0.986
 ---------------------------------------------------------------------------

Topologies differ in total number of bonds
Writing topology from bond orders to xtbtopo.mol

molecular dipole:
                 x           y           z       tot (Debye)
 q only:       -1.003      -0.079      -0.289
   full:       -1.482      -0.180      -0.189       3.825
molecular quadrupole (traceless):
                xx          xy          yy          xz          yz          zz
 q only:       -4.049      -1.166       0.962      -5.392       0.747       3.087
  q+dip:       -6.269      -1.672       2.072      -8.043      -0.611       4.197
   full:       -6.215      -1.599       1.666      -7.878       0.236       4.549

           -------------------------------------------------
          |                Geometry Summary                 |
           -------------------------------------------------

      molecular mass/u    :      132.2010131
   center of mass at/Å    :        0.2314890       0.0484154       0.2031130
  moments of inertia/u·Å² :        0.1971068E+03   0.5628833E+03   0.6497326E+03
rotational constants/cm⁻¹ :        0.8552536E-01   0.2994872E-01   0.2594549E-01

 * 23 selected distances

     #   Z          #   Z                                           value/Å
     1   6 C        2   6 C                                       1.5266150
     2   6 C        3   8 O                                       1.4085644
     2   6 C        4   6 C                                       1.5356457 (max)
     4   6 C        5   6 C                                       1.5302799
     5   6 C        6   8 O                                       1.4211775
     7   6 C        8   6 C                                       1.5269715
     7   6 C        9   6 C                                       1.5259113
     1   6 C       10   1 H                                       1.0867329
     1   6 C       11   1 H                                       1.0865724
     1   6 C       12   1 H                                       1.0861357
     2   6 C       13   1 H                                       1.1065129
     3   8 O       14   1 H                                       0.9676396
     4   6 C       15   1 H                                       1.0888576
     4   6 C       16   1 H                                       1.0902697
     5   6 C       17   1 H                                       1.1048259
     6   8 O       18   1 H                                       0.9630707 (min)
     7   6 C       19   1 H                                       1.0997737
     8   6 C       20   1 H                                       1.0866904
     8   6 C       21   1 H                                       1.0876519
     8   6 C       22   1 H                                       1.0875926
     9   6 C       23   1 H                                       1.0868324
     9   6 C       24   1 H                                       1.0879174
     9   6 C       25   1 H                                       1.0874316

 * 4 distinct bonds (by element types)

   Z      Z             #   av. dist./Å        max./Å        min./Å
   1 H    6 C          14     1.0909855     1.1065129     1.0861357
   6 C    6 C           5     1.5290847     1.5356457     1.5259113
   1 H    8 O           2     0.9653552     0.9676396     0.9630707
   6 C    8 O           2     1.4148710     1.4211775     1.4085644


optimized geometry written to: xtbopt.xyz


           -------------------------------------------------
          | TOTAL ENERGY              -31.283911520978 Eh   |
          | GRADIENT NORM               0.000084588852 Eh/α |
          | HOMO-LUMO GAP              11.106799521992 eV   |
           -------------------------------------------------

------------------------------------------------------------------------
 * finished run on 2026/07/07 at 19:09:34.629     
------------------------------------------------------------------------
 total:
 * wall-time:     0 d,  0 h,  0 min,  3.605 sec
 *  cpu-time:     0 d,  0 h,  0 min, 57.486 sec
 * ratio c/w:    15.945 speedup
 SCF:
 * wall-time:     0 d,  0 h,  0 min,  0.200 sec
 *  cpu-time:     0 d,  0 h,  0 min,  3.194 sec
 * ratio c/w:    15.982 speedup
 ANC optimizer:
 * wall-time:     0 d,  0 h,  0 min,  3.350 sec
 *  cpu-time:     0 d,  0 h,  0 min, 53.464 sec
 * ratio c/w:    15.960 speedup

