21
REP_00376 MMFF geometry for GFN2-xTB preoptimization
C   3.649804480196  0.519148970445  0.850340135179
C   2.806342529680 -0.436399994629  0.063499501598
O   3.237426240267 -1.421128519327 -0.519300909771
O   1.506086769394 -0.045532677273  0.096782804752
C   0.628964034398 -0.906615220391 -0.632798105752
C  -0.768449528522 -0.356895877078 -0.510345047972
C  -1.247390720825  0.581978181539 -1.434949358219
C  -2.536142133390  1.103761140142 -1.310750490847
C  -3.354640729072  0.699172334543 -0.257843346102
C  -2.884361091042 -0.223674870721  0.674591909418
C  -1.595933839647 -0.746693574894  0.552241344334
H   3.582015792302  1.519019453059  0.414405183093
H   4.693605178519  0.194106891291  0.816085407236
H   3.322671556240  0.530365525836  1.893045043042
H   0.925094883351 -0.944087300451 -1.688556312705
H   0.668106028758 -1.923745268608 -0.223362633686
H  -0.616599701051  0.914023824186 -2.256590166055
H  -2.900185141624  1.828982495863 -2.033822737843
H  -4.357293017506  1.107086704092 -0.160964463659
H  -3.519984089456 -0.533736327307  1.499911325078
H  -1.239137500972 -1.459135890316  1.292759759435
