42
REP_00057 MMFF geometry for GFN2-xTB preoptimization
C   5.421176495481  1.005331987490  1.154030545452
C   5.517043632169 -0.475027488238  0.812766884102
C   4.147410541654 -1.142052096938  0.737007966342
O   3.400439654103 -0.556661901427 -0.336202893390
C   2.129698656077 -1.031189380701 -0.457163940925
O   1.644162731440 -1.928793940312  0.218589682383
C   1.427987759213 -0.333481117971 -1.597096905091
C  -0.087463658891 -0.411466009911 -1.436367521421
C  -0.578429352423  0.456185665564 -0.285903053366
O   0.186571052666  1.240828122325  0.277577156010
N  -1.923849329321  0.352943152043  0.060348204116
C  -2.862149354480 -0.599285290277 -0.541602940724
C  -2.895702626148 -1.926242964022  0.218711327007
C  -3.832009973959 -2.922488941916 -0.445390888366
C  -2.424905581910  1.176948912278  1.164203801143
C  -3.204904041244  2.406486818780  0.690243473259
C  -2.344019462845  3.414510687064 -0.056278185088
H   4.917051512701  1.153588711956  2.114330639323
H   4.868427186960  1.556415034681  0.386739220968
H   6.422610070302  1.441398422037  1.225637947759
H   6.028805699787 -0.576495409296 -0.151328432524
H   6.126185604876 -0.981253240933  1.569634654874
H   4.277143267275 -2.212752698685  0.541425044578
H   3.609876583317 -1.008847007366  1.683419419278
H   1.729466904672 -0.831705270879 -2.524793421450
H   1.756154204671  0.711025472427 -1.643603615425
H  -0.392438248746 -1.450184504126 -1.281082236158
H  -0.555703694565 -0.040561728056 -2.355149543007
H  -3.859007690284 -0.144630446989 -0.555970370807
H  -2.587742531875 -0.774772884980 -1.586029703358
H  -1.890421628251 -2.358355949809  0.277092108622
H  -3.222907393414 -1.759743651007  1.251421101599
H  -3.846744318454 -3.861626726000  0.116474323555
H  -3.508318480622 -3.143436643103 -1.467511472146
H  -4.854570394329 -2.533724188906 -0.484400106000
H  -3.073091996862  0.551159397480  1.788039995840
H  -1.595525125727  1.496853434732  1.805045252082
H  -4.041075285722  2.106226950587  0.049155196374
H  -3.638811382368  2.901411587486  1.567168928244
H  -1.961670642491  2.996913202596 -0.992542054774
H  -1.493980736876  3.734516008634  0.554475959999
H  -2.934768625556  4.302035913691 -0.304732789218
