      -----------------------------------------------------------      
     |                   =====================                   |     
     |                           x T B                           |     
     |                   =====================                   |     
     |                         S. Grimme                         |     
     |          Mulliken Center for Theoretical Chemistry        |     
     |                    University of Bonn                     |     
      -----------------------------------------------------------      

   * xtb version 6.7.1 (edcfbbe) compiled by 'conda@5dfe00f5fb80' on 2026-06-10

   xtb is free software: you can redistribute it and/or modify it under
   the terms of the GNU Lesser General Public License as published by
   the Free Software Foundation, either version 3 of the License, or
   (at your option) any later version.
   
   xtb is distributed in the hope that it will be useful,
   but WITHOUT ANY WARRANTY; without even the implied warranty of
   MERCHANTABILITY or FITNESS FOR A PARTICULAR PURPOSE.  See the
   GNU Lesser General Public License for more details.
   
   Cite this work as:
   * C. Bannwarth, E. Caldeweyher, S. Ehlert, A. Hansen, P. Pracht,
     J. Seibert, S. Spicher, S. Grimme, WIREs Comput. Mol. Sci., 2020, 11,
     e01493. DOI: 10.1002/wcms.1493
   
   for GFN2-xTB:
   * C. Bannwarth, S. Ehlert and S. Grimme., J. Chem. Theory Comput., 2019,
     15, 1652-1671. DOI: 10.1021/acs.jctc.8b01176
   for GFN1-xTB:
   * S. Grimme, C. Bannwarth, P. Shushkov, J. Chem. Theory Comput., 2017,
     13, 1989-2009. DOI: 10.1021/acs.jctc.7b00118
   for GFN0-xTB:
   * P. Pracht, E. Caldeweyher, S. Ehlert, S. Grimme, ChemRxiv, 2019, preprint.
     DOI: 10.26434/chemrxiv.8326202.v1
   for GFN-FF:
   * S. Spicher and S. Grimme, Angew. Chem. Int. Ed., 2020, 59, 15665-15673.
     DOI: 10.1002/anie.202004239
   
   for ALPB and GBSA implicit solvation:
   * S. Ehlert, M. Stahn, S. Spicher, S. Grimme, J. Chem. Theory Comput.,
     2021, 17, 4250-4261. DOI: 10.1021/acs.jctc.1c00471
   
   for ddCOSMO and CPCM-X implicit solvation:
   * M. Stahn, S. Ehlert, S. Grimme, J. Phys. Chem. A,
     2023, XX, XXXX-XXXX. DOI: 10.1021/acs.jpca.3c04382
   
   for DFT-D4:
   * E. Caldeweyher, C. Bannwarth and S. Grimme, J. Chem. Phys., 2017,
     147, 034112. DOI: 10.1063/1.4993215
   * E. Caldeweyher, S. Ehlert, A. Hansen, H. Neugebauer, S. Spicher,
     C. Bannwarth and S. Grimme, J. Chem. Phys., 2019, 150, 154122.
     DOI: 10.1063/1.5090222
   * E. Caldeweyher, J.-M. Mewes, S. Ehlert and S. Grimme, Phys. Chem. Chem. Phys.
     2020, 22, 8499-8512. DOI: 10.1039/D0CP00502A
   
   for sTDA-xTB:
   * S. Grimme and C. Bannwarth, J. Chem. Phys., 2016, 145, 054103.
     DOI: 10.1063/1.4959605
   
   in the mass-spec context:
   * V. Asgeirsson, C. Bauer and S. Grimme, Chem. Sci., 2017, 8, 4879.
     DOI: 10.1039/c7sc00601b
   * J. Koopman and S. Grimme, ACS Omega 2019, 4, 12, 15120-15133.
     DOI: 10.1021/acsomega.9b02011
   
   for metadynamics refer to:
   * S. Grimme, J. Chem. Theory Comput., 2019, 155, 2847-2862
     DOI: 10.1021/acs.jctc.9b00143
   
   for SPH calculations refer to:
   * S. Spicher and S. Grimme, J. Chem. Theory Comput., 2021, 17, 1701-1714
     DOI: 10.1021/acs.jctc.0c01306
   
   for ONIOM refer to:
   * C. Plett, A. Katbashev, S. Ehlert, S. Grimme, M. Bursch,
     Phys. Chem. Chem. Phys., 2023, 25, 17860-17868. DOI: 10.1039/D3CP02178E
   
   for DIPRO refer to:
   * J. Kohn, N. Gildemeister, S. Grimme, D. Fazzi, A. Hansen,
     J. Chem. Phys., 2023, just accepted.
   
   for PTB refer to:
   * S. Grimme, M. Mueller, A. Hansen, J. Chem. Phys., 2023, 158, 124111.
     DOI: 10.1063/5.0137838
   
   with help from (in alphabetical order)
   P. Atkinson, C. Bannwarth, F. Bohle, G. Brandenburg, E. Caldeweyher
   M. Checinski, S. Dohm, S. Ehlert, S. Ehrlich, I. Gerasimov, C. Hölzer
   A. Katbashev, J. Kohn, J. Koopman, C. Lavigne, S. Lehtola, F. März, M. Müller,
   F. Musil, H. Neugebauer, J. Pisarek, C. Plett, P. Pracht, F. Pultar,
   J. Seibert, P. Shushkov, S. Spicher, M. Stahn, M. Steiner, T. Strunk,
   J. Stückrath, T. Rose, and J. Unsleber
   
 * started run on 2026/07/07 at 21:30:17.684     
   ID    Z sym.   atoms
    1    6 C      1-4, 6, 7, 9-14
    2    8 O      5, 8
    3    1 H      15-30

           -------------------------------------------------
          |                Calculation Setup                |
           -------------------------------------------------

          program call               : /home/ws/xd2484/miniforge3/envs/p3z_dft/bin/xtb xtb_input.xyz --gfn 2 --opt tight --cycles 500 --chrg 0 --uhf 0
          hostname                   : gpu10
          coordinate file            : xtb_input.xyz
          omp threads                :                    16


           -------------------------------------------------
          |                 G F N 2 - x T B                 |
           -------------------------------------------------

        Reference                      10.1021/acs.jctc.8b01176
      * Hamiltonian:
        H0-scaling (s, p, d)           1.850000    2.230000    2.230000
        zeta-weighting                 0.500000
      * Dispersion:
        s8                             2.700000
        a1                             0.520000
        a2                             5.000000
        s9                             5.000000
      * Repulsion:
        kExp                           1.500000    1.000000
        rExp                           1.000000
      * Coulomb:
        alpha                          2.000000
        third order                    shell-resolved
        anisotropic                    true
        a3                             3.000000
        a5                             4.000000
        cn-shift                       1.200000
        cn-exp                         4.000000
        max-rad                        5.000000


          ...................................................
          :                      SETUP                      :
          :.................................................:
          :  # basis functions                  72          :
          :  # atomic orbitals                  72          :
          :  # shells                           44          :
          :  # electrons                        76          :
          :  max. iterations                   250          :
          :  Hamiltonian                  GFN2-xTB          :
          :  restarted?                      false          :
          :  GBSA solvation                  false          :
          :  PC potential                    false          :
          :  electronic temp.          300.0000000     K    :
          :  accuracy                    1.0000000          :
          :  -> integral cutoff          0.2500000E+02      :
          :  -> integral neglect         0.1000000E-07      :
          :  -> SCF convergence          0.1000000E-05 Eh   :
          :  -> wf. convergence          0.1000000E-03 e    :
          :  Broyden damping             0.4000000          :
          :  net charge                          0          :
          :  unpaired electrons                  0          :
          ...................................................

 iter      E             dE          RMSdq      gap      omega  full diag
   1    -42.4488568 -0.424489E+02  0.417E+00    4.14       0.0  T
   2    -42.5070397 -0.581829E-01  0.241E+00    4.17       1.0  T
   3    -42.4930810  0.139587E-01  0.119E+00    4.11       1.0  T
   4    -42.5096104 -0.165294E-01  0.523E-01    4.17       1.0  T
   5    -42.5142323 -0.462182E-02  0.131E-01    4.19       1.0  T
   6    -42.5144973 -0.265073E-03  0.605E-02    4.18       1.0  T
   7    -42.5145155 -0.181577E-04  0.263E-02    4.17       1.0  T
   8    -42.5145176 -0.210390E-05  0.785E-03    4.18       2.3  T
   9    -42.5145186 -0.965990E-06  0.229E-03    4.18       8.0  T
  10    -42.5145186 -0.439625E-07  0.963E-04    4.18      19.0  T
  11    -42.5145186 -0.289007E-08  0.550E-04    4.18      33.2  T

   *** convergence criteria satisfied after 11 iterations ***

         #    Occupation            Energy/Eh            Energy/eV
      -------------------------------------------------------------
         1        2.0000           -0.7142734             -19.4364
       ...           ...                  ...                  ...
        32        2.0000           -0.4371145             -11.8945
        33        2.0000           -0.4329788             -11.7820
        34        2.0000           -0.4207969             -11.4505
        35        2.0000           -0.4051256             -11.0240
        36        2.0000           -0.4014063             -10.9228
        37        2.0000           -0.3964603             -10.7882
        38        2.0000           -0.3787445             -10.3062 (HOMO)
        39                         -0.2252875              -6.1304 (LUMO)
        40                         -0.2134410              -5.8080
        41                         -0.2117213              -5.7612
        42                         -0.0927064              -2.5227
        43                         -0.0253830              -0.6907
       ...                                ...                  ...
        72                          0.6446758              17.5425
      -------------------------------------------------------------
                  HL-Gap            0.1534571 Eh            4.1758 eV
             Fermi-level           -0.3020160 Eh           -8.2183 eV

 SCC (total)                   0 d,  0 h,  0 min,  0.235 sec
 SCC setup                      ...        0 min,  0.003 sec (  1.482%)
 Dispersion                     ...        0 min,  0.008 sec (  3.236%)
 classical contributions        ...        0 min,  0.004 sec (  1.567%)
 integral evaluation            ...        0 min,  0.011 sec (  4.593%)
 iterations                     ...        0 min,  0.168 sec ( 71.493%)
 molecular gradient             ...        0 min,  0.041 sec ( 17.524%)
 printout                       ...        0 min,  0.000 sec (  0.092%)

         :::::::::::::::::::::::::::::::::::::::::::::::::::::
         ::                     SUMMARY                     ::
         :::::::::::::::::::::::::::::::::::::::::::::::::::::
         :: total energy             -41.934767852055 Eh    ::
         :: gradient norm              0.048234200725 Eh/a0 ::
         :: HOMO-LUMO gap              4.175779218657 eV    ::
         ::.................................................::
         :: SCC energy               -42.514704986089 Eh    ::
         :: -> isotropic ES            0.035771891902 Eh    ::
         :: -> anisotropic ES          0.006509506568 Eh    ::
         :: -> anisotropic XC          0.017420440443 Eh    ::
         :: -> dispersion             -0.022534380772 Eh    ::
         :: repulsion energy           0.579937134034 Eh    ::
         :: add. restraining           0.000000000000 Eh    ::
         :: total charge               0.000000000000 e     ::
         :::::::::::::::::::::::::::::::::::::::::::::::::::::

      ----------------------------------------------------------- 
     |                   =====================                   |
     |                        A N C O P T                        |
     |                   =====================                   |
     |               Approximate Normal Coordinate               |
     |                Rational Function Optimizer                |
      ----------------------------------------------------------- 
      ----------------------------------------------------------- 
     |                   =====================                   |
     |                        A N C O P T                        |
     |                   =====================                   |
     |               Approximate Normal Coordinate               |
     |                Rational Function Optimizer                |
      ----------------------------------------------------------- 

          ...................................................
          :                      SETUP                      :
          :.................................................:
          :   optimization level             tight          :
          :   max. optcycles                   500          :
          :   ANC micro-cycles                  20          :
          :   degrees of freedom                84          :
          :.................................................:
          :   RF solver                   davidson          :
          :   write xtbopt.log                true          :
          :   linear?                        false          :
          :   energy convergence         0.1000000E-05 Eh   :
          :   grad. convergence          0.8000000E-03 Eh/α :
          :   maxmium RF displ.          1.0000000          :
          :   Hlow (freq-cutoff)         0.1000000E-01      :
          :   Hmax (freq-cutoff)         5.0000000          :
          :   S6 in model hess.         20.0000000          :
          ...................................................

generating ANC from exact Hessian ...
Using Lindh-Hessian (1995)
 Shifting diagonal of input Hessian by    9.4838304271415239E-003
 Lowest  eigenvalues of input Hessian
    0.000000    0.000000    0.000000    0.000000    0.000000    0.000000
    0.010000    0.010086    0.010198    0.011566    0.012499    0.013544
    0.014958    0.017451    0.018395    0.020163    0.022507    0.023729
 Highest eigenvalues
    1.573939    1.718011    1.842438    1.859755    1.972472    2.054205


........................................................................
.............................. CYCLE    1 ..............................
........................................................................

 iter      E             dE          RMSdq      gap      omega  full diag
   1    -42.5145186 -0.425145E+02  0.156E-04    4.18       0.0  T
   2    -42.5145186 -0.161371E-09  0.991E-05    4.18     184.3  T
   3    -42.5145186 -0.698037E-10  0.658E-05    4.18     277.5  T
     SCC iter.                  ...        0 min,  0.038 sec
     gradient                   ...        0 min,  0.044 sec
 * total energy  :   -41.9347679 Eh     change       -0.3976382E-08 Eh
   gradient norm :     0.0482386 Eh/α   predicted     0.0000000E+00 (-100.00%)
   displ. norm   :     0.1571166 α      lambda       -0.3889231E-02
   maximum displ.:     0.0656388 α      in ANC's #23, #6, #8, ...

........................................................................
.............................. CYCLE    2 ..............................
........................................................................

 iter      E             dE          RMSdq      gap      omega  full diag
   1    -42.5405642 -0.425406E+02  0.107E-01    4.25       0.0  T
   2    -42.5405743 -0.100634E-04  0.638E-02    4.25       1.0  T
   3    -42.5405687  0.562931E-05  0.196E-02    4.25       1.0  T
   4    -42.5405751 -0.647863E-05  0.597E-03    4.25       3.1  T
   5    -42.5405760 -0.834575E-06  0.237E-03    4.25       7.7  T
   6    -42.5405760 -0.364645E-07  0.116E-03    4.25      15.7  T
   7    -42.5405760 -0.102474E-07  0.357E-04    4.25      51.1  T
   8    -42.5405760 -0.691479E-09  0.129E-04    4.25     141.0  T
     SCC iter.                  ...        0 min,  0.154 sec
     gradient                   ...        0 min,  0.057 sec
 * total energy  :   -41.9372160 Eh     change       -0.2448152E-02 Eh
   gradient norm :     0.0159192 Eh/α   predicted    -0.1992767E-02 ( -18.60%)
   displ. norm   :     0.1273327 α      lambda       -0.6145222E-03
   maximum displ.:     0.0790968 α      in ANC's #6, #8, #9, ...

........................................................................
.............................. CYCLE    3 ..............................
........................................................................

 iter      E             dE          RMSdq      gap      omega  full diag
   1    -42.5485824 -0.425486E+02  0.537E-02    4.27       0.0  T
   2    -42.5485857 -0.327750E-05  0.322E-02    4.28       1.0  T
   3    -42.5485831  0.262113E-05  0.136E-02    4.28       1.3  T
   4    -42.5485862 -0.314270E-05  0.319E-03    4.28       5.7  T
   5    -42.5485864 -0.198015E-06  0.138E-03    4.28      13.2  T
   6    -42.5485864 -0.265872E-07  0.563E-04    4.28      32.4  T
   7    -42.5485864 -0.179131E-08  0.271E-04    4.28      67.3  T
     SCC iter.                  ...        0 min,  0.121 sec
     gradient                   ...        0 min,  0.045 sec
 * total energy  :   -41.9375790 Eh     change       -0.3629863E-03 Eh
   gradient norm :     0.0058289 Eh/α   predicted    -0.3125295E-03 ( -13.90%)
   displ. norm   :     0.0968621 α      lambda       -0.1558905E-03
   maximum displ.:     0.0663749 α      in ANC's #6, #9, #14, ...

........................................................................
.............................. CYCLE    4 ..............................
........................................................................

 iter      E             dE          RMSdq      gap      omega  full diag
   1    -42.5490116 -0.425490E+02  0.345E-02    4.28       0.0  T
   2    -42.5490130 -0.135516E-05  0.213E-02    4.28       1.0  T
   3    -42.5490117  0.123857E-05  0.845E-03    4.28       2.2  T
   4    -42.5490132 -0.146252E-05  0.215E-03    4.28       8.5  T
   5    -42.5490133 -0.807804E-07  0.854E-04    4.28      21.4  T
   6    -42.5490133 -0.144604E-07  0.297E-04    4.28      61.5  T
     SCC iter.                  ...        0 min,  0.098 sec
     gradient                   ...        0 min,  0.043 sec
 * total energy  :   -41.9376694 Eh     change       -0.9037178E-04 Eh
   gradient norm :     0.0031739 Eh/α   predicted    -0.7867900E-04 ( -12.94%)
   displ. norm   :     0.0888924 α      lambda       -0.7723632E-04
   maximum displ.:     0.0741842 α      in ANC's #6, #9, #4, ...

........................................................................
.............................. CYCLE    5 ..............................
........................................................................

 iter      E             dE          RMSdq      gap      omega  full diag
   1    -42.5477545 -0.425478E+02  0.268E-02    4.27       0.0  T
   2    -42.5477553 -0.735097E-06  0.164E-02    4.27       1.1  T
   3    -42.5477544  0.899955E-06  0.697E-03    4.27       2.6  T
   4    -42.5477554 -0.105046E-05  0.164E-03    4.27      11.1  T
   5    -42.5477555 -0.495192E-07  0.611E-04    4.27      29.9  T
   6    -42.5477555 -0.662251E-08  0.239E-04    4.27      76.2  T
     SCC iter.                  ...        0 min,  0.145 sec
     gradient                   ...        0 min,  0.042 sec
 * total energy  :   -41.9377148 Eh     change       -0.4542778E-04 Eh
   gradient norm :     0.0024290 Eh/α   predicted    -0.3893486E-04 ( -14.29%)
   displ. norm   :     0.0489413 α      lambda       -0.2490552E-04
   maximum displ.:     0.0363941 α      in ANC's #6, #4, #9, ...

........................................................................
.............................. CYCLE    6 ..............................
........................................................................

 iter      E             dE          RMSdq      gap      omega  full diag
   1    -42.5470195 -0.425470E+02  0.140E-02    4.27       0.0  T
   2    -42.5470195 -0.273577E-07  0.842E-03    4.27       2.2  T
   3    -42.5470192  0.279371E-06  0.337E-03    4.27       5.4  T
   4    -42.5470196 -0.311815E-06  0.320E-04    4.27      57.0  T
   5    -42.5470196 -0.632056E-09  0.169E-04    4.27     107.9  T
     SCC iter.                  ...        0 min,  0.135 sec
     gradient                   ...        0 min,  0.051 sec
 * total energy  :   -41.9377343 Eh     change       -0.1949218E-04 Eh
   gradient norm :     0.0017842 Eh/α   predicted    -0.1248444E-04 ( -35.95%)
   displ. norm   :     0.1178182 α      lambda       -0.2852852E-04
   maximum displ.:     0.0752345 α      in ANC's #6, #4, #8, ...

........................................................................
.............................. CYCLE    7 ..............................
........................................................................

 iter      E             dE          RMSdq      gap      omega  full diag
   1    -42.5466401 -0.425466E+02  0.314E-02    4.27       0.0  T
   2    -42.5466402 -0.127904E-06  0.189E-02    4.27       1.0  T
   3    -42.5466387  0.152267E-05  0.806E-03    4.27       2.3  T
   4    -42.5466404 -0.170261E-05  0.693E-04    4.27      26.3  T
   5    -42.5466404 -0.261465E-08  0.388E-04    4.27      47.1  T
   6    -42.5466404 -0.116776E-08  0.165E-04    4.27     110.8  T
     SCC iter.                  ...        0 min,  0.095 sec
     gradient                   ...        0 min,  0.051 sec
 * total energy  :   -41.9377586 Eh     change       -0.2429871E-04 Eh
   gradient norm :     0.0018944 Eh/α   predicted    -0.1435533E-04 ( -40.92%)
   displ. norm   :     0.0630797 α      lambda       -0.1102098E-04
   maximum displ.:     0.0316792 α      in ANC's #4, #6, #8, ...

........................................................................
.............................. CYCLE    8 ..............................
........................................................................

 iter      E             dE          RMSdq      gap      omega  full diag
   1    -42.5473526 -0.425474E+02  0.163E-02    4.27       0.0  T
   2    -42.5473527 -0.437701E-07  0.969E-03    4.27       1.9  T
   3    -42.5473523  0.409294E-06  0.422E-03    4.27       4.3  T
   4    -42.5473527 -0.459427E-06  0.370E-04    4.27      49.3  T
   5    -42.5473527 -0.121248E-08  0.167E-04    4.27     109.1  T
     SCC iter.                  ...        0 min,  0.084 sec
     gradient                   ...        0 min,  0.049 sec
 * total energy  :   -41.9377715 Eh     change       -0.1295430E-04 Eh
   gradient norm :     0.0011442 Eh/α   predicted    -0.5528320E-05 ( -57.32%)
   displ. norm   :     0.1052911 α      lambda       -0.1497769E-04
   maximum displ.:     0.0569583 α      in ANC's #8, #4, #9, ...

........................................................................
.............................. CYCLE    9 ..............................
........................................................................

 iter      E             dE          RMSdq      gap      omega  full diag
   1    -42.5478984 -0.425479E+02  0.316E-02    4.27       0.0  T
   2    -42.5478985 -0.101426E-06  0.187E-02    4.27       1.0  T
   3    -42.5478978  0.718988E-06  0.544E-03    4.27       3.4  T
   4    -42.5478986 -0.799773E-06  0.602E-04    4.27      30.3  T
   5    -42.5478986 -0.340022E-08  0.233E-04    4.27      78.2  T
     SCC iter.                  ...        0 min,  0.079 sec
     gradient                   ...        0 min,  0.046 sec
 * total energy  :   -41.9377870 Eh     change       -0.1544356E-04 Eh
   gradient norm :     0.0007673 Eh/α   predicted    -0.7528774E-05 ( -51.25%)
   displ. norm   :     0.0898855 α      lambda       -0.8280901E-05
   maximum displ.:     0.0465995 α      in ANC's #8, #9, #4, ...

........................................................................
.............................. CYCLE   10 ..............................
........................................................................

 iter      E             dE          RMSdq      gap      omega  full diag
   1    -42.5479258 -0.425479E+02  0.301E-02    4.27       0.0  T
   2    -42.5479259 -0.575458E-07  0.177E-02    4.27       1.0  T
   3    -42.5479255  0.333592E-06  0.370E-03    4.27       4.9  T
   4    -42.5479259 -0.374843E-06  0.481E-04    4.27      38.0  T
   5    -42.5479259 -0.193546E-08  0.215E-04    4.27      85.0  T
     SCC iter.                  ...        0 min,  0.113 sec
     gradient                   ...        0 min,  0.056 sec
 * total energy  :   -41.9377960 Eh     change       -0.8979767E-05 Eh
   gradient norm :     0.0007540 Eh/α   predicted    -0.4156749E-05 ( -53.71%)
   displ. norm   :     0.0782084 α      lambda       -0.5531574E-05
   maximum displ.:     0.0374953 α      in ANC's #9, #8, #4, ...

........................................................................
.............................. CYCLE   11 ..............................
........................................................................

 iter      E             dE          RMSdq      gap      omega  full diag
   1    -42.5477608 -0.425478E+02  0.282E-02    4.27       0.0  T
   2    -42.5477608 -0.515856E-07  0.166E-02    4.27       1.1  T
   3    -42.5477606  0.204512E-06  0.289E-03    4.27       6.3  T
   4    -42.5477608 -0.232984E-06  0.474E-04    4.27      38.5  T
   5    -42.5477608 -0.218225E-08  0.200E-04    4.27      91.2  T
     SCC iter.                  ...        0 min,  0.075 sec
     gradient                   ...        0 min,  0.036 sec
 * total energy  :   -41.9378013 Eh     change       -0.5336581E-05 Eh
   gradient norm :     0.0004528 Eh/α   predicted    -0.2775267E-05 ( -48.00%)
   displ. norm   :     0.0296722 α      lambda       -0.1487635E-05
   maximum displ.:     0.0136810 α      in ANC's #9, #1, #2, ...

........................................................................
.............................. CYCLE   12 ..............................
........................................................................

 iter      E             dE          RMSdq      gap      omega  full diag
   1    -42.5476598 -0.425477E+02  0.110E-02    4.27       0.0  T
   2    -42.5476598 -0.841155E-08  0.645E-03    4.27       2.8  T
   3    -42.5476598  0.127709E-07  0.738E-04    4.27      24.7  T
   4    -42.5476598 -0.160700E-07  0.200E-04    4.27      91.3  T
     SCC iter.                  ...        0 min,  0.063 sec
     gradient                   ...        0 min,  0.040 sec
 * total energy  :   -41.9378028 Eh     change       -0.1461173E-05 Eh
   gradient norm :     0.0002218 Eh/α   predicted    -0.7452166E-06 ( -49.00%)
   displ. norm   :     0.0166896 α      lambda       -0.7260407E-06
   maximum displ.:     0.0088016 α      in ANC's #6, #2, #1, ...

........................................................................
.............................. CYCLE   13 ..............................
........................................................................

 iter      E             dE          RMSdq      gap      omega  full diag
   1    -42.5476266 -0.425476E+02  0.576E-03    4.27       0.0  T
   2    -42.5476266 -0.226849E-08  0.341E-03    4.27       5.4  T
   3    -42.5476266  0.155531E-08  0.327E-04    4.27      55.8  T
   4    -42.5476266 -0.252623E-08  0.976E-05    4.27     187.0  T
     SCC iter.                  ...        0 min,  0.060 sec
     gradient                   ...        0 min,  0.042 sec
 * total energy  :   -41.9378035 Eh     change       -0.7442437E-06 Eh
   gradient norm :     0.0001980 Eh/α   predicted    -0.3672483E-06 ( -50.65%)
   displ. norm   :     0.0177348 α      lambda       -0.5775457E-06
   maximum displ.:     0.0094237 α      in ANC's #2, #1, #6, ...

   *** GEOMETRY OPTIMIZATION CONVERGED AFTER 13 ITERATIONS ***

------------------------------------------------------------------------
 total energy gain   :        -0.0030357 Eh       -1.9049 kcal/mol
 total RMSD          :         0.1355345 a0        0.0717 Å
 total power (kW/mol):        -0.6130850 (step)   -3.3076 (real)
------------------------------------------------------------------------

 ANCopt (total)                0 d,  0 h,  0 min,  2.410 sec
 optimizer setup                ...        0 min,  0.001 sec (  0.034%)
 model hessian                  ...        0 min,  0.007 sec (  0.311%)
 ANC generation                 ...        0 min,  0.001 sec (  0.055%)
 coordinate transformation      ...        0 min,  0.000 sec (  0.007%)
 single point calculation       ...        0 min,  2.334 sec ( 96.860%)
 optimization log               ...        0 min,  0.002 sec (  0.096%)
 hessian update                 ...        0 min,  0.060 sec (  2.476%)
 rational function              ...        0 min,  0.001 sec (  0.054%)

================
 final structure:
================
30
 xtb: 6.7.1 (edcfbbe)
C           -5.05110739405275        1.40810061555457        0.49965706806436
C           -4.22652993309192        0.51995295409006       -0.02938436765886
C           -4.33308188331115        0.03162985193302       -1.43911765548638
C           -3.09758404674221       -0.08482451801040        0.76274228299629
O           -1.87634495774151        0.15773273353863        0.09007236667106
C           -0.76830904625348       -0.38834605597744        0.75533111213596
C            0.48488133018207       -0.03343542945591       -0.03897533788875
O            1.58663325895353       -0.59123158316412        0.63818714864600
C            2.83666768528153       -0.39643457066870        0.12652406501645
C            3.88099898399401       -0.97806757713868        0.84694099333005
C            5.18449282884257       -0.84185874901640        0.41802854922600
C            5.47060040394360       -0.12499014451551       -0.73385900658068
C            4.43786657610996        0.45125786527421       -1.44857137343154
C            3.12351250141193        0.32130775332847       -1.02857215456089
H           -5.86483031753751        1.82880017214523       -0.06593727100221
H           -4.95164443250030        1.74714915528984        1.51674211858427
H           -4.56219248792536       -1.03364275622340       -1.45015586819028
H           -3.37740248189208        0.17214068379960       -1.93968197112455
H           -5.10832520831162        0.56532151476019       -1.98098012285694
H           -3.06166149391104        0.34406890724450        1.77521211350159
H           -3.25379760461951       -1.17334736423603        0.86006672669899
H           -0.68291813486878        0.01802619510669        1.77471076197043
H           -0.85757880867814       -1.48312338391119        0.83295685884744
H            0.39727025098660       -0.44178966550450       -1.05440478114912
H            0.57071706138458        1.05896781285042       -0.10443115676077
H            3.63933901905466       -1.53166143346282        1.74059563280057
H            5.98313673986239       -1.29702507103546        0.98484953422226
H            6.49091906550597       -0.01803416530029       -1.06928952952307
H            4.64901644377460        1.01201106335130       -2.34741786400481
H            2.33725608215171        0.78134518935420       -1.60618051642498

 Bond Distances (Angstroems)
 ---------------------------
C1-C2=1.3224         C1-H15=1.0766        C1-H16=1.0767        C2-C1=1.3224         C2-C3=1.4957         C2-C4=1.5059         
C3-C2=1.4957         C3-H17=1.0897        C3-H18=1.0879        C3-H19=1.0860        C4-C2=1.5059         C4-O5=1.4152         
C4-H20=1.1002        C4-H21=1.1040        O5-C4=1.4152         O5-C6=1.4030         C6-O5=1.4030         C6-C7=1.5256         
C6-H22=1.1007        C6-H23=1.1012        C7-C6=1.5256         C7-O8=1.4084         C7-H24=1.0980        C7-H25=1.0977        
O8-C7=1.4084         O8-C9=1.3647         C9-O8=1.3647         C9-C10=1.3957        C9-C14=1.3898        C10-C9=1.3957        
C10-C11=1.3790       C10-H26=1.0786       C11-C10=1.3790       C11-C12=1.3866       C11-H27=1.0800       C12-C11=1.3866       
C12-C13=1.3818       C12-H28=1.0794       C13-C12=1.3818       C13-C14=1.3859       C13-H29=1.0803       C14-C9=1.3898        
C14-C13=1.3859       C14-H30=1.0786       H15-C1=1.0766        H16-C1=1.0767        H17-C3=1.0897        H18-C3=1.0879        
H19-C3=1.0860        H20-C4=1.1002        H21-C4=1.1040        H22-C6=1.1007        H23-C6=1.1012        H24-C7=1.0980        
H25-C7=1.0977        H26-C10=1.0786       H27-C11=1.0800       H28-C12=1.0794       H29-C13=1.0803       H30-C14=1.0786       
 C  H  Rav=1.0885 sigma=0.0099  Rmin=1.0766  Rmax=1.1040    16
 C  C  Rav=1.4168 sigma=0.0637  Rmin=1.3224  Rmax=1.5256    10
 O  C  Rav=1.3978 sigma=0.0196  Rmin=1.3647  Rmax=1.4152     4

 selected bond angles (degree)
 --------------------
H15-C1-C2=121.57               H16-C1-C2=122.13               H16-C1-H15=116.30              C3-C2-C1=123.50                
C4-C2-C1=121.79                C4-C2-C3=114.71                H17-C3-C2=110.10               H18-C3-C2=109.20               
H18-C3-H17=107.84              H19-C3-C2=111.14               H19-C3-H17=108.98              H19-C3-H18=109.51              
O5-C4-C2=109.15                H20-C4-C2=110.61               H20-C4-O5=110.03               H21-C4-C2=109.65               
H21-C4-O5=109.45               H21-C4-H20=107.93              C6-O5-C4=112.92                C7-C6-O5=108.14                
H22-C6-O5=110.90               H22-C6-C7=109.43               H23-C6-O5=110.88               H23-C6-C7=109.55               
H23-C6-H22=107.94              O8-C7-C6=107.47                H24-C7-C6=109.24               H24-C7-O8=111.09               
H25-C7-C6=109.07               H25-C7-O8=111.20               H25-C7-H24=108.74              C9-O8-C7=118.67                
C10-C9-O8=115.62               C14-C9-O8=125.06               C14-C9-C10=119.33              C11-C10-C9=120.37              
H26-C10-C9=118.29              H26-C10-C11=121.34             

 selected dihedral angles (degree)
 ---------------------------------
C3-C2-C1-H15=  0.55           C3-C2-C1-H16=180.24           C4-C2-C1-H15=180.80           C4-C2-C1-H16=  0.49           
H17-C3-C2-C1=244.28           H17-C3-C2-C4= 64.05           H18-C3-C2-C1=126.06           H18-C3-C2-C4=305.83           
H19-C3-C2-C1=  5.14           H19-C3-C2-C4=184.90           O5-C4-C2-C1=236.74            O5-C4-C2-C3= 56.97            
H20-C4-C2-C1=357.94           H20-C4-C2-C3=178.16           H21-C4-C2-C1=116.85           H21-C4-C2-C3=297.08           
C6-O5-C4-C2=180.70            C6-O5-C4-H20= 59.15           C6-O5-C4-H21=300.71           C7-C6-O5-C4=181.47            
H22-C6-O5-C4=301.44           H23-C6-O5-C4= 61.35           O8-C7-C6-O5=180.18            O8-C7-C6-H22= 59.28           
O8-C7-C6-H23=301.13           H24-C7-C6-O5=300.79           H24-C7-C6-H22=179.89          H24-C7-C6-H23= 61.74          
H25-C7-C6-O5= 59.52           H25-C7-C6-H22=298.62          H25-C7-C6-H23=180.47          C9-O8-C7-C6=180.73            
C9-O8-C7-H24= 61.30           C9-O8-C7-H25=300.04           C10-C9-O8-C7=180.08           C14-C9-O8-C7=  0.09           
C11-C10-C9-O8=180.04          C11-C10-C9-C14=  0.03         H26-C10-C9-O8=  0.03          H26-C10-C9-C14=180.02         
           -------------------------------------------------
          |                Final Singlepoint                |
           -------------------------------------------------

          ...................................................
          :                      SETUP                      :
          :.................................................:
          :  # basis functions                  72          :
          :  # atomic orbitals                  72          :
          :  # shells                           44          :
          :  # electrons                        76          :
          :  max. iterations                   250          :
          :  Hamiltonian                  GFN2-xTB          :
          :  restarted?                      false          :
          :  GBSA solvation                  false          :
          :  PC potential                    false          :
          :  electronic temp.          300.0000000     K    :
          :  accuracy                    1.0000000          :
          :  -> integral cutoff          0.2500000E+02      :
          :  -> integral neglect         0.1000000E-07      :
          :  -> SCF convergence          0.1000000E-05 Eh   :
          :  -> wf. convergence          0.1000000E-03 e    :
          :  Broyden damping             0.4000000          :
          :  net charge                          0          :
          :  unpaired electrons                  0          :
          ...................................................

 iter      E             dE          RMSdq      gap      omega  full diag
   1    -42.5476266 -0.425476E+02  0.511E-05    4.27       0.0  T
   2    -42.5476266 -0.621725E-11  0.351E-05    4.27     520.5  T
   3    -42.5476266 -0.158522E-10  0.212E-05    4.27     861.2  T

   *** convergence criteria satisfied after 3 iterations ***

         #    Occupation            Energy/Eh            Energy/eV
      -------------------------------------------------------------
         1        2.0000           -0.7163090             -19.4918
       ...           ...                  ...                  ...
        32        2.0000           -0.4354991             -11.8505
        33        2.0000           -0.4330035             -11.7826
        34        2.0000           -0.4192703             -11.4089
        35        2.0000           -0.4047838             -11.0147
        36        2.0000           -0.4035019             -10.9798
        37        2.0000           -0.3979198             -10.8279
        38        2.0000           -0.3786015             -10.3023 (HOMO)
        39                         -0.2216956              -6.0326 (LUMO)
        40                         -0.2121618              -5.7732
        41                         -0.2051689              -5.5829
        42                         -0.0870298              -2.3682
        43                         -0.0088021              -0.2395
       ...                                ...                  ...
        72                          0.6749286              18.3657
      -------------------------------------------------------------
                  HL-Gap            0.1569059 Eh            4.2696 eV
             Fermi-level           -0.3001485 Eh           -8.1675 eV

 SCC (total)                   0 d,  0 h,  0 min,  0.162 sec
 SCC setup                      ...        0 min,  0.004 sec (  2.680%)
 Dispersion                     ...        0 min,  0.007 sec (  4.554%)
 classical contributions        ...        0 min,  0.003 sec (  1.785%)
 integral evaluation            ...        0 min,  0.012 sec (  7.269%)
 iterations                     ...        0 min,  0.091 sec ( 56.207%)
 molecular gradient             ...        0 min,  0.044 sec ( 27.385%)
 printout                       ...        0 min,  0.000 sec (  0.102%)

         :::::::::::::::::::::::::::::::::::::::::::::::::::::
         ::                     SUMMARY                     ::
         :::::::::::::::::::::::::::::::::::::::::::::::::::::
         :: total energy             -41.937803504736 Eh    ::
         :: gradient norm              0.000197848932 Eh/a0 ::
         :: HOMO-LUMO gap              4.269625817856 eV    ::
         ::.................................................::
         :: SCC energy               -42.547816238700 Eh    ::
         :: -> isotropic ES            0.034884614996 Eh    ::
         :: -> anisotropic ES          0.005633588358 Eh    ::
         :: -> anisotropic XC          0.016156737755 Eh    ::
         :: -> dispersion             -0.022720174569 Eh    ::
         :: repulsion energy           0.610012733965 Eh    ::
         :: add. restraining           0.000000000000 Eh    ::
         :: total charge               0.000000000000 e     ::
         :::::::::::::::::::::::::::::::::::::::::::::::::::::

           -------------------------------------------------
          |                Property Printout                |
           -------------------------------------------------

    * Orbital Energies and Occupations

         #    Occupation            Energy/Eh            Energy/eV
      -------------------------------------------------------------
         1        2.0000           -0.7163090             -19.4918
       ...           ...                  ...                  ...
        26        2.0000           -0.4766321             -12.9698
        27        2.0000           -0.4738400             -12.8938
        28        2.0000           -0.4642654             -12.6333
        29        2.0000           -0.4564719             -12.4212
        30        2.0000           -0.4489902             -12.2176
        31        2.0000           -0.4433848             -12.0651
        32        2.0000           -0.4354991             -11.8505
        33        2.0000           -0.4330035             -11.7826
        34        2.0000           -0.4192703             -11.4089
        35        2.0000           -0.4047838             -11.0147
        36        2.0000           -0.4035019             -10.9798
        37        2.0000           -0.3979198             -10.8279
        38        2.0000           -0.3786015             -10.3023 (HOMO)
        39                         -0.2216956              -6.0326 (LUMO)
        40                         -0.2121618              -5.7732
        41                         -0.2051689              -5.5829
        42                         -0.0870298              -2.3682
        43                         -0.0088021              -0.2395
        44                          0.0720006               1.9592
        45                          0.0793221               2.1585
        46                          0.0901552               2.4532
        47                          0.1090258               2.9667
        48                          0.1166920               3.1754
        49                          0.1296816               3.5288
       ...                                ...                  ...
        72                          0.6749286              18.3657
      -------------------------------------------------------------
                  HL-Gap            0.1569059 Eh            4.2696 eV
             Fermi-level           -0.3001485 Eh           -8.1675 eV

     #   Z          covCN         q      C6AA      α(0)
     1   6 C        2.844    -0.105    30.649     9.073
     2   6 C        2.935     0.019    27.595     8.615
     3   6 C        3.759    -0.112    22.698     6.792
     4   6 C        3.712     0.082    19.334     6.283
     5   8 O        1.702    -0.317    19.295     5.931
     6   6 C        3.704     0.084    19.320     6.284
     7   6 C        3.693     0.082    19.384     6.299
     8   8 O        1.706    -0.281    18.655     5.832
     9   6 C        2.865     0.145    24.850     8.171
    10   6 C        2.921    -0.054    29.331     8.881
    11   6 C        2.920    -0.029    28.726     8.789
    12   6 C        2.918    -0.042    29.039     8.837
    13   6 C        2.922    -0.030    28.750     8.793
    14   6 C        2.917    -0.066    29.652     8.930
    15   1 H        0.926     0.044     2.395     2.420
    16   1 H        0.926     0.037     2.485     2.465
    17   1 H        0.925     0.049     2.328     2.386
    18   1 H        0.925     0.065     2.143     2.289
    19   1 H        0.925     0.047     2.361     2.403
    20   1 H        0.923     0.024     2.677     2.559
    21   1 H        0.923     0.024     2.669     2.555
    22   1 H        0.923     0.032     2.552     2.498
    23   1 H        0.923     0.032     2.557     2.501
    24   1 H        0.923     0.043     2.414     2.430
    25   1 H        0.924     0.044     2.400     2.423
    26   1 H        0.926     0.046     2.367     2.406
    27   1 H        0.926     0.037     2.495     2.470
    28   1 H        0.926     0.033     2.545     2.495
    29   1 H        0.926     0.034     2.531     2.488
    30   1 H        0.926     0.033     2.547     2.496

 Mol. C6AA /au·bohr⁶  :       8901.281231
 Mol. C8AA /au·bohr⁸  :     204361.756666
 Mol. α(0) /au        :        146.791947


Wiberg/Mayer (AO) data.
largest (>0.10) Wiberg bond orders for each atom

 ---------------------------------------------------------------------------
     #   Z sym  total        # sym  WBO       # sym  WBO       # sym  WBO
 ---------------------------------------------------------------------------
     1   6 C    3.988 --     2 C    1.935    16 H    0.975    15 H    0.975
     2   6 C    3.986 --     1 C    1.935     3 C    1.028     4 C    0.996
     3   6 C    3.996 --     2 C    1.028    19 H    0.985    17 H    0.969
                            18 H    0.968
     4   6 C    3.949 --     2 C    0.996     5 O    0.970    20 H    0.966
                            21 H    0.956
     5   8 O    2.067 --     6 C    0.992     4 C    0.970
     6   6 C    3.957 --     7 C    0.993     5 O    0.992    22 H    0.966
                            23 H    0.966
     7   6 C    3.949 --     6 C    0.993     8 O    0.976    24 H    0.966
                            25 H    0.966
     8   8 O    2.221 --     9 C    1.051     7 C    0.976
     9   6 C    3.929 --    14 C    1.380    10 C    1.351     8 O    1.051
    10   6 C    3.988 --    11 C    1.470     9 C    1.351    26 H    0.968
                            13 C    0.111
    11   6 C    3.992 --    10 C    1.470    12 C    1.419    27 H    0.971
                            14 C    0.104
    12   6 C    3.992 --    13 C    1.449    11 C    1.419    28 H    0.971
    13   6 C    3.992 --    12 C    1.449    14 C    1.435    29 H    0.971
                            10 C    0.111
    14   6 C    3.988 --    13 C    1.435     9 C    1.380    30 H    0.967
                            11 C    0.104
    15   1 H    0.997 --     1 C    0.975
    16   1 H    0.999 --     1 C    0.975
    17   1 H    0.998 --     3 C    0.969
    18   1 H    0.996 --     3 C    0.968
    19   1 H    0.998 --     3 C    0.985
    20   1 H    0.999 --     4 C    0.966
    21   1 H    0.999 --     4 C    0.956
    22   1 H    0.999 --     6 C    0.966
    23   1 H    0.999 --     6 C    0.966
    24   1 H    0.998 --     7 C    0.966
    25   1 H    0.998 --     7 C    0.966
    26   1 H    0.998 --    10 C    0.968
    27   1 H    0.998 --    11 C    0.971
    28   1 H    0.999 --    12 C    0.971
    29   1 H    0.999 --    13 C    0.971
    30   1 H    0.999 --    14 C    0.967
 ---------------------------------------------------------------------------

Topologies differ in total number of bonds
Writing topology from bond orders to xtbtopo.mol

molecular dipole:
                 x           y           z       tot (Debye)
 q only:       -0.301      -0.086      -0.117
   full:       -0.324      -0.139      -0.041       0.904
molecular quadrupole (traceless):
                xx          xy          yy          xz          yz          zz
 q only:        4.336       1.399      -3.588      -0.290      -0.772      -0.748
  q+dip:        0.815       2.111      -2.604      -1.695      -1.591       1.789
   full:        1.109       2.761      -2.169      -1.658      -0.738       1.060

           -------------------------------------------------
          |                Geometry Summary                 |
           -------------------------------------------------

      molecular mass/u    :      192.2546926
   center of mass at/Å    :        0.4319556      -0.0404250      -0.0323721
  moments of inertia/u·Å² :        0.1938734E+03   0.2568663E+04   0.2681703E+04
rotational constants/cm⁻¹ :        0.8695173E-01   0.6562804E-02   0.6286168E-02

 * 28 selected distances

     #   Z          #   Z                                           value/Å
     1   6 C        2   6 C                                       1.3223537
     4   6 C        5   8 O                                       1.4151834
     5   8 O        6   6 C                                       1.4030378
     6   6 C        7   6 C                                       1.5255723 (max)
     7   6 C        8   8 O                                       1.4083832
     8   8 O        9   6 C                                       1.3646726
     9   6 C       10   6 C                                       1.3956811
    10   6 C       11   6 C                                       1.3789907
    11   6 C       12   6 C                                       1.3865798
    12   6 C       13   6 C                                       1.3818159
     9   6 C       14   6 C                                       1.3898495
    13   6 C       14   6 C                                       1.3859341
     1   6 C       15   1 H                                       1.0765827 (min)
     1   6 C       16   1 H                                       1.0767121
     3   6 C       17   1 H                                       1.0896878
     3   6 C       18   1 H                                       1.0879482
     3   6 C       19   1 H                                       1.0860222
     4   6 C       20   1 H                                       1.1001524
     4   6 C       21   1 H                                       1.1039732
     6   6 C       22   1 H                                       1.1007112
     6   6 C       23   1 H                                       1.1011505
     7   6 C       24   1 H                                       1.0979645
     7   6 C       25   1 H                                       1.0977237
    10   6 C       26   1 H                                       1.0786494
    11   6 C       27   1 H                                       1.0799513
    12   6 C       28   1 H                                       1.0793533
    13   6 C       29   1 H                                       1.0802563
    14   6 C       30   1 H                                       1.0786405

 * 3 distinct bonds (by element types)

   Z      Z             #   av. dist./Å        max./Å        min./Å
   1 H    6 C          16     1.0884675     1.1039732     1.0765827
   6 C    6 C           8     1.3958471     1.5255723     1.3223537
   6 C    8 O           4     1.3978193     1.4151834     1.3646726


optimized geometry written to: xtbopt.xyz


           -------------------------------------------------
          | TOTAL ENERGY              -41.937803504736 Eh   |
          | GRADIENT NORM               0.000197848932 Eh/α |
          | HOMO-LUMO GAP               4.269625817856 eV   |
           -------------------------------------------------

------------------------------------------------------------------------
 * finished run on 2026/07/07 at 21:30:20.555     
------------------------------------------------------------------------
 total:
 * wall-time:     0 d,  0 h,  0 min,  2.871 sec
 *  cpu-time:     0 d,  0 h,  0 min, 45.682 sec
 * ratio c/w:    15.910 speedup
 SCF:
 * wall-time:     0 d,  0 h,  0 min,  0.235 sec
 *  cpu-time:     0 d,  0 h,  0 min,  3.770 sec
 * ratio c/w:    16.017 speedup
 ANC optimizer:
 * wall-time:     0 d,  0 h,  0 min,  2.578 sec
 *  cpu-time:     0 d,  0 h,  0 min, 41.069 sec
 * ratio c/w:    15.930 speedup

