31
 energy: -37.611179331912 gnorm: 0.000130156931 xtb: 6.7.1 (edcfbbe)
C           -4.84004575259750       -0.25798775526696        0.21162671476900
C           -3.37807184442131       -0.41298561500796       -0.18939358442644
C           -2.72769335257142        0.94059077782911       -0.46788285127496
C           -1.29849647826417        0.83022474451968       -1.00044460068509
C           -0.31982707757864        0.26520881944171        0.02984270286729
C            1.14214699919092        0.36047763395878       -0.42598539129236
O            1.39095637818242       -0.47277033072904       -1.54745540720818
C            2.09508846874592       -0.06476568570204        0.69538557272327
C            3.57377517647529        0.12186878512158        0.32417758045702
C            4.46785581606512       -0.02286275337346        1.55279558903700
O            3.99364727235064       -0.82823784458695       -0.62644723005874
H           -5.40643281491596        0.22201795788941       -0.58370079568514
H           -4.92661565588863        0.35202294956926        1.10823255999727
H           -5.28674833419067       -1.22876601325749        0.41280046470654
H           -2.84108536154596       -0.92277937380291        0.61191880663707
H           -3.31290966122345       -1.03561268822961       -1.08489252190994
H           -2.72627044656461        1.53622798187081        0.44780762917580
H           -3.33246795180021        1.47336454958303       -1.20609812894420
H           -1.30990159172918        0.19934986306270       -1.89387973277285
H           -0.96018403816774        1.82738296528506       -1.29755503147245
H           -0.54744859935271       -0.78313661950168        0.22698228549049
H           -0.42544646886044        0.82043918663300        0.96322704100576
H            1.36270910855938        1.40689986392619       -0.70085057073994
H            0.77227362121344       -0.24218573159613       -2.24768018784344
H            1.92562023398536       -1.11914433748370        0.92093975813193
H            1.87115176227609        0.52595027629180        1.58388951889988
H            3.70376444522093        1.13829857685913       -0.09284083113166
H            5.50809358387492        0.04449344943591        1.24785824918655
H            4.30679459259291       -0.99454505893167        2.01190090141224
H            4.25461377317999        0.75911404793814        2.27626058595643
H            3.27115419775805       -0.93816033449199       -1.26053909501034
