26
 energy: -29.495168108451 gnorm: 0.000479756693 xtb: 6.7.1 (edcfbbe)
C            2.32602740964021       -1.06091865761695        1.43203679296693
C            2.94756600216314       -0.27590812441964        0.55950737254536
C            2.40517808741611        0.22820160330207       -0.69560262702242
C            3.16973903280665        0.96667859933697       -1.50039416504309
C            0.97224591828364       -0.05987318419341       -1.04282249529164
C            0.02501708031679        0.88537830641233       -0.27966945947110
C           -1.40212202573856        0.56399403072320       -0.59416165523771
C           -2.27266213443429       -0.09523324823079        0.16105300334336
C           -3.66865668228295       -0.36716753932182       -0.32139557308806
C           -1.99275825828756       -0.63978883159458        1.53051755434779
H            1.32006142731986       -1.41557764223347        1.28668814688583
H            2.81212081152463       -1.38575047600249        2.33666285714272
H            3.96431334075312        0.03608717353276        0.76626362280485
H            4.19045386220538        1.20815485846705       -1.25449409713218
H            2.80098915085454        1.35558081273466       -2.43457532406305
H            0.81897195307553        0.07641241116615       -2.11480059443305
H            0.72154843149979       -1.09265691201848       -0.79676981260063
H            0.24120060398019        1.91205029417441       -0.58658979597377
H            0.22748322621308        0.80941946409115        0.78803795669187
H           -1.72100611725880        0.88941174413730       -1.57715071925180
H           -3.81456184173811       -0.00547123051961       -1.33569302313953
H           -4.39485422021790        0.12063792895054        0.32881762096579
H           -3.87325741519966       -1.43729188076039       -0.29916191154682
H           -2.79998187269046       -0.37047880903636        2.21093411934911
H           -1.05814919425647       -0.27007701068277        1.94074190939043
H           -1.94490657594636       -1.72904641146744        1.49202029686079
