49
REP_00024 MMFF geometry for GFN2-xTB preoptimization
C  -7.071230707642 -2.183356162358 -0.516052154186
O  -7.333165287938 -1.275566651663  0.548248255242
C  -6.440334131255 -0.247755349784  0.711422360199
C  -5.285490911450 -0.030536160082 -0.040754390853
C  -4.453349527157  1.072341165208  0.231570860232
C  -3.192657069200  1.279772041384 -0.565032918509
N  -2.128813413760  0.446848434063 -0.056894710087
C  -0.948315521349  0.316582577757 -0.753864826130
O  -0.772579083308  0.794534471931 -1.868471087792
C   0.088216589711 -0.504535523370 -0.007783791662
C   1.450842333087 -0.544000705139 -0.699988499780
C   2.218852101287  0.774952347550 -0.546115716060
C   3.552419714126  0.793294108703 -1.300765423075
C   4.560320068637 -0.177420240963 -0.751338518514
C   5.679085135568  0.190872005259 -0.106748575099
C   6.697332743368 -0.782858430144  0.433475353080
C   8.053312075799 -0.553196831803 -0.232896532372
C   6.811914318260 -0.638625122876  1.950591157209
C  -4.785096748244  1.945927340821  1.278457109129
C  -5.936513061401  1.733060281203  2.034169371272
C  -6.748343234148  0.644360375664  1.744336391090
O  -7.872113648532  0.457412844666  2.503104528394
H  -7.078902893553 -1.670816301115 -1.483701161004
H  -6.127889586025 -2.715829577035 -0.356267363749
H  -7.874847210333 -2.925978369505 -0.526361131154
H  -5.000270481670 -0.701911021229 -0.845244593542
H  -3.363740775129  1.051987753049 -1.623906620926
H  -2.862572375371  2.323978023058 -0.512953716357
H  -2.148250937515  0.199201517649  0.923895573001
H  -0.302078610427 -1.527316774662  0.060465128417
H   0.191883518270 -0.115501226882  1.011679937720
H   2.033694715537 -1.357001222466 -0.251852715364
H   1.330038296411 -0.783893510965 -1.763120457275
H   2.393648188761  0.975828728444  0.518498561468
H   1.606592019286  1.602184013672 -0.923913841051
H   3.385089736299  0.565433194424 -2.360262405217
H   3.955659396397  1.813152908406 -1.265326624626
H   4.358935019794 -1.233832351980 -0.915579159509
H   5.884155671105  1.249181528178  0.047848093779
H   6.382376553290 -1.811125426803  0.214233968908
H   7.982063274460 -0.675850057045 -1.319412724978
H   8.435925902213  0.454024300574 -0.032203021999
H   8.792287737698 -1.272767576889  0.135860399552
H   5.846924656649 -0.822783029507  2.435939058202
H   7.530935013104 -1.359567815898  2.354438080774
H   7.146201446254  0.365287139988  2.236210315783
H  -4.149213150458  2.797785396140  1.510251760616
H  -6.200562764788  2.408112419540  2.842767376533
H  -8.292375094702 -0.344089477163  2.134949193493
