      -----------------------------------------------------------      
     |                   =====================                   |     
     |                           x T B                           |     
     |                   =====================                   |     
     |                         S. Grimme                         |     
     |          Mulliken Center for Theoretical Chemistry        |     
     |                    University of Bonn                     |     
      -----------------------------------------------------------      

   * xtb version 6.7.1 (edcfbbe) compiled by 'conda@5dfe00f5fb80' on 2026-06-10

   xtb is free software: you can redistribute it and/or modify it under
   the terms of the GNU Lesser General Public License as published by
   the Free Software Foundation, either version 3 of the License, or
   (at your option) any later version.
   
   xtb is distributed in the hope that it will be useful,
   but WITHOUT ANY WARRANTY; without even the implied warranty of
   MERCHANTABILITY or FITNESS FOR A PARTICULAR PURPOSE.  See the
   GNU Lesser General Public License for more details.
   
   Cite this work as:
   * C. Bannwarth, E. Caldeweyher, S. Ehlert, A. Hansen, P. Pracht,
     J. Seibert, S. Spicher, S. Grimme, WIREs Comput. Mol. Sci., 2020, 11,
     e01493. DOI: 10.1002/wcms.1493
   
   for GFN2-xTB:
   * C. Bannwarth, S. Ehlert and S. Grimme., J. Chem. Theory Comput., 2019,
     15, 1652-1671. DOI: 10.1021/acs.jctc.8b01176
   for GFN1-xTB:
   * S. Grimme, C. Bannwarth, P. Shushkov, J. Chem. Theory Comput., 2017,
     13, 1989-2009. DOI: 10.1021/acs.jctc.7b00118
   for GFN0-xTB:
   * P. Pracht, E. Caldeweyher, S. Ehlert, S. Grimme, ChemRxiv, 2019, preprint.
     DOI: 10.26434/chemrxiv.8326202.v1
   for GFN-FF:
   * S. Spicher and S. Grimme, Angew. Chem. Int. Ed., 2020, 59, 15665-15673.
     DOI: 10.1002/anie.202004239
   
   for ALPB and GBSA implicit solvation:
   * S. Ehlert, M. Stahn, S. Spicher, S. Grimme, J. Chem. Theory Comput.,
     2021, 17, 4250-4261. DOI: 10.1021/acs.jctc.1c00471
   
   for ddCOSMO and CPCM-X implicit solvation:
   * M. Stahn, S. Ehlert, S. Grimme, J. Phys. Chem. A,
     2023, XX, XXXX-XXXX. DOI: 10.1021/acs.jpca.3c04382
   
   for DFT-D4:
   * E. Caldeweyher, C. Bannwarth and S. Grimme, J. Chem. Phys., 2017,
     147, 034112. DOI: 10.1063/1.4993215
   * E. Caldeweyher, S. Ehlert, A. Hansen, H. Neugebauer, S. Spicher,
     C. Bannwarth and S. Grimme, J. Chem. Phys., 2019, 150, 154122.
     DOI: 10.1063/1.5090222
   * E. Caldeweyher, J.-M. Mewes, S. Ehlert and S. Grimme, Phys. Chem. Chem. Phys.
     2020, 22, 8499-8512. DOI: 10.1039/D0CP00502A
   
   for sTDA-xTB:
   * S. Grimme and C. Bannwarth, J. Chem. Phys., 2016, 145, 054103.
     DOI: 10.1063/1.4959605
   
   in the mass-spec context:
   * V. Asgeirsson, C. Bauer and S. Grimme, Chem. Sci., 2017, 8, 4879.
     DOI: 10.1039/c7sc00601b
   * J. Koopman and S. Grimme, ACS Omega 2019, 4, 12, 15120-15133.
     DOI: 10.1021/acsomega.9b02011
   
   for metadynamics refer to:
   * S. Grimme, J. Chem. Theory Comput., 2019, 155, 2847-2862
     DOI: 10.1021/acs.jctc.9b00143
   
   for SPH calculations refer to:
   * S. Spicher and S. Grimme, J. Chem. Theory Comput., 2021, 17, 1701-1714
     DOI: 10.1021/acs.jctc.0c01306
   
   for ONIOM refer to:
   * C. Plett, A. Katbashev, S. Ehlert, S. Grimme, M. Bursch,
     Phys. Chem. Chem. Phys., 2023, 25, 17860-17868. DOI: 10.1039/D3CP02178E
   
   for DIPRO refer to:
   * J. Kohn, N. Gildemeister, S. Grimme, D. Fazzi, A. Hansen,
     J. Chem. Phys., 2023, just accepted.
   
   for PTB refer to:
   * S. Grimme, M. Mueller, A. Hansen, J. Chem. Phys., 2023, 158, 124111.
     DOI: 10.1063/5.0137838
   
   with help from (in alphabetical order)
   P. Atkinson, C. Bannwarth, F. Bohle, G. Brandenburg, E. Caldeweyher
   M. Checinski, S. Dohm, S. Ehlert, S. Ehrlich, I. Gerasimov, C. Hölzer
   A. Katbashev, J. Kohn, J. Koopman, C. Lavigne, S. Lehtola, F. März, M. Müller,
   F. Musil, H. Neugebauer, J. Pisarek, C. Plett, P. Pracht, F. Pultar,
   J. Seibert, P. Shushkov, S. Spicher, M. Stahn, M. Steiner, T. Strunk,
   J. Stückrath, T. Rose, and J. Unsleber
   
 * started run on 2026/07/08 at 10:31:43.675     
   ID    Z sym.   atoms
    1    6 C      1-4, 6-8
    2    8 O      5
    3    1 H      9-22

           -------------------------------------------------
          |                Calculation Setup                |
           -------------------------------------------------

          program call               : /home/ws/xd2484/miniforge3/envs/p3z_dft/bin/xtb xtb_input.xyz --gfn 2 --opt tight --cycles 500 --chrg 0 --uhf 0
          hostname                   : gpu10
          coordinate file            : xtb_input.xyz
          omp threads                :                    16


           -------------------------------------------------
          |                 G F N 2 - x T B                 |
           -------------------------------------------------

        Reference                      10.1021/acs.jctc.8b01176
      * Hamiltonian:
        H0-scaling (s, p, d)           1.850000    2.230000    2.230000
        zeta-weighting                 0.500000
      * Dispersion:
        s8                             2.700000
        a1                             0.520000
        a2                             5.000000
        s9                             5.000000
      * Repulsion:
        kExp                           1.500000    1.000000
        rExp                           1.000000
      * Coulomb:
        alpha                          2.000000
        third order                    shell-resolved
        anisotropic                    true
        a3                             3.000000
        a5                             4.000000
        cn-shift                       1.200000
        cn-exp                         4.000000
        max-rad                        5.000000


          ...................................................
          :                      SETUP                      :
          :.................................................:
          :  # basis functions                  46          :
          :  # atomic orbitals                  46          :
          :  # shells                           30          :
          :  # electrons                        48          :
          :  max. iterations                   250          :
          :  Hamiltonian                  GFN2-xTB          :
          :  restarted?                      false          :
          :  GBSA solvation                  false          :
          :  PC potential                    false          :
          :  electronic temp.          300.0000000     K    :
          :  accuracy                    1.0000000          :
          :  -> integral cutoff          0.2500000E+02      :
          :  -> integral neglect         0.1000000E-07      :
          :  -> SCF convergence          0.1000000E-05 Eh   :
          :  -> wf. convergence          0.1000000E-03 e    :
          :  Broyden damping             0.4000000          :
          :  net charge                          0          :
          :  unpaired electrons                  0          :
          ...................................................

 iter      E             dE          RMSdq      gap      omega  full diag
   1    -26.4528981 -0.264529E+02  0.341E+00    4.55       0.0  T
   2    -26.5196002 -0.667020E-01  0.174E+00    3.54       1.0  T
   3    -26.5264668 -0.686661E-02  0.115E+00    4.07       1.0  T
   4    -26.5310771 -0.461033E-02  0.229E-01    3.76       1.0  T
   5    -26.5314032 -0.326155E-03  0.770E-02    3.82       1.0  T
   6    -26.5314212 -0.179893E-04  0.279E-02    3.81       1.0  T
   7    -26.5314216 -0.368827E-06  0.601E-03    3.81       3.5  T
   8    -26.5314218 -0.173259E-06  0.168E-03    3.81      12.7  T
   9    -26.5314218 -0.699426E-09  0.582E-04    3.81      36.7  T
  10    -26.5314218 -0.326343E-08  0.204E-04    3.81     104.6  T

   *** convergence criteria satisfied after 10 iterations ***

         #    Occupation            Energy/Eh            Energy/eV
      -------------------------------------------------------------
         1        2.0000           -0.7001583             -19.0523
       ...           ...                  ...                  ...
        18        2.0000           -0.4638931             -12.6232
        19        2.0000           -0.4554451             -12.3933
        20        2.0000           -0.4426181             -12.0443
        21        2.0000           -0.4413184             -12.0089
        22        2.0000           -0.4318231             -11.7505
        23        2.0000           -0.4283595             -11.6563
        24        2.0000           -0.3912765             -10.6472 (HOMO)
        25                         -0.2512085              -6.8357 (LUMO)
        26                          0.0306862               0.8350
        27                          0.1118214               3.0428
        28                          0.1163695               3.1666
        29                          0.1259147               3.4263
       ...                                ...                  ...
        46                          0.5581245              15.1873
      -------------------------------------------------------------
                  HL-Gap            0.1400680 Eh            3.8114 eV
             Fermi-level           -0.3212425 Eh           -8.7415 eV

 SCC (total)                   0 d,  0 h,  0 min,  0.273 sec
 SCC setup                      ...        0 min,  0.006 sec (  2.329%)
 Dispersion                     ...        0 min,  0.013 sec (  4.864%)
 classical contributions        ...        0 min,  0.007 sec (  2.403%)
 integral evaluation            ...        0 min,  0.020 sec (  7.351%)
 iterations                     ...        0 min,  0.181 sec ( 66.298%)
 molecular gradient             ...        0 min,  0.046 sec ( 16.685%)
 printout                       ...        0 min,  0.000 sec (  0.059%)

         :::::::::::::::::::::::::::::::::::::::::::::::::::::
         ::                     SUMMARY                     ::
         :::::::::::::::::::::::::::::::::::::::::::::::::::::
         :: total energy             -26.189093576494 Eh    ::
         :: gradient norm              0.053682761184 Eh/a0 ::
         :: HOMO-LUMO gap              3.811444123543 eV    ::
         ::.................................................::
         :: SCC energy               -26.531475425186 Eh    ::
         :: -> isotropic ES            0.029229646768 Eh    ::
         :: -> anisotropic ES          0.005915111558 Eh    ::
         :: -> anisotropic XC          0.013421592424 Eh    ::
         :: -> dispersion             -0.012645031843 Eh    ::
         :: repulsion energy           0.342381848692 Eh    ::
         :: add. restraining           0.000000000000 Eh    ::
         :: total charge              -0.000000000000 e     ::
         :::::::::::::::::::::::::::::::::::::::::::::::::::::

      ----------------------------------------------------------- 
     |                   =====================                   |
     |                        A N C O P T                        |
     |                   =====================                   |
     |               Approximate Normal Coordinate               |
     |                Rational Function Optimizer                |
      ----------------------------------------------------------- 
      ----------------------------------------------------------- 
     |                   =====================                   |
     |                        A N C O P T                        |
     |                   =====================                   |
     |               Approximate Normal Coordinate               |
     |                Rational Function Optimizer                |
      ----------------------------------------------------------- 

          ...................................................
          :                      SETUP                      :
          :.................................................:
          :   optimization level             tight          :
          :   max. optcycles                   500          :
          :   ANC micro-cycles                  20          :
          :   degrees of freedom                60          :
          :.................................................:
          :   RF solver                   davidson          :
          :   write xtbopt.log                true          :
          :   linear?                        false          :
          :   energy convergence         0.1000000E-05 Eh   :
          :   grad. convergence          0.8000000E-03 Eh/α :
          :   maxmium RF displ.          1.0000000          :
          :   Hlow (freq-cutoff)         0.1000000E-01      :
          :   Hmax (freq-cutoff)         5.0000000          :
          :   S6 in model hess.         20.0000000          :
          ...................................................

generating ANC from exact Hessian ...
Using Lindh-Hessian (1995)
 Shifting diagonal of input Hessian by    8.9291379160590240E-003
 Lowest  eigenvalues of input Hessian
    0.000000    0.000000    0.000000    0.000000    0.000000    0.000000
    0.010000    0.010935    0.011401    0.014504    0.015576    0.016654
    0.018780    0.019785    0.020116    0.031815    0.032801    0.047165
 Highest eigenvalues
    1.182062    1.220508    1.225596    1.266796    1.381221    2.034907


........................................................................
.............................. CYCLE    1 ..............................
........................................................................

 iter      E             dE          RMSdq      gap      omega  full diag
   1    -26.5314218 -0.265314E+02  0.538E-05    3.81       0.0  T
   2    -26.5314218 -0.214087E-10  0.313E-05    3.81     681.3  T
   3    -26.5314218 -0.639488E-11  0.153E-05    3.81    1396.5  T
     SCC iter.                  ...        0 min,  0.044 sec
     gradient                   ...        0 min,  0.037 sec
 * total energy  :   -26.1890936 Eh     change       -0.2097913E-09 Eh
   gradient norm :     0.0536874 Eh/α   predicted     0.0000000E+00 (-100.00%)
   displ. norm   :     0.0868444 α      lambda       -0.2406036E-02
   maximum displ.:     0.0399759 α      in ANC's #40, #18, #7, ...

........................................................................
.............................. CYCLE    2 ..............................
........................................................................

 iter      E             dE          RMSdq      gap      omega  full diag
   1    -26.5462177 -0.265462E+02  0.914E-02    3.98       0.0  T
   2    -26.5462899 -0.721880E-04  0.547E-02    3.95       1.0  T
   3    -26.5462939 -0.399319E-05  0.306E-02    3.96       1.0  T
   4    -26.5462945 -0.567554E-06  0.759E-03    3.95       2.8  T
   5    -26.5462951 -0.583578E-06  0.294E-03    3.96       7.3  T
   6    -26.5462951 -0.641046E-07  0.101E-03    3.96      21.2  T
   7    -26.5462951 -0.127269E-08  0.455E-04    3.96      46.9  T
   8    -26.5462951 -0.334722E-09  0.938E-05    3.95     227.2  T
     SCC iter.                  ...        0 min,  0.120 sec
     gradient                   ...        0 min,  0.041 sec
 * total energy  :   -26.1905238 Eh     change       -0.1430240E-02 Eh
   gradient norm :     0.0113368 Eh/α   predicted    -0.1212106E-02 ( -15.25%)
   displ. norm   :     0.0588979 α      lambda       -0.1845798E-03
   maximum displ.:     0.0488700 α      in ANC's #7, #10, #29, ...

........................................................................
.............................. CYCLE    3 ..............................
........................................................................

 iter      E             dE          RMSdq      gap      omega  full diag
   1    -26.5496680 -0.265497E+02  0.433E-02    3.99       0.0  T
   2    -26.5496763 -0.828288E-05  0.236E-02    3.98       1.0  T
   3    -26.5496765 -0.205917E-06  0.105E-02    3.98       2.0  T
   4    -26.5496766 -0.131384E-06  0.194E-03    3.98      11.0  T
   5    -26.5496766 -0.330468E-07  0.726E-04    3.98      29.4  T
   6    -26.5496766 -0.461425E-08  0.186E-04    3.98     114.7  T
     SCC iter.                  ...        0 min,  0.083 sec
     gradient                   ...        0 min,  0.045 sec
 * total energy  :   -26.1906194 Eh     change       -0.9563060E-04 Eh
   gradient norm :     0.0013897 Eh/α   predicted    -0.9261321E-04 (  -3.16%)
   displ. norm   :     0.0200708 α      lambda       -0.5146344E-05
   maximum displ.:     0.0133031 α      in ANC's #2, #7, #10, ...

........................................................................
.............................. CYCLE    4 ..............................
........................................................................

 iter      E             dE          RMSdq      gap      omega  full diag
   1    -26.5495758 -0.265496E+02  0.865E-03    3.97       0.0  T
   2    -26.5495758 -0.279943E-07  0.500E-03    3.97       4.3  T
   3    -26.5495758  0.784657E-08  0.110E-03    3.97      19.5  T
   4    -26.5495758 -0.140968E-07  0.221E-04    3.97      96.4  T
   5    -26.5495758 -0.203826E-09  0.135E-04    3.97     158.0  T
     SCC iter.                  ...        0 min,  0.072 sec
     gradient                   ...        0 min,  0.037 sec
 * total energy  :   -26.1906232 Eh     change       -0.3752527E-05 Eh
   gradient norm :     0.0002698 Eh/α   predicted    -0.2584774E-05 ( -31.12%)
   displ. norm   :     0.0112249 α      lambda       -0.6787525E-06
   maximum displ.:     0.0110694 α      in ANC's #2, #29, #7, ...

........................................................................
.............................. CYCLE    5 ..............................
........................................................................

 iter      E             dE          RMSdq      gap      omega  full diag
   1    -26.5496187 -0.265496E+02  0.270E-03    3.97       0.0  T
   2    -26.5496187 -0.266085E-08  0.157E-03    3.97      13.6  T
   3    -26.5496187  0.186137E-09  0.219E-04    3.97      97.2  T
   4    -26.5496187 -0.441286E-09  0.636E-05    3.97     335.4  T
     SCC iter.                  ...        0 min,  0.051 sec
     gradient                   ...        0 min,  0.040 sec
 * total energy  :   -26.1906241 Eh     change       -0.8777080E-06 Eh
   gradient norm :     0.0001976 Eh/α   predicted    -0.3846412E-06 ( -56.18%)
   displ. norm   :     0.0091539 α      lambda       -0.4284572E-06
   maximum displ.:     0.0090355 α      in ANC's #2, #10, #7, ...

   *** GEOMETRY OPTIMIZATION CONVERGED AFTER 5 ITERATIONS ***

------------------------------------------------------------------------
 total energy gain   :        -0.0015305 Eh       -0.9604 kcal/mol
 total RMSD          :         0.0316830 a0        0.0168 Å
 total power (kW/mol):        -0.8036659 (step)   -5.2330 (real)
------------------------------------------------------------------------

 ANCopt (total)                0 d,  0 h,  0 min,  0.768 sec
 optimizer setup                ...        0 min,  0.001 sec (  0.089%)
 model hessian                  ...        0 min,  0.007 sec (  0.860%)
 ANC generation                 ...        0 min,  0.001 sec (  0.106%)
 coordinate transformation      ...        0 min,  0.000 sec (  0.007%)
 single point calculation       ...        0 min,  0.740 sec ( 96.324%)
 optimization log               ...        0 min,  0.001 sec (  0.067%)
 hessian update                 ...        0 min,  0.018 sec (  2.397%)
 rational function              ...        0 min,  0.000 sec (  0.052%)

================
 final structure:
================
22
 xtb: 6.7.1 (edcfbbe)
C            3.78827208287166        0.03130409160022       -0.57442459806648
C            2.52863804204090       -0.44534179878207        0.13575220061923
C            1.26840212023227        0.14902128134879       -0.48711217908547
C            0.00439970527776       -0.31597896012459        0.20897183586234
O            0.01490586765378       -1.07052890833660        1.14718896597427
C           -1.27396159219617        0.25027073824098       -0.37721409987242
C           -2.51903517726280       -0.24432240620831        0.35394352691933
C           -3.79334811472140        0.33323567999372       -0.24670071164965
H            3.87329920897951        1.11482855313083       -0.51997050291831
H            3.77092160888348       -0.25840964042363       -1.62322631008559
H            4.67137224993077       -0.40440519427896       -0.11403912564079
H            2.56769544235048       -0.16556479900528        1.18977276585618
H            2.46568896871348       -1.53380508512094        0.09052963719128
H            1.30418480070335        1.24059294138429       -0.44271582109601
H            1.20214161510297       -0.12815398717357       -1.54236740006249
H           -1.21903012400133        1.34107968217477       -0.33364202639826
H           -1.32107299230756       -0.02766378980452       -1.43329793290886
H           -2.54681060875877       -1.33418637732739        0.30719899202699
H           -2.44480885790330        0.03405252494962        1.40644428276390
H           -4.66528806005039       -0.03258487047718        0.28954487300919
H           -3.78709705294805        1.41989699383408       -0.18883683844136
H           -3.88946913259063        0.04666333040474       -1.29209879880802

 Bond Distances (Angstroems)
 ---------------------------
C1-C2=1.5226         C1-H9=1.0882         C1-H10=1.0882        C1-H11=1.0870        C2-C1=1.5226         C2-C3=1.5262         
C2-H12=1.0912        C2-H13=1.0912        C3-C2=1.5262         C3-C4=1.5161         C3-H14=1.0931        C3-H15=1.0931        
C4-C3=1.5161         C4-O5=1.2040         C4-C6=1.5161         O5-C4=1.2040         C6-C4=1.5161         C6-C7=1.5262         
C6-H16=1.0931        C6-H17=1.0931        C7-C6=1.5262         C7-C8=1.5226         C7-H18=1.0912        C7-H19=1.0912        
C8-C7=1.5226         C8-H20=1.0870        C8-H21=1.0882        C8-H22=1.0882        H9-C1=1.0882         H10-C1=1.0882        
H11-C1=1.0870        H12-C2=1.0912        H13-C2=1.0912        H14-C3=1.0931        H15-C3=1.0931        H16-C6=1.0931        
H17-C6=1.0931        H18-C7=1.0912        H19-C7=1.0912        H20-C8=1.0870        H21-C8=1.0882        H22-C8=1.0882        
 C  H  Rav=1.0903 sigma=0.0023  Rmin=1.0870  Rmax=1.0931    14
 C  C  Rav=1.5216 sigma=0.0042  Rmin=1.5161  Rmax=1.5262     6
 O  C  Rav=1.2040 sigma=0.0000  Rmin=1.2040  Rmax=1.2040     1

 selected bond angles (degree)
 --------------------
H9-C1-C2=110.67                H10-C1-C2=110.67               H10-C1-H9=108.33               H11-C1-C2=110.43               
H11-C1-H9=108.33               H11-C1-H10=108.33              C3-C2-C1=111.77                H12-C2-C1=109.92               
H12-C2-C3=108.90               H13-C2-C1=109.92               H13-C2-C3=108.90               H13-C2-H12=107.33              
C4-C3-C2=112.43                H14-C3-C2=110.20               H14-C3-C4=108.36               H15-C3-C2=110.20               
H15-C3-C4=108.36               H15-C3-H14=107.12              O5-C4-C3=122.87                C6-C4-C3=114.26                
C6-C4-O5=122.87                C7-C6-C4=112.43                H16-C6-C4=108.36               H16-C6-C7=110.20               
H17-C6-C4=108.36               H17-C6-C7=110.20               H17-C6-H16=107.12              C8-C7-C6=111.77                
H18-C7-C6=108.90               H18-C7-C8=109.92               H19-C7-C6=108.90               H19-C7-C8=109.92               
H19-C7-H18=107.33              H20-C8-C7=110.43               H21-C8-C7=110.67               H21-C8-H20=108.33              
H22-C8-C7=110.67               H22-C8-H20=108.33              H22-C8-H21=108.33              

 selected dihedral angles (degree)
 ---------------------------------
C3-C2-C1-H9= 60.06            C3-C2-C1-H10=299.94           C3-C2-C1-H11=180.00           H12-C2-C1-H9=299.01           
H12-C2-C1-H10=178.90          H12-C2-C1-H11= 58.96          H13-C2-C1-H9=181.10           H13-C2-C1-H10= 60.98          
H13-C2-C1-H11=301.04          C4-C3-C2-C1=180.00            C4-C3-C2-H12=301.63           C4-C3-C2-H13= 58.37           
H14-C3-C2-C1=300.99           H14-C3-C2-H12= 62.62          H14-C3-C2-H13=179.36          H15-C3-C2-C1= 59.01           
H15-C3-C2-H12=180.64          H15-C3-C2-H13=297.38          O5-C4-C3-C2=  0.00            O5-C4-C3-H14=237.95           
O5-C4-C3-H15=122.04           C6-C4-C3-C2=180.00            C6-C4-C3-H14= 57.95           C6-C4-C3-H15=302.04           
C7-C6-C4-C3=180.00            C7-C6-C4-O5=  0.00            H16-C6-C4-C3=302.04           H16-C6-C4-O5=122.04           
H17-C6-C4-C3= 57.95           H17-C6-C4-O5=237.95           C8-C7-C6-C4=180.00            C8-C7-C6-H16= 59.01           
C8-C7-C6-H17=300.99           H18-C7-C6-C4=301.63           H18-C7-C6-H16=180.64          H18-C7-C6-H17= 62.62          
H19-C7-C6-C4= 58.37           H19-C7-C6-H16=297.38          H19-C7-C6-H17=179.36          H20-C8-C7-C6=180.00           
H20-C8-C7-H18= 58.96          H20-C8-C7-H19=301.04          H21-C8-C7-C6=299.94           H21-C8-C7-H18=178.90          
H21-C8-C7-H19= 60.98          H22-C8-C7-C6= 60.06           H22-C8-C7-H18=299.01          H22-C8-C7-H19=181.10          
           -------------------------------------------------
          |                Final Singlepoint                |
           -------------------------------------------------

          ...................................................
          :                      SETUP                      :
          :.................................................:
          :  # basis functions                  46          :
          :  # atomic orbitals                  46          :
          :  # shells                           30          :
          :  # electrons                        48          :
          :  max. iterations                   250          :
          :  Hamiltonian                  GFN2-xTB          :
          :  restarted?                      false          :
          :  GBSA solvation                  false          :
          :  PC potential                    false          :
          :  electronic temp.          300.0000000     K    :
          :  accuracy                    1.0000000          :
          :  -> integral cutoff          0.2500000E+02      :
          :  -> integral neglect         0.1000000E-07      :
          :  -> SCF convergence          0.1000000E-05 Eh   :
          :  -> wf. convergence          0.1000000E-03 e    :
          :  Broyden damping             0.4000000          :
          :  net charge                          0          :
          :  unpaired electrons                  0          :
          ...................................................

 iter      E             dE          RMSdq      gap      omega  full diag
   1    -26.5496187 -0.265496E+02  0.248E-05    3.97       0.0  T
   2    -26.5496187 -0.102673E-11  0.147E-05    3.97    1453.0  T
   3    -26.5496187  0.746070E-13  0.732E-06    3.97    2912.6  T

   *** convergence criteria satisfied after 3 iterations ***

         #    Occupation            Energy/Eh            Energy/eV
      -------------------------------------------------------------
         1        2.0000           -0.7069088             -19.2360
       ...           ...                  ...                  ...
        18        2.0000           -0.4640685             -12.6279
        19        2.0000           -0.4565431             -12.4232
        20        2.0000           -0.4425221             -12.0416
        21        2.0000           -0.4408646             -11.9965
        22        2.0000           -0.4321478             -11.7593
        23        2.0000           -0.4282269             -11.6526
        24        2.0000           -0.3902097             -10.6181 (HOMO)
        25                         -0.2441836              -6.6446 (LUMO)
        26                          0.0371799               1.0117
        27                          0.1153274               3.1382
        28                          0.1200776               3.2675
        29                          0.1273157               3.4644
       ...                                ...                  ...
        46                          0.6385581              17.3761
      -------------------------------------------------------------
                  HL-Gap            0.1460261 Eh            3.9736 eV
             Fermi-level           -0.3171966 Eh           -8.6314 eV

 SCC (total)                   0 d,  0 h,  0 min,  0.127 sec
 SCC setup                      ...        0 min,  0.005 sec (  3.558%)
 Dispersion                     ...        0 min,  0.009 sec (  6.941%)
 classical contributions        ...        0 min,  0.004 sec (  2.928%)
 integral evaluation            ...        0 min,  0.016 sec ( 12.683%)
 iterations                     ...        0 min,  0.047 sec ( 36.848%)
 molecular gradient             ...        0 min,  0.047 sec ( 36.934%)
 printout                       ...        0 min,  0.000 sec (  0.087%)

         :::::::::::::::::::::::::::::::::::::::::::::::::::::
         ::                     SUMMARY                     ::
         :::::::::::::::::::::::::::::::::::::::::::::::::::::
         :: total energy             -26.190624077364 Eh    ::
         :: gradient norm              0.000196989021 Eh/a0 ::
         :: HOMO-LUMO gap              3.973572403788 eV    ::
         ::.................................................::
         :: SCC energy               -26.549672901069 Eh    ::
         :: -> isotropic ES            0.028155606877 Eh    ::
         :: -> anisotropic ES          0.005767474672 Eh    ::
         :: -> anisotropic XC          0.012832897567 Eh    ::
         :: -> dispersion             -0.012692443666 Eh    ::
         :: repulsion energy           0.359048823705 Eh    ::
         :: add. restraining           0.000000000000 Eh    ::
         :: total charge              -0.000000000000 e     ::
         :::::::::::::::::::::::::::::::::::::::::::::::::::::

           -------------------------------------------------
          |                Property Printout                |
           -------------------------------------------------

    * Orbital Energies and Occupations

         #    Occupation            Energy/Eh            Energy/eV
      -------------------------------------------------------------
         1        2.0000           -0.7069088             -19.2360
       ...           ...                  ...                  ...
        12        2.0000           -0.5149756             -14.0132
        13        2.0000           -0.5018458             -13.6559
        14        2.0000           -0.4882180             -13.2851
        15        2.0000           -0.4799677             -13.0606
        16        2.0000           -0.4693008             -12.7703
        17        2.0000           -0.4691542             -12.7663
        18        2.0000           -0.4640685             -12.6279
        19        2.0000           -0.4565431             -12.4232
        20        2.0000           -0.4425221             -12.0416
        21        2.0000           -0.4408646             -11.9965
        22        2.0000           -0.4321478             -11.7593
        23        2.0000           -0.4282269             -11.6526
        24        2.0000           -0.3902097             -10.6181 (HOMO)
        25                         -0.2441836              -6.6446 (LUMO)
        26                          0.0371799               1.0117
        27                          0.1153274               3.1382
        28                          0.1200776               3.2675
        29                          0.1273157               3.4644
        30                          0.1330485               3.6204
        31                          0.1369046               3.7254
        32                          0.1426761               3.8824
        33                          0.1558231               4.2402
        34                          0.1613172               4.3897
        35                          0.1673169               4.5529
       ...                                ...                  ...
        46                          0.6385581              17.3761
      -------------------------------------------------------------
                  HL-Gap            0.1460261 Eh            3.9736 eV
             Fermi-level           -0.3171966 Eh           -8.6314 eV

     #   Z          covCN         q      C6AA      α(0)
     1   6 C        3.752    -0.105    22.559     6.773
     2   6 C        3.802    -0.050    21.475     6.598
     3   6 C        3.804    -0.088    22.171     6.703
     4   6 C        2.812     0.234    23.108     7.876
     5   8 O        0.857    -0.354    20.792     6.113
     6   6 C        3.804    -0.088    22.171     6.703
     7   6 C        3.802    -0.050    21.475     6.598
     8   6 C        3.752    -0.105    22.559     6.773
     9   1 H        0.925     0.034     2.535     2.490
    10   1 H        0.925     0.034     2.535     2.490
    11   1 H        0.925     0.038     2.476     2.461
    12   1 H        0.924     0.045     2.386     2.416
    13   1 H        0.924     0.045     2.386     2.416
    14   1 H        0.924     0.054     2.270     2.356
    15   1 H        0.924     0.054     2.270     2.356
    16   1 H        0.924     0.054     2.270     2.356
    17   1 H        0.924     0.054     2.270     2.356
    18   1 H        0.924     0.045     2.386     2.416
    19   1 H        0.924     0.045     2.386     2.416
    20   1 H        0.925     0.038     2.476     2.461
    21   1 H        0.925     0.034     2.535     2.490
    22   1 H        0.925     0.034     2.535     2.490

 Mol. C6AA /au·bohr⁶  :       3498.496384
 Mol. C8AA /au·bohr⁸  :      74476.556756
 Mol. α(0) /au        :         88.105842


Wiberg/Mayer (AO) data.
largest (>0.10) Wiberg bond orders for each atom

 ---------------------------------------------------------------------------
     #   Z sym  total        # sym  WBO       # sym  WBO       # sym  WBO
 ---------------------------------------------------------------------------
     1   6 C    3.996 --     2 C    1.020    10 H    0.988     9 H    0.988
                            11 H    0.987
     2   6 C    3.995 --     1 C    1.020     3 C    1.008    12 H    0.977
                            13 H    0.977
     3   6 C    3.997 --     2 C    1.008     4 C    0.985    14 H    0.953
                            15 H    0.953
     4   6 C    3.917 --     5 O    1.872     6 C    0.985     3 C    0.985
     5   8 O    2.079 --     4 C    1.872
     6   6 C    3.997 --     7 C    1.008     4 C    0.985    17 H    0.953
                            16 H    0.953
     7   6 C    3.995 --     8 C    1.020     6 C    1.008    19 H    0.977
                            18 H    0.977
     8   6 C    3.996 --     7 C    1.020    21 H    0.988    22 H    0.988
                            20 H    0.987
     9   1 H    0.999 --     1 C    0.988
    10   1 H    0.999 --     1 C    0.988
    11   1 H    0.998 --     1 C    0.987
    12   1 H    0.998 --     2 C    0.977
    13   1 H    0.998 --     2 C    0.977
    14   1 H    0.997 --     3 C    0.953
    15   1 H    0.997 --     3 C    0.953
    16   1 H    0.997 --     6 C    0.953
    17   1 H    0.997 --     6 C    0.953
    18   1 H    0.998 --     7 C    0.977
    19   1 H    0.998 --     7 C    0.977
    20   1 H    0.998 --     8 C    0.987
    21   1 H    0.999 --     8 C    0.988
    22   1 H    0.999 --     8 C    0.988
 ---------------------------------------------------------------------------

Topologies differ in total number of bonds
Writing topology from bond orders to xtbtopo.mol

molecular dipole:
                 x           y           z       tot (Debye)
 q only:       -0.009       0.615      -0.765
   full:       -0.011       0.775      -0.963       3.142
molecular quadrupole (traceless):
                xx          xy          yy          xz          yz          zz
 q only:        3.997      -0.137      -1.900      -0.203       1.955      -2.097
  q+dip:        2.186       0.053      -0.734      -0.039       3.515      -1.451
   full:        2.728       0.032      -0.959      -0.068       3.730      -1.769

           -------------------------------------------------
          |                Geometry Summary                 |
           -------------------------------------------------

      molecular mass/u    :      114.1857267
   center of mass at/Å    :        0.0022814      -0.1638506       0.0198118
  moments of inertia/u·Å² :        0.7630608E+02   0.6835359E+03   0.7410996E+03
rotational constants/cm⁻¹ :        0.2209212E+00   0.2466240E-01   0.2274678E-01

 * 19 selected distances

     #   Z          #   Z                                           value/Å
     1   6 C        2   6 C                                       1.5225704
     2   6 C        3   6 C                                       1.5262446
     4   6 C        5   8 O                                       1.2040381
     6   6 C        7   6 C                                       1.5262446 (max)
     7   6 C        8   6 C                                       1.5225704
     1   6 C        9   1 H                                       1.0882189
     1   6 C       10   1 H                                       1.0882189
     1   6 C       11   1 H                                       1.0870435 (min)
     2   6 C       12   1 H                                       1.0912196
     2   6 C       13   1 H                                       1.0912196
     3   6 C       14   1 H                                       1.0930601
     3   6 C       15   1 H                                       1.0930601
     6   6 C       16   1 H                                       1.0930601
     6   6 C       17   1 H                                       1.0930601
     7   6 C       18   1 H                                       1.0912196
     7   6 C       19   1 H                                       1.0912196
     8   6 C       20   1 H                                       1.0870435
     8   6 C       21   1 H                                       1.0882189
     8   6 C       22   1 H                                       1.0882189

 * 3 distinct bonds (by element types)

   Z      Z             #   av. dist./Å        max./Å        min./Å
   1 H    6 C          14     1.0902915     1.0930601     1.0870435
   6 C    6 C           4     1.5244075     1.5262446     1.5225704
   6 C    8 O           1     1.2040381     1.2040381     1.2040381


optimized geometry written to: xtbopt.xyz


           -------------------------------------------------
          | TOTAL ENERGY              -26.190624077364 Eh   |
          | GRADIENT NORM               0.000196989021 Eh/α |
          | HOMO-LUMO GAP               3.973572403788 eV   |
           -------------------------------------------------

------------------------------------------------------------------------
 * finished run on 2026/07/08 at 10:31:44.908     
------------------------------------------------------------------------
 total:
 * wall-time:     0 d,  0 h,  0 min,  1.233 sec
 *  cpu-time:     0 d,  0 h,  0 min, 19.628 sec
 * ratio c/w:    15.923 speedup
 SCF:
 * wall-time:     0 d,  0 h,  0 min,  0.273 sec
 *  cpu-time:     0 d,  0 h,  0 min,  4.380 sec
 * ratio c/w:    16.017 speedup
 ANC optimizer:
 * wall-time:     0 d,  0 h,  0 min,  0.900 sec
 *  cpu-time:     0 d,  0 h,  0 min, 14.351 sec
 * ratio c/w:    15.951 speedup

