22
REP_00316 MMFF geometry for GFN2-xTB preoptimization
C   3.794464069495  0.029221813496 -0.572407356597
C   2.534605014915 -0.444236464334  0.133822154322
C   1.280992491933  0.155505992392 -0.496352355441
C   0.004206788002 -0.302124024112  0.191743942012
O   0.014938890085 -1.072907630552  1.150145294734
C  -1.286746573056  0.257766363992 -0.385356856593
C  -2.525039582777 -0.242739568539  0.352531590050
C  -3.799488954478  0.331644269321 -0.244150749227
H   3.889044681772  1.118441482931 -0.517713396200
H   3.786072318078 -0.262793772676 -1.627392231562
H   4.679972545704 -0.412485207043 -0.104778430354
H   2.588976156881 -0.168818347390  1.193842656745
H   2.486825298007 -1.539000671432  0.093038437512
H   1.321047678619  1.248903763627 -0.438072607973
H   1.217803466206 -0.135951513227 -1.550666966215
H  -1.234716903290  1.350686973112 -0.327591799396
H  -1.337961180409 -0.034165039755 -1.440189756132
H  -2.567997232820 -1.337695892972  0.311539641499
H  -2.465850960568  0.032486731390  1.412343981019
H  -4.673672698323 -0.039991246284  0.299537351069
H  -3.802254768689  1.424740349885 -0.185241815190
H  -3.905220545287  0.043511638169 -1.294929992893
