23
 energy: -33.506318716793 gnorm: 0.000099364950 xtb: 6.7.1 (edcfbbe)
C            4.21189116426772        0.40989390382574       -0.07631375705289
C            2.76053046505972        0.54384445240311       -0.50994227704170
O            1.96493341644182       -0.13712984482800        0.43935941168800
C            0.61791496540418       -0.18434351750380        0.25997052790432
C           -0.07259695946720        0.40614186848577       -0.79244381966178
C           -1.44976654934740        0.28457642088378       -0.86747354163565
C           -2.16480542535764       -0.41263294098158        0.09354521802378
C           -3.66533827977378       -0.53326415672686       -0.01022567885129
O           -4.28464143275269        0.59349526945560       -0.58715331499751
C           -1.47000966074278       -0.99674884020858        1.14699427404086
C           -0.09905565925985       -0.88862287153170        1.22972089923259
H            4.49062657449751       -0.63943664292843       -0.03610823686812
H            4.85816026791804        0.92509860421632       -0.78119642385329
H            4.34451558826442        0.84083946319131        0.91218190321156
H            2.62060530565316        0.10232217548878       -1.50664732415144
H            2.47370929696532        1.60422215698093       -0.55224456202592
H            0.44631403027797        0.95892827286071       -1.55975166534107
H           -1.98161664603124        0.74053745241419       -1.69002280488897
H           -4.08881011762660       -0.73938554819801        0.98452360349495
H           -3.92627250328480       -1.37025372616497       -0.66728862982165
H           -4.02460650405763        1.37471565605602       -0.08626062312114
H           -2.00980021477762       -1.54312220112264        1.90703626549470
H            0.44811887772754       -1.33967540606677        2.04236508035756
