23
 energy: -34.314502769038 gnorm: 0.000140015914 xtb: 6.7.1 (edcfbbe)
C           -2.37033815671696        0.86870915038365        0.45160784768188
C           -1.91278508555055        0.04924203301312       -0.75267024107241
C           -2.92037074657589       -1.06191061588053       -1.04239631232567
C           -0.52609306905583       -0.56317125515555       -0.52725619710754
C            0.57800936083903        0.47897362510711       -0.42934277310095
O            1.83749438142063       -0.20773010891177       -0.40633762604285
C            2.92007550186590        0.55300754764805       -0.25224817904203
O            2.90773863166932        1.74401529486039       -0.13575306728515
C            4.15632369205292       -0.33400181350467       -0.24698878039248
Cl           5.62595707088004        0.63942724779044       -0.08290173902193
H           -2.37600851999924        0.25337460741797        1.34858941293360
H           -3.37837073691801        1.24255119091427        0.28844493807108
H           -1.71830761014416        1.72142785036478        0.61887387236852
H           -1.86207139311063        0.70921375613051       -1.62573816823218
H           -2.98984271900158       -1.74008968362083       -0.19486461836420
H           -3.90622203131115       -0.64246254817581       -1.22694231936778
H           -2.62330119202957       -1.63491303490993       -1.91748338786306
H           -0.53217225829857       -1.16321284697862        0.38429623634867
H           -0.28506230754643       -1.22657834983126       -1.36012370409119
H            0.56262011707564        1.15396414222154       -1.29237421653664
H            0.49641473435254        1.08321086064638        0.47894730041660
H            4.21140557503146       -0.89369231644749       -1.18102666080710
H            4.10490676107012       -1.02935473308073        0.59139591250090
