      -----------------------------------------------------------      
     |                   =====================                   |     
     |                           x T B                           |     
     |                   =====================                   |     
     |                         S. Grimme                         |     
     |          Mulliken Center for Theoretical Chemistry        |     
     |                    University of Bonn                     |     
      -----------------------------------------------------------      

   * xtb version 6.7.1 (edcfbbe) compiled by 'conda@5dfe00f5fb80' on 2026-06-10

   xtb is free software: you can redistribute it and/or modify it under
   the terms of the GNU Lesser General Public License as published by
   the Free Software Foundation, either version 3 of the License, or
   (at your option) any later version.
   
   xtb is distributed in the hope that it will be useful,
   but WITHOUT ANY WARRANTY; without even the implied warranty of
   MERCHANTABILITY or FITNESS FOR A PARTICULAR PURPOSE.  See the
   GNU Lesser General Public License for more details.
   
   Cite this work as:
   * C. Bannwarth, E. Caldeweyher, S. Ehlert, A. Hansen, P. Pracht,
     J. Seibert, S. Spicher, S. Grimme, WIREs Comput. Mol. Sci., 2020, 11,
     e01493. DOI: 10.1002/wcms.1493
   
   for GFN2-xTB:
   * C. Bannwarth, S. Ehlert and S. Grimme., J. Chem. Theory Comput., 2019,
     15, 1652-1671. DOI: 10.1021/acs.jctc.8b01176
   for GFN1-xTB:
   * S. Grimme, C. Bannwarth, P. Shushkov, J. Chem. Theory Comput., 2017,
     13, 1989-2009. DOI: 10.1021/acs.jctc.7b00118
   for GFN0-xTB:
   * P. Pracht, E. Caldeweyher, S. Ehlert, S. Grimme, ChemRxiv, 2019, preprint.
     DOI: 10.26434/chemrxiv.8326202.v1
   for GFN-FF:
   * S. Spicher and S. Grimme, Angew. Chem. Int. Ed., 2020, 59, 15665-15673.
     DOI: 10.1002/anie.202004239
   
   for ALPB and GBSA implicit solvation:
   * S. Ehlert, M. Stahn, S. Spicher, S. Grimme, J. Chem. Theory Comput.,
     2021, 17, 4250-4261. DOI: 10.1021/acs.jctc.1c00471
   
   for ddCOSMO and CPCM-X implicit solvation:
   * M. Stahn, S. Ehlert, S. Grimme, J. Phys. Chem. A,
     2023, XX, XXXX-XXXX. DOI: 10.1021/acs.jpca.3c04382
   
   for DFT-D4:
   * E. Caldeweyher, C. Bannwarth and S. Grimme, J. Chem. Phys., 2017,
     147, 034112. DOI: 10.1063/1.4993215
   * E. Caldeweyher, S. Ehlert, A. Hansen, H. Neugebauer, S. Spicher,
     C. Bannwarth and S. Grimme, J. Chem. Phys., 2019, 150, 154122.
     DOI: 10.1063/1.5090222
   * E. Caldeweyher, J.-M. Mewes, S. Ehlert and S. Grimme, Phys. Chem. Chem. Phys.
     2020, 22, 8499-8512. DOI: 10.1039/D0CP00502A
   
   for sTDA-xTB:
   * S. Grimme and C. Bannwarth, J. Chem. Phys., 2016, 145, 054103.
     DOI: 10.1063/1.4959605
   
   in the mass-spec context:
   * V. Asgeirsson, C. Bauer and S. Grimme, Chem. Sci., 2017, 8, 4879.
     DOI: 10.1039/c7sc00601b
   * J. Koopman and S. Grimme, ACS Omega 2019, 4, 12, 15120-15133.
     DOI: 10.1021/acsomega.9b02011
   
   for metadynamics refer to:
   * S. Grimme, J. Chem. Theory Comput., 2019, 155, 2847-2862
     DOI: 10.1021/acs.jctc.9b00143
   
   for SPH calculations refer to:
   * S. Spicher and S. Grimme, J. Chem. Theory Comput., 2021, 17, 1701-1714
     DOI: 10.1021/acs.jctc.0c01306
   
   for ONIOM refer to:
   * C. Plett, A. Katbashev, S. Ehlert, S. Grimme, M. Bursch,
     Phys. Chem. Chem. Phys., 2023, 25, 17860-17868. DOI: 10.1039/D3CP02178E
   
   for DIPRO refer to:
   * J. Kohn, N. Gildemeister, S. Grimme, D. Fazzi, A. Hansen,
     J. Chem. Phys., 2023, just accepted.
   
   for PTB refer to:
   * S. Grimme, M. Mueller, A. Hansen, J. Chem. Phys., 2023, 158, 124111.
     DOI: 10.1063/5.0137838
   
   with help from (in alphabetical order)
   P. Atkinson, C. Bannwarth, F. Bohle, G. Brandenburg, E. Caldeweyher
   M. Checinski, S. Dohm, S. Ehlert, S. Ehrlich, I. Gerasimov, C. Hölzer
   A. Katbashev, J. Kohn, J. Koopman, C. Lavigne, S. Lehtola, F. März, M. Müller,
   F. Musil, H. Neugebauer, J. Pisarek, C. Plett, P. Pracht, F. Pultar,
   J. Seibert, P. Shushkov, S. Spicher, M. Stahn, M. Steiner, T. Strunk,
   J. Stückrath, T. Rose, and J. Unsleber
   
 * started run on 2026/07/09 at 20:39:27.891     
   ID    Z sym.   atoms
    1    6 C      1-4, 6, 8, 10, 11
    2    8 O      5, 7, 9, 12
    3    1 H      13-26

           -------------------------------------------------
          |                Calculation Setup                |
           -------------------------------------------------

          program call               : /home/ws/xd2484/miniforge3/envs/p3z_dft/bin/xtb xtb_input.xyz --gfn 2 --opt tight --cycles 500 --chrg 0 --uhf 0
          hostname                   : gpu10
          coordinate file            : xtb_input.xyz
          omp threads                :                    16


           -------------------------------------------------
          |                 G F N 2 - x T B                 |
           -------------------------------------------------

        Reference                      10.1021/acs.jctc.8b01176
      * Hamiltonian:
        H0-scaling (s, p, d)           1.850000    2.230000    2.230000
        zeta-weighting                 0.500000
      * Dispersion:
        s8                             2.700000
        a1                             0.520000
        a2                             5.000000
        s9                             5.000000
      * Repulsion:
        kExp                           1.500000    1.000000
        rExp                           1.000000
      * Coulomb:
        alpha                          2.000000
        third order                    shell-resolved
        anisotropic                    true
        a3                             3.000000
        a5                             4.000000
        cn-shift                       1.200000
        cn-exp                         4.000000
        max-rad                        5.000000


          ...................................................
          :                      SETUP                      :
          :.................................................:
          :  # basis functions                  62          :
          :  # atomic orbitals                  62          :
          :  # shells                           38          :
          :  # electrons                        70          :
          :  max. iterations                   250          :
          :  Hamiltonian                  GFN2-xTB          :
          :  restarted?                      false          :
          :  GBSA solvation                  false          :
          :  PC potential                    false          :
          :  electronic temp.          300.0000000     K    :
          :  accuracy                    1.0000000          :
          :  -> integral cutoff          0.2500000E+02      :
          :  -> integral neglect         0.1000000E-07      :
          :  -> SCF convergence          0.1000000E-05 Eh   :
          :  -> wf. convergence          0.1000000E-03 e    :
          :  Broyden damping             0.4000000          :
          :  net charge                          0          :
          :  unpaired electrons                  0          :
          ...................................................

 iter      E             dE          RMSdq      gap      omega  full diag
   1    -40.8518953 -0.408519E+02  0.425E+00    5.49       0.0  T
   2    -40.9458507 -0.939553E-01  0.218E+00    4.40       1.0  T
   3    -40.9521673 -0.631661E-02  0.128E+00    4.87       1.0  T
   4    -40.9577546 -0.558727E-02  0.161E-01    4.57       1.0  T
   5    -40.9580115 -0.256969E-03  0.725E-02    4.64       1.0  T
   6    -40.9580168 -0.530472E-05  0.246E-02    4.64       1.0  T
   7    -40.9580203 -0.344572E-05  0.806E-03    4.64       2.4  T
   8    -40.9580205 -0.220599E-06  0.317E-03    4.64       6.2  T
   9    -40.9580206 -0.773698E-07  0.137E-03    4.64      14.3  T
  10    -40.9580206 -0.616356E-08  0.439E-04    4.64      44.7  T
  11    -40.9580206 -0.117694E-08  0.150E-04    4.64     130.4  T

   *** convergence criteria satisfied after 11 iterations ***

         #    Occupation            Energy/Eh            Energy/eV
      -------------------------------------------------------------
         1        2.0000           -0.7480563             -20.3556
       ...           ...                  ...                  ...
        29        2.0000           -0.4694148             -12.7734
        30        2.0000           -0.4652480             -12.6600
        31        2.0000           -0.4612951             -12.5525
        32        2.0000           -0.4384950             -11.9321
        33        2.0000           -0.4355526             -11.8520
        34        2.0000           -0.4262673             -11.5993
        35        2.0000           -0.4218620             -11.4794 (HOMO)
        36                         -0.2513329              -6.8391 (LUMO)
        37                         -0.2409678              -6.5571
        38                         -0.0401696              -1.0931
        39                          0.0167286               0.4552
        40                          0.0677136               1.8426
       ...                                ...                  ...
        62                          0.5918954              16.1063
      -------------------------------------------------------------
                  HL-Gap            0.1705291 Eh            4.6403 eV
             Fermi-level           -0.3365974 Eh           -9.1593 eV

 SCC (total)                   0 d,  0 h,  0 min,  0.272 sec
 SCC setup                      ...        0 min,  0.002 sec (  0.770%)
 Dispersion                     ...        0 min,  0.007 sec (  2.456%)
 classical contributions        ...        0 min,  0.003 sec (  1.038%)
 integral evaluation            ...        0 min,  0.010 sec (  3.603%)
 iterations                     ...        0 min,  0.217 sec ( 79.744%)
 molecular gradient             ...        0 min,  0.033 sec ( 12.302%)
 printout                       ...        0 min,  0.000 sec (  0.071%)

         :::::::::::::::::::::::::::::::::::::::::::::::::::::
         ::                     SUMMARY                     ::
         :::::::::::::::::::::::::::::::::::::::::::::::::::::
         :: total energy             -40.560306090017 Eh    ::
         :: gradient norm              0.083026924876 Eh/a0 ::
         :: HOMO-LUMO gap              4.640333132109 eV    ::
         ::.................................................::
         :: SCC energy               -40.958031470003 Eh    ::
         :: -> isotropic ES            0.089881869962 Eh    ::
         :: -> anisotropic ES          0.002300347465 Eh    ::
         :: -> anisotropic XC          0.007409695707 Eh    ::
         :: -> dispersion             -0.017696052287 Eh    ::
         :: repulsion energy           0.397725379986 Eh    ::
         :: add. restraining           0.000000000000 Eh    ::
         :: total charge              -0.000000000000 e     ::
         :::::::::::::::::::::::::::::::::::::::::::::::::::::

      ----------------------------------------------------------- 
     |                   =====================                   |
     |                        A N C O P T                        |
     |                   =====================                   |
     |               Approximate Normal Coordinate               |
     |                Rational Function Optimizer                |
      ----------------------------------------------------------- 
      ----------------------------------------------------------- 
     |                   =====================                   |
     |                        A N C O P T                        |
     |                   =====================                   |
     |               Approximate Normal Coordinate               |
     |                Rational Function Optimizer                |
      ----------------------------------------------------------- 

          ...................................................
          :                      SETUP                      :
          :.................................................:
          :   optimization level             tight          :
          :   max. optcycles                   500          :
          :   ANC micro-cycles                  20          :
          :   degrees of freedom                72          :
          :.................................................:
          :   RF solver                   davidson          :
          :   write xtbopt.log                true          :
          :   linear?                        false          :
          :   energy convergence         0.1000000E-05 Eh   :
          :   grad. convergence          0.8000000E-03 Eh/α :
          :   maxmium RF displ.          1.0000000          :
          :   Hlow (freq-cutoff)         0.1000000E-01      :
          :   Hmax (freq-cutoff)         5.0000000          :
          :   S6 in model hess.         20.0000000          :
          ...................................................

generating ANC from exact Hessian ...
Using Lindh-Hessian (1995)
 Shifting diagonal of input Hessian by    9.3627525097673137E-003
 Lowest  eigenvalues of input Hessian
    0.000000    0.000000    0.000000    0.000000    0.000000    0.000000
    0.010000    0.010230    0.010858    0.012109    0.013027    0.015507
    0.015740    0.017498    0.017733    0.021067    0.022811    0.026095
 Highest eigenvalues
    1.277850    1.343251    1.639426    1.725909    2.235195    2.259576


........................................................................
.............................. CYCLE    1 ..............................
........................................................................

 iter      E             dE          RMSdq      gap      omega  full diag
   1    -40.9580206 -0.409580E+02  0.515E-05    4.64       0.0  T
   2    -40.9580206 -0.602540E-11  0.312E-05    4.64     629.1  T
   3    -40.9580206 -0.760281E-12  0.133E-05    4.64    1473.9  T
     SCC iter.                  ...        0 min,  0.030 sec
     gradient                   ...        0 min,  0.031 sec
 * total energy  :   -40.5603061 Eh     change       -0.5069012E-10 Eh
   gradient norm :     0.0830262 Eh/α   predicted     0.0000000E+00 (-100.00%)
   displ. norm   :     0.1691605 α      lambda       -0.7971673E-02
   maximum displ.:     0.0657164 α      in ANC's #10, #51, #22, ...

........................................................................
.............................. CYCLE    2 ..............................
........................................................................

 iter      E             dE          RMSdq      gap      omega  full diag
   1    -40.9856825 -0.409857E+02  0.183E-01    4.95       0.0  T
   2    -40.9858024 -0.119831E-03  0.111E-01    4.90       1.0  T
   3    -40.9858067 -0.429372E-05  0.530E-02    4.92       1.0  T
   4    -40.9858215 -0.148728E-04  0.611E-03    4.91       3.2  T
   5    -40.9858216 -0.848445E-07  0.360E-03    4.91       5.4  T
   6    -40.9858216 -0.263930E-07  0.104E-03    4.91      18.9  T
   7    -40.9858217 -0.138267E-08  0.404E-04    4.91      48.6  T
   8    -40.9858217 -0.535458E-09  0.119E-04    4.91     164.5  T
     SCC iter.                  ...        0 min,  0.086 sec
     gradient                   ...        0 min,  0.033 sec
 * total energy  :   -40.5652337 Eh     change       -0.4927604E-02 Eh
   gradient norm :     0.0219276 Eh/α   predicted    -0.4100290E-02 ( -16.79%)
   displ. norm   :     0.1111475 α      lambda       -0.9366669E-03
   maximum displ.:     0.0553945 α      in ANC's #10, #2, #11, ...

........................................................................
.............................. CYCLE    3 ..............................
........................................................................

 iter      E             dE          RMSdq      gap      omega  full diag
   1    -40.9934440 -0.409934E+02  0.748E-02    5.01       0.0  T
   2    -40.9934657 -0.217587E-04  0.454E-02    4.99       1.0  T
   3    -40.9934672 -0.149657E-05  0.219E-02    4.99       1.0  T
   4    -40.9934689 -0.164690E-05  0.239E-03    4.99       8.2  T
   5    -40.9934689 -0.371793E-07  0.120E-03    4.99      16.4  T
   6    -40.9934689 -0.245193E-08  0.353E-04    4.99      55.6  T
   7    -40.9934689 -0.445013E-09  0.157E-04    4.99     124.7  T
     SCC iter.                  ...        0 min,  0.089 sec
     gradient                   ...        0 min,  0.039 sec
 * total energy  :   -40.5657722 Eh     change       -0.5384645E-03 Eh
   gradient norm :     0.0099664 Eh/α   predicted    -0.4741275E-03 ( -11.95%)
   displ. norm   :     0.0666499 α      lambda       -0.1407159E-03
   maximum displ.:     0.0402617 α      in ANC's #10, #2, #3, ...

........................................................................
.............................. CYCLE    4 ..............................
........................................................................

 iter      E             dE          RMSdq      gap      omega  full diag
   1    -40.9937998 -0.409938E+02  0.304E-02    4.99       0.0  T
   2    -40.9938073 -0.752905E-05  0.178E-02    4.99       1.1  T
   3    -40.9938075 -0.231719E-06  0.950E-03    4.99       2.1  T
   4    -40.9938076 -0.195125E-07  0.201E-03    4.99       9.8  T
   5    -40.9938076 -0.564277E-07  0.398E-04    4.99      49.3  T
   6    -40.9938076 -0.264571E-09  0.174E-04    4.99     112.8  T
     SCC iter.                  ...        0 min,  0.117 sec
     gradient                   ...        0 min,  0.028 sec
 * total energy  :   -40.5658659 Eh     change       -0.9372958E-04 Eh
   gradient norm :     0.0041973 Eh/α   predicted    -0.7067256E-04 ( -24.60%)
   displ. norm   :     0.0735767 α      lambda       -0.6653633E-04
   maximum displ.:     0.0458865 α      in ANC's #2, #10, #3, ...

........................................................................
.............................. CYCLE    5 ..............................
........................................................................

 iter      E             dE          RMSdq      gap      omega  full diag
   1    -40.9934141 -0.409934E+02  0.262E-02    4.98       0.0  T
   2    -40.9934177 -0.358346E-05  0.149E-02    4.98       1.3  T
   3    -40.9934178 -0.641627E-07  0.700E-03    4.98       2.8  T
   4    -40.9934178 -0.381535E-07  0.136E-03    4.98      14.5  T
   5    -40.9934178 -0.281996E-07  0.394E-04    4.98      49.7  T
   6    -40.9934178 -0.185523E-09  0.142E-04    4.98     137.8  T
     SCC iter.                  ...        0 min,  0.068 sec
     gradient                   ...        0 min,  0.031 sec
 * total energy  :   -40.5659083 Eh     change       -0.4243043E-04 Eh
   gradient norm :     0.0022488 Eh/α   predicted    -0.3348192E-04 ( -21.09%)
   displ. norm   :     0.0643250 α      lambda       -0.2941102E-04
   maximum displ.:     0.0449320 α      in ANC's #2, #3, #10, ...

........................................................................
.............................. CYCLE    6 ..............................
........................................................................

 iter      E             dE          RMSdq      gap      omega  full diag
   1    -40.9931053 -0.409931E+02  0.169E-02    4.98       0.0  T
   2    -40.9931056 -0.354800E-06  0.983E-03    4.98       2.0  T
   3    -40.9931056  0.640236E-08  0.245E-03    4.98       8.0  T
   4    -40.9931056 -0.349844E-07  0.558E-04    4.98      35.1  T
   5    -40.9931056 -0.300269E-08  0.279E-04    4.98      70.2  T
     SCC iter.                  ...        0 min,  0.058 sec
     gradient                   ...        0 min,  0.028 sec
 * total energy  :   -40.5659314 Eh     change       -0.2304820E-04 Eh
   gradient norm :     0.0027778 Eh/α   predicted    -0.1477178E-04 ( -35.91%)
   displ. norm   :     0.0969664 α      lambda       -0.3595527E-04
   maximum displ.:     0.0671358 α      in ANC's #2, #3, #4, ...

........................................................................
.............................. CYCLE    7 ..............................
........................................................................

 iter      E             dE          RMSdq      gap      omega  full diag
   1    -40.9928653 -0.409929E+02  0.243E-02    4.98       0.0  T
   2    -40.9928656 -0.339222E-06  0.143E-02    4.98       1.4  T
   3    -40.9928656 -0.124438E-07  0.189E-03    4.98      10.4  T
   4    -40.9928657 -0.264754E-07  0.660E-04    4.98      29.7  T
   5    -40.9928657 -0.272152E-08  0.371E-04    4.98      52.8  T
     SCC iter.                  ...        0 min,  0.049 sec
     gradient                   ...        0 min,  0.028 sec
 * total energy  :   -40.5659605 Eh     change       -0.2908846E-04 Eh
   gradient norm :     0.0027391 Eh/α   predicted    -0.1814945E-04 ( -37.61%)
   displ. norm   :     0.1237111 α      lambda       -0.3864631E-04
   maximum displ.:     0.0849877 α      in ANC's #2, #3, #10, ...

........................................................................
.............................. CYCLE    8 ..............................
........................................................................

 iter      E             dE          RMSdq      gap      omega  full diag
   1    -40.9928013 -0.409928E+02  0.302E-02    4.98       0.0  T
   2    -40.9928018 -0.549174E-06  0.179E-02    4.98       1.1  T
   3    -40.9928018 -0.284050E-07  0.212E-03    4.98       9.2  T
   4    -40.9928019 -0.215873E-07  0.744E-04    4.98      26.4  T
   5    -40.9928019 -0.338400E-08  0.434E-04    4.98      45.2  T
     SCC iter.                  ...        0 min,  0.068 sec
     gradient                   ...        0 min,  0.035 sec
 * total energy  :   -40.5659918 Eh     change       -0.3137447E-04 Eh
   gradient norm :     0.0025238 Eh/α   predicted    -0.1961937E-04 ( -37.47%)
   displ. norm   :     0.1386194 α      lambda       -0.3698157E-04
   maximum displ.:     0.0952896 α      in ANC's #2, #3, #10, ...

........................................................................
.............................. CYCLE    9 ..............................
........................................................................

 iter      E             dE          RMSdq      gap      omega  full diag
   1    -40.9929014 -0.409929E+02  0.326E-02    4.98       0.0  T
   2    -40.9929018 -0.381641E-06  0.193E-02    4.97       1.0  T
   3    -40.9929018 -0.117889E-07  0.204E-03    4.97       9.6  T
   4    -40.9929019 -0.439352E-07  0.787E-04    4.97      24.9  T
   5    -40.9929019 -0.342898E-08  0.440E-04    4.97      44.5  T
     SCC iter.                  ...        0 min,  0.059 sec
     gradient                   ...        0 min,  0.034 sec
 * total energy  :   -40.5660213 Eh     change       -0.2951974E-04 Eh
   gradient norm :     0.0023560 Eh/α   predicted    -0.1884625E-04 ( -36.16%)
   displ. norm   :     0.1352483 α      lambda       -0.3060450E-04
   maximum displ.:     0.0941071 α      in ANC's #2, #3, #10, ...

........................................................................
.............................. CYCLE   10 ..............................
........................................................................

 iter      E             dE          RMSdq      gap      omega  full diag
   1    -40.9931112 -0.409931E+02  0.297E-02    4.97       0.0  T
   2    -40.9931114 -0.223812E-06  0.177E-02    4.97       1.1  T
   3    -40.9931113  0.434623E-07  0.243E-03    4.97       8.1  T
   4    -40.9931114 -0.100387E-06  0.686E-04    4.97      28.6  T
   5    -40.9931114 -0.627821E-09  0.314E-04    4.97      62.5  T
     SCC iter.                  ...        0 min,  0.061 sec
     gradient                   ...        0 min,  0.035 sec
 * total energy  :   -40.5660453 Eh     change       -0.2390638E-04 Eh
   gradient norm :     0.0019805 Eh/α   predicted    -0.1558287E-04 ( -34.82%)
   displ. norm   :     0.1897748 α      lambda       -0.2447179E-04
   maximum displ.:     0.1335289 α      in ANC's #2, #3, #10, ...

........................................................................
.............................. CYCLE   11 ..............................
........................................................................

 iter      E             dE          RMSdq      gap      omega  full diag
   1    -40.9933665 -0.409934E+02  0.392E-02    4.97       0.0  T
   2    -40.9933673 -0.782131E-06  0.233E-02    4.96       1.0  T
   3    -40.9933672  0.127293E-06  0.435E-03    4.96       4.5  T
   4    -40.9933674 -0.248825E-06  0.939E-04    4.96      20.9  T
   5    -40.9933674 -0.360762E-08  0.493E-04    4.96      39.7  T
     SCC iter.                  ...        0 min,  0.067 sec
     gradient                   ...        0 min,  0.039 sec
 * total energy  :   -40.5660702 Eh     change       -0.2490965E-04 Eh
   gradient norm :     0.0018105 Eh/α   predicted    -0.1243428E-04 ( -50.08%)
   displ. norm   :     0.1242199 α      lambda       -0.1698380E-04
   maximum displ.:     0.0866357 α      in ANC's #2, #3, #7, ...

........................................................................
.............................. CYCLE   12 ..............................
........................................................................

 iter      E             dE          RMSdq      gap      omega  full diag
   1    -40.9935170 -0.409935E+02  0.288E-02    4.96       0.0  T
   2    -40.9935177 -0.678327E-06  0.169E-02    4.96       1.2  T
   3    -40.9935177  0.217855E-07  0.340E-03    4.96       5.8  T
   4    -40.9935178 -0.869256E-07  0.823E-04    4.96      23.8  T
   5    -40.9935178 -0.532238E-08  0.418E-04    4.96      46.9  T
     SCC iter.                  ...        0 min,  0.073 sec
     gradient                   ...        0 min,  0.035 sec
 * total energy  :   -40.5660921 Eh     change       -0.2196371E-04 Eh
   gradient norm :     0.0016851 Eh/α   predicted    -0.8550463E-05 ( -61.07%)
   displ. norm   :     0.3409910 α      lambda       -0.4584183E-04
   maximum displ.:     0.2304702 α      in ANC's #2, #3, #7, ...

........................................................................
.............................. CYCLE   13 ..............................
........................................................................

 iter      E             dE          RMSdq      gap      omega  full diag
   1    -40.9924091 -0.409924E+02  0.892E-02    4.95       0.0  T
   2    -40.9924126 -0.354751E-05  0.523E-02    4.94       1.0  T
   3    -40.9924129 -0.270071E-06  0.610E-03    4.94       3.2  T
   4    -40.9924131 -0.237018E-06  0.227E-03    4.94       8.6  T
   5    -40.9924132 -0.198628E-07  0.125E-03    4.94      15.7  T
   6    -40.9924132 -0.367189E-08  0.276E-04    4.94      71.1  T
   7    -40.9924132 -0.214492E-09  0.103E-04    4.94     191.1  T
     SCC iter.                  ...        0 min,  0.126 sec
     gradient                   ...        0 min,  0.050 sec
 * total energy  :   -40.5661369 Eh     change       -0.4474846E-04 Eh
   gradient norm :     0.0033129 Eh/α   predicted    -0.2410583E-04 ( -46.13%)
   displ. norm   :     0.1235239 α      lambda       -0.3256672E-04
   maximum displ.:     0.0757316 α      in ANC's #2, #6, #7, ...

........................................................................
.............................. CYCLE   14 ..............................
........................................................................

 iter      E             dE          RMSdq      gap      omega  full diag
   1    -40.9928786 -0.409929E+02  0.439E-02    4.94       0.0  T
   2    -40.9928792 -0.585474E-06  0.257E-02    4.94       1.0  T
   3    -40.9928793 -0.113381E-06  0.219E-03    4.94       9.0  T
   4    -40.9928794 -0.255592E-07  0.111E-03    4.94      17.7  T
   5    -40.9928794 -0.357128E-08  0.577E-04    4.94      34.0  T
   6    -40.9928794 -0.954479E-09  0.129E-04    4.94     151.8  T
     SCC iter.                  ...        0 min,  0.099 sec
     gradient                   ...        0 min,  0.042 sec
 * total energy  :   -40.5661598 Eh     change       -0.2289976E-04 Eh
   gradient norm :     0.0029649 Eh/α   predicted    -0.1653253E-04 ( -27.80%)
   displ. norm   :     0.1680405 α      lambda       -0.2556083E-04
   maximum displ.:     0.1066317 α      in ANC's #2, #6, #7, ...

........................................................................
.............................. CYCLE   15 ..............................
........................................................................

 iter      E             dE          RMSdq      gap      omega  full diag
   1    -40.9927946 -0.409928E+02  0.524E-02    4.94       0.0  T
   2    -40.9927952 -0.565733E-06  0.308E-02    4.94       1.0  T
   3    -40.9927953 -0.839288E-07  0.328E-03    4.94       6.0  T
   4    -40.9927954 -0.138360E-06  0.145E-03    4.94      13.5  T
   5    -40.9927954 -0.464363E-08  0.577E-04    4.94      34.0  T
   6    -40.9927954 -0.750141E-09  0.165E-04    4.94     118.8  T
     SCC iter.                  ...        0 min,  0.085 sec
     gradient                   ...        0 min,  0.042 sec
 * total energy  :   -40.5661784 Eh     change       -0.1863362E-04 Eh
   gradient norm :     0.0024103 Eh/α   predicted    -0.1314814E-04 ( -29.44%)
   displ. norm   :     0.1209893 α      lambda       -0.2466809E-04
   maximum displ.:     0.0619772 α      in ANC's #2, #4, #6, ...

........................................................................
.............................. CYCLE   16 ..............................
........................................................................

 iter      E             dE          RMSdq      gap      omega  full diag
   1    -40.9934408 -0.409934E+02  0.447E-02    4.95       0.0  T
   2    -40.9934413 -0.498952E-06  0.263E-02    4.95       1.0  T
   3    -40.9934413  0.282768E-08  0.345E-03    4.95       5.7  T
   4    -40.9934415 -0.182987E-06  0.126E-03    4.95      15.6  T
   5    -40.9934415 -0.277824E-08  0.501E-04    4.95      39.2  T
   6    -40.9934415 -0.558430E-09  0.156E-04    4.95     125.8  T
     SCC iter.                  ...        0 min,  0.081 sec
     gradient                   ...        0 min,  0.042 sec
 * total energy  :   -40.5661953 Eh     change       -0.1689116E-04 Eh
   gradient norm :     0.0013788 Eh/α   predicted    -0.1251492E-04 ( -25.91%)
   displ. norm   :     0.2019724 α      lambda       -0.1675447E-04
   maximum displ.:     0.0991398 α      in ANC's #2, #4, #10, ...

........................................................................
.............................. CYCLE   17 ..............................
........................................................................

 iter      E             dE          RMSdq      gap      omega  full diag
   1    -40.9925720 -0.409926E+02  0.680E-02    4.95       0.0  T
   2    -40.9925728 -0.844364E-06  0.400E-02    4.95       1.0  T
   3    -40.9925730 -0.254020E-06  0.343E-03    4.95       5.7  T
   4    -40.9925731 -0.944274E-07  0.185E-03    4.95      10.6  T
   5    -40.9925732 -0.842194E-08  0.740E-04    4.95      26.5  T
   6    -40.9925732 -0.156918E-08  0.212E-04    4.95      92.3  T
     SCC iter.                  ...        0 min,  0.074 sec
     gradient                   ...        0 min,  0.034 sec
 * total energy  :   -40.5662075 Eh     change       -0.1219319E-04 Eh
   gradient norm :     0.0022632 Eh/α   predicted    -0.8530905E-05 ( -30.04%)
   displ. norm   :     0.0676617 α      lambda       -0.2129119E-04
   maximum displ.:     0.0434727 α      in ANC's #4, #2, #1, ...

........................................................................
.............................. CYCLE   18 ..............................
........................................................................

 iter      E             dE          RMSdq      gap      omega  full diag
   1    -40.9936652 -0.409937E+02  0.291E-02    4.96       0.0  T
   2    -40.9936657 -0.436154E-06  0.171E-02    4.96       1.1  T
   3    -40.9936657  0.108354E-07  0.238E-03    4.96       8.3  T
   4    -40.9936657 -0.594192E-07  0.688E-04    4.96      28.5  T
   5    -40.9936657 -0.302578E-08  0.389E-04    4.96      50.4  T
     SCC iter.                  ...        0 min,  0.071 sec
     gradient                   ...        0 min,  0.032 sec
 * total energy  :   -40.5662202 Eh     change       -0.1272160E-04 Eh
   gradient norm :     0.0023880 Eh/α   predicted    -0.1070382E-04 ( -15.86%)
   displ. norm   :     0.0487005 α      lambda       -0.1060029E-04
   maximum displ.:     0.0297043 α      in ANC's #4, #1, #9, ...

........................................................................
.............................. CYCLE   19 ..............................
........................................................................

 iter      E             dE          RMSdq      gap      omega  full diag
   1    -40.9936976 -0.409937E+02  0.192E-02    4.96       0.0  T
   2    -40.9936977 -0.993698E-07  0.114E-02    4.96       1.7  T
   3    -40.9936977  0.388939E-08  0.131E-03    4.96      15.0  T
   4    -40.9936977 -0.255377E-07  0.449E-04    4.96      43.7  T
   5    -40.9936977 -0.808448E-09  0.234E-04    4.96      83.8  T
     SCC iter.                  ...        0 min,  0.089 sec
     gradient                   ...        0 min,  0.040 sec
 * total energy  :   -40.5662289 Eh     change       -0.8731700E-05 Eh
   gradient norm :     0.0015217 Eh/α   predicted    -0.5314363E-05 ( -39.14%)
   displ. norm   :     0.1334697 α      lambda       -0.1589678E-04
   maximum displ.:     0.0730010 α      in ANC's #4, #1, #10, ...

........................................................................
.............................. CYCLE   20 ..............................
........................................................................

 iter      E             dE          RMSdq      gap      omega  full diag
   1    -40.9931824 -0.409932E+02  0.493E-02    4.96       0.0  T
   2    -40.9931830 -0.553908E-06  0.291E-02    4.95       1.0  T
   3    -40.9931830 -0.365330E-07  0.258E-03    4.95       7.6  T
   4    -40.9931831 -0.798368E-07  0.108E-03    4.95      18.2  T
   5    -40.9931831 -0.458333E-08  0.553E-04    4.95      35.5  T
   6    -40.9931831 -0.697987E-09  0.137E-04    4.95     143.4  T
     SCC iter.                  ...        0 min,  0.103 sec
     gradient                   ...        0 min,  0.040 sec
 * total energy  :   -40.5662368 Eh     change       -0.7900139E-05 Eh
   gradient norm :     0.0014399 Eh/α   predicted    -0.8014624E-05 (   1.45%)
   displ. norm   :     0.0350291 α      lambda       -0.3801438E-05
   maximum displ.:     0.0186405 α      in ANC's #4, #10, #14, ...
 * RMSD in coord.:     0.3608752 α      energy gain  -0.5930759E-02 Eh

generating ANC from exact Hessian ...
Using Lindh-Hessian (1995)
 Shifting diagonal of input Hessian by    9.3062304672210487E-003
 Lowest  eigenvalues of input Hessian
    0.000000    0.000000    0.000000    0.000000    0.000000    0.000000
    0.010000    0.010233    0.010947    0.012149    0.013376    0.015908
    0.016199    0.017789    0.018395    0.022223    0.023860    0.026934
 Highest eigenvalues
    1.298927    1.374402    1.757729    1.824005    2.362742    2.399468


........................................................................
.............................. CYCLE   21 ..............................
........................................................................

 iter      E             dE          RMSdq      gap      omega  full diag
   1    -40.9935306 -0.409935E+02  0.153E-02    4.95       0.0  T
   2    -40.9935307 -0.107676E-06  0.902E-03    4.95       2.2  T
   3    -40.9935307 -0.483657E-08  0.115E-03    4.95      17.0  T
   4    -40.9935307 -0.129087E-07  0.407E-04    4.95      48.2  T
   5    -40.9935307 -0.686740E-09  0.235E-04    4.95      83.6  T
     SCC iter.                  ...        0 min,  0.039 sec
     gradient                   ...        0 min,  0.021 sec
 * total energy  :   -40.5662399 Eh     change       -0.3074165E-05 Eh
   gradient norm :     0.0010771 Eh/α   predicted     0.0000000E+00 (-100.00%)
   displ. norm   :     0.0166201 α      lambda       -0.2126001E-05
   maximum displ.:     0.0115183 α      in ANC's #1, #3, #7, ...

........................................................................
.............................. CYCLE   22 ..............................
........................................................................

 iter      E             dE          RMSdq      gap      omega  full diag
   1    -40.9934699 -0.409935E+02  0.561E-03    4.96       0.0  T
   2    -40.9934700 -0.496493E-07  0.340E-03    4.96       5.8  T
   3    -40.9934700  0.532286E-08  0.127E-03    4.96      15.5  T
   4    -40.9934700 -0.148318E-07  0.176E-04    4.96     111.1  T
   5    -40.9934700 -0.783302E-10  0.112E-04    4.96     175.7  T
     SCC iter.                  ...        0 min,  0.049 sec
     gradient                   ...        0 min,  0.028 sec
 * total energy  :   -40.5662427 Eh     change       -0.2766725E-05 Eh
   gradient norm :     0.0004695 Eh/α   predicted    -0.1304114E-05 ( -52.86%)
   displ. norm   :     0.0336183 α      lambda       -0.2781357E-05
   maximum displ.:     0.0216118 α      in ANC's #1, #3, #5, ...

........................................................................
.............................. CYCLE   23 ..............................
........................................................................

 iter      E             dE          RMSdq      gap      omega  full diag
   1    -40.9934041 -0.409934E+02  0.107E-02    4.96       0.0  T
   2    -40.9934042 -0.439532E-07  0.635E-03    4.96       3.1  T
   3    -40.9934041  0.933527E-08  0.116E-03    4.96      16.9  T
   4    -40.9934042 -0.221158E-07  0.299E-04    4.96      65.5  T
   5    -40.9934042 -0.160917E-09  0.154E-04    4.96     127.6  T
     SCC iter.                  ...        0 min,  0.041 sec
     gradient                   ...        0 min,  0.026 sec
 * total energy  :   -40.5662460 Eh     change       -0.3338342E-05 Eh
   gradient norm :     0.0008398 Eh/α   predicted    -0.1397092E-05 ( -58.15%)
   displ. norm   :     0.0512684 α      lambda       -0.3441147E-05
   maximum displ.:     0.0330078 α      in ANC's #1, #3, #5, ...

........................................................................
.............................. CYCLE   24 ..............................
........................................................................

 iter      E             dE          RMSdq      gap      omega  full diag
   1    -40.9933567 -0.409934E+02  0.162E-02    4.96       0.0  T
   2    -40.9933567 -0.554093E-07  0.951E-03    4.96       2.1  T
   3    -40.9933568 -0.105205E-07  0.846E-04    4.96      23.2  T
   4    -40.9933568 -0.737679E-08  0.410E-04    4.96      47.9  T
     SCC iter.                  ...        0 min,  0.056 sec
     gradient                   ...        0 min,  0.028 sec
 * total energy  :   -40.5662502 Eh     change       -0.4209743E-05 Eh
   gradient norm :     0.0008795 Eh/α   predicted    -0.1728716E-05 ( -58.94%)
   displ. norm   :     0.0711052 α      lambda       -0.4076639E-05
   maximum displ.:     0.0455170 α      in ANC's #1, #3, #5, ...

........................................................................
.............................. CYCLE   25 ..............................
........................................................................

 iter      E             dE          RMSdq      gap      omega  full diag
   1    -40.9933215 -0.409933E+02  0.223E-02    4.96       0.0  T
   2    -40.9933216 -0.896510E-07  0.131E-02    4.96       1.5  T
   3    -40.9933217 -0.259129E-07  0.952E-04    4.96      20.6  T
   4    -40.9933217 -0.543603E-08  0.529E-04    4.96      37.1  T
     SCC iter.                  ...        0 min,  0.048 sec
     gradient                   ...        0 min,  0.033 sec
 * total energy  :   -40.5662552 Eh     change       -0.4921350E-05 Eh
   gradient norm :     0.0007764 Eh/α   predicted    -0.2055816E-05 ( -58.23%)
   displ. norm   :     0.0826830 α      lambda       -0.3941627E-05
   maximum displ.:     0.0543688 α      in ANC's #1, #3, #5, ...

........................................................................
.............................. CYCLE   26 ..............................
........................................................................

 iter      E             dE          RMSdq      gap      omega  full diag
   1    -40.9933387 -0.409933E+02  0.252E-02    4.96       0.0  T
   2    -40.9933388 -0.111254E-06  0.148E-02    4.96       1.3  T
   3    -40.9933389 -0.152422E-07  0.142E-03    4.96      13.8  T
   4    -40.9933389 -0.276445E-07  0.628E-04    4.96      31.3  T
   5    -40.9933389 -0.846960E-09  0.292E-04    4.96      67.3  T
     SCC iter.                  ...        0 min,  0.054 sec
     gradient                   ...        0 min,  0.027 sec
 * total energy  :   -40.5662598 Eh     change       -0.4603098E-05 Eh
   gradient norm :     0.0005961 Eh/α   predicted    -0.1977457E-05 ( -57.04%)
   displ. norm   :     0.0701637 α      lambda       -0.2845132E-05
   maximum displ.:     0.0478570 α      in ANC's #1, #3, #2, ...

........................................................................
.............................. CYCLE   27 ..............................
........................................................................

 iter      E             dE          RMSdq      gap      omega  full diag
   1    -40.9934175 -0.409934E+02  0.209E-02    4.96       0.0  T
   2    -40.9934175 -0.834379E-07  0.123E-02    4.96       1.6  T
   3    -40.9934175 -0.629541E-11  0.133E-03    4.96      14.8  T
   4    -40.9934176 -0.288416E-07  0.503E-04    4.96      39.0  T
   5    -40.9934176 -0.567582E-09  0.239E-04    4.96      82.0  T
     SCC iter.                  ...        0 min,  0.051 sec
     gradient                   ...        0 min,  0.032 sec
 * total energy  :   -40.5662631 Eh     change       -0.3346542E-05 Eh
   gradient norm :     0.0005029 Eh/α   predicted    -0.1429261E-05 ( -57.29%)
   displ. norm   :     0.0639125 α      lambda       -0.2463270E-05
   maximum displ.:     0.0452203 α      in ANC's #1, #3, #2, ...

........................................................................
.............................. CYCLE   28 ..............................
........................................................................

 iter      E             dE          RMSdq      gap      omega  full diag
   1    -40.9935158 -0.409935E+02  0.177E-02    4.96       0.0  T
   2    -40.9935158 -0.457169E-07  0.104E-02    4.96       1.9  T
   3    -40.9935158 -0.106405E-07  0.809E-04    4.96      24.2  T
   4    -40.9935158 -0.749505E-08  0.413E-04    4.96      47.5  T
     SCC iter.                  ...        0 min,  0.041 sec
     gradient                   ...        0 min,  0.028 sec
 * total energy  :   -40.5662659 Eh     change       -0.2820063E-05 Eh
   gradient norm :     0.0005549 Eh/α   predicted    -0.1237635E-05 ( -56.11%)
   displ. norm   :     0.0635497 α      lambda       -0.2308250E-05
   maximum displ.:     0.0459700 α      in ANC's #1, #3, #2, ...

........................................................................
.............................. CYCLE   29 ..............................
........................................................................

 iter      E             dE          RMSdq      gap      omega  full diag
   1    -40.9934941 -0.409935E+02  0.171E-02    4.96       0.0  T
   2    -40.9934941 -0.420265E-07  0.101E-02    4.96       1.9  T
   3    -40.9934942 -0.708198E-08  0.829E-04    4.96      23.7  T
   4    -40.9934942 -0.882962E-08  0.396E-04    4.96      49.6  T
     SCC iter.                  ...        0 min,  0.065 sec
     gradient                   ...        0 min,  0.035 sec
 * total energy  :   -40.5662686 Eh     change       -0.2649932E-05 Eh
   gradient norm :     0.0005711 Eh/α   predicted    -0.1156775E-05 ( -56.35%)
   displ. norm   :     0.0536538 α      lambda       -0.1933695E-05
   maximum displ.:     0.0394801 α      in ANC's #1, #5, #10, ...

........................................................................
.............................. CYCLE   30 ..............................
........................................................................

 iter      E             dE          RMSdq      gap      omega  full diag
   1    -40.9935557 -0.409936E+02  0.129E-02    4.96       0.0  T
   2    -40.9935557 -0.369227E-07  0.767E-03    4.96       2.6  T
   3    -40.9935557 -0.374263E-08  0.627E-04    4.96      31.3  T
   4    -40.9935557 -0.377923E-08  0.275E-04    4.96      71.3  T
     SCC iter.                  ...        0 min,  0.040 sec
     gradient                   ...        0 min,  0.033 sec
 * total energy  :   -40.5662709 Eh     change       -0.2322134E-05 Eh
   gradient norm :     0.0003871 Eh/α   predicted    -0.9685506E-06 ( -58.29%)
   displ. norm   :     0.0607595 α      lambda       -0.1854955E-05
   maximum displ.:     0.0445103 α      in ANC's #1, #5, #10, ...

........................................................................
.............................. CYCLE   31 ..............................
........................................................................

 iter      E             dE          RMSdq      gap      omega  full diag
   1    -40.9934530 -0.409935E+02  0.134E-02    4.96       0.0  T
   2    -40.9934530 -0.319435E-07  0.798E-03    4.96       2.5  T
   3    -40.9934530  0.475386E-08  0.891E-04    4.96      22.0  T
   4    -40.9934530 -0.128890E-07  0.265E-04    4.96      74.0  T
     SCC iter.                  ...        0 min,  0.037 sec
     gradient                   ...        0 min,  0.028 sec
 * total energy  :   -40.5662730 Eh     change       -0.2139666E-05 Eh
   gradient norm :     0.0002726 Eh/α   predicted    -0.9297685E-06 ( -56.55%)
   displ. norm   :     0.0522977 α      lambda       -0.1442134E-05
   maximum displ.:     0.0378274 α      in ANC's #1, #5, #8, ...

........................................................................
.............................. CYCLE   32 ..............................
........................................................................

 iter      E             dE          RMSdq      gap      omega  full diag
   1    -40.9935309 -0.409935E+02  0.114E-02    4.96       0.0  T
   2    -40.9935309 -0.125836E-07  0.678E-03    4.96       2.9  T
   3    -40.9935309 -0.804512E-09  0.438E-04    4.96      44.8  T
   4    -40.9935309 -0.235813E-08  0.181E-04    4.96     108.3  T
     SCC iter.                  ...        0 min,  0.041 sec
     gradient                   ...        0 min,  0.027 sec
 * total energy  :   -40.5662746 Eh     change       -0.1584136E-05 Eh
   gradient norm :     0.0003335 Eh/α   predicted    -0.7267630E-06 ( -54.12%)
   displ. norm   :     0.0460639 α      lambda       -0.1042254E-05
   maximum displ.:     0.0330935 α      in ANC's #1, #5, #7, ...

........................................................................
.............................. CYCLE   33 ..............................
........................................................................

 iter      E             dE          RMSdq      gap      omega  full diag
   1    -40.9934174 -0.409934E+02  0.942E-03    4.96       0.0  T
   2    -40.9934174 -0.164633E-07  0.562E-03    4.96       3.5  T
   3    -40.9934174  0.784823E-09  0.501E-04    4.96      39.1  T
   4    -40.9934174 -0.351480E-08  0.161E-04    4.96     122.0  T
     SCC iter.                  ...        0 min,  0.033 sec
     gradient                   ...        0 min,  0.019 sec
 * total energy  :   -40.5662757 Eh     change       -0.1107868E-05 Eh
   gradient norm :     0.0004053 Eh/α   predicted    -0.5247980E-06 ( -52.63%)
   displ. norm   :     0.0356719 α      lambda       -0.8440416E-06
   maximum displ.:     0.0246576 α      in ANC's #1, #7, #5, ...

........................................................................
.............................. CYCLE   34 ..............................
........................................................................

 iter      E             dE          RMSdq      gap      omega  full diag
   1    -40.9934870 -0.409935E+02  0.876E-03    4.96       0.0  T
   2    -40.9934870 -0.232475E-07  0.517E-03    4.96       3.8  T
   3    -40.9934870 -0.942130E-09  0.490E-04    4.96      40.0  T
   4    -40.9934870 -0.230695E-08  0.194E-04    4.96     101.3  T
     SCC iter.                  ...        0 min,  0.034 sec
     gradient                   ...        0 min,  0.021 sec
 * total energy  :   -40.5662766 Eh     change       -0.8270114E-06 Eh
   gradient norm :     0.0002297 Eh/α   predicted    -0.4235054E-06 ( -48.79%)
   displ. norm   :     0.0246696 α      lambda       -0.4235538E-06
   maximum displ.:     0.0174378 α      in ANC's #1, #7, #9, ...

   *** GEOMETRY OPTIMIZATION CONVERGED AFTER 34 ITERATIONS ***

------------------------------------------------------------------------
 total energy gain   :        -0.0059705 Eh       -3.7465 kcal/mol
 total RMSD          :         0.3890676 a0        0.2059 Å
 total power (kW/mol):        -0.4610431 (step)   -3.6813 (real)
------------------------------------------------------------------------

 ANCopt (total)                0 d,  0 h,  0 min,  4.258 sec
 optimizer setup                ...        0 min,  0.001 sec (  0.016%)
 model hessian                  ...        0 min,  0.019 sec (  0.455%)
 ANC generation                 ...        0 min,  0.002 sec (  0.052%)
 coordinate transformation      ...        0 min,  0.000 sec (  0.009%)
 single point calculation       ...        0 min,  4.117 sec ( 96.695%)
 optimization log               ...        0 min,  0.004 sec (  0.086%)
 hessian update                 ...        0 min,  0.104 sec (  2.449%)
 rational function              ...        0 min,  0.003 sec (  0.076%)

================
 final structure:
================
26
 xtb: 6.7.1 (edcfbbe)
C           -3.39898478820418        1.48771684777754        0.89459041524294
C           -2.16870758502882        0.66714404796779        1.25949941877456
C           -1.64743066440666       -0.16893006243311        0.08785911351193
C           -2.58888878011473       -1.28785438015703       -0.32885276104687
O           -0.40670934990643       -0.79828916236601        0.47697472896263
C            0.71084871299243       -0.11362802498727        0.29388047185079
O            0.79342833100913        0.99668677903833       -0.15306675431788
C            1.91772791546984       -0.93885515272220        0.74742227865520
O            3.11482572815704       -0.34557540030328        0.28976634224857
C            3.28011048336631       -0.34029758805026       -1.04759836838208
C            4.49631454813035        0.45088579263371       -1.43208750645100
O            2.53942273330906       -0.90989848565548       -1.80161555455497
H           -3.19269133986686        2.11734904457120        0.03247567361656
H           -4.24503911331461        0.84638064765147        0.66324102588196
H           -3.67613836345768        2.12791369982035        1.72820782361682
H           -2.39480004803869        0.00108527953635        2.09503184287136
H           -1.36854262007151        1.34229099010369        1.57119948667994
H           -1.43243815005974        0.49071839803314       -0.76230178037061
H           -3.50554587807853       -0.87228905852347       -0.73476853396153
H           -2.82495978694428       -1.91509622491644        0.52689711990978
H           -2.11526426388397       -1.90131349203571       -1.09061670581557
H            1.81141783225188       -1.95961735068318        0.36521100796207
H            1.97058478583934       -0.94849145977869        1.83739246819729
H            4.86430386962615        0.11799345974937       -2.39763238312619
H            4.20537560443471        1.49716473153682       -1.50593989255372
H            5.26178018678825        0.35680612418966       -0.66818615600231

 Bond Distances (Angstroems)
 ---------------------------
C1-C2=1.5232         C1-H13=1.0873        C1-H14=1.0866        C1-H15=1.0870        C2-C1=1.5232         C2-C3=1.5308         
C2-H16=1.0922        C2-H17=1.0924        C3-C2=1.5308         C3-C4=1.5205         C3-O5=1.4446         C3-H18=1.0973        
C4-C3=1.5205         C4-H19=1.0852        C4-H20=1.0870        C4-H21=1.0867        O5-C3=1.4446         O5-C6=1.3233         
C6-O5=1.3233         C6-O7=1.1997         C6-C8=1.5308         O7-C6=1.1997         C8-C6=1.5308         C8-O9=1.4123         
C8-H22=1.0951        C8-H23=1.0913        O9-C8=1.4123         O9-C10=1.3476        C10-O9=1.3476        C10-C11=1.5010       
C10-O12=1.2007       C11-C10=1.5010       C11-H24=1.0856       C11-H25=1.0885       C11-H26=1.0855       O12-C10=1.2007       
H13-C1=1.0873        H14-C1=1.0866        H15-C1=1.0870        H16-C2=1.0922        H17-C2=1.0924        H18-C3=1.0973        
H19-C4=1.0852        H20-C4=1.0870        H21-C4=1.0867        H22-C8=1.0951        H23-C8=1.0913        H24-C11=1.0856       
H25-C11=1.0885       H26-C11=1.0855       
 C  H  Rav=1.0891 sigma=0.0037  Rmin=1.0852  Rmax=1.0973    14
 C  C  Rav=1.5213 sigma=0.0109  Rmin=1.5010  Rmax=1.5308     5
 O  C  Rav=1.3214 sigma=0.0944  Rmin=1.1997  Rmax=1.4446     6

 selected bond angles (degree)
 --------------------
H13-C1-C2=110.41               H14-C1-C2=111.22               H14-C1-H13=108.71              H15-C1-C2=109.85               
H15-C1-H13=108.38              H15-C1-H14=108.20              C3-C2-C1=112.70                H16-C2-C1=110.16               
H16-C2-C3=108.84               H17-C2-C1=109.09               H17-C2-C3=107.85               H17-C2-H16=108.08              
C4-C3-C2=113.63                O5-C3-C2=108.92                O5-C3-C4=106.56                H18-C3-C2=109.35               
H18-C3-C4=110.57               H18-C3-O5=107.60               H19-C4-C3=110.10               H20-C4-C3=110.08               
H20-C4-H19=109.39              H21-C4-C3=109.73               H21-C4-H19=108.79              H21-C4-H20=108.71              
C6-O5-C3=117.56                O7-C6-O5=126.05                C8-C6-O5=110.24                C8-C6-O7=123.71                
O9-C8-C6=110.23                H22-C8-C6=108.82               H22-C8-O9=111.15               H23-C8-C6=109.81               
H23-C8-O9=106.64               H23-C8-H22=110.19              C10-O9-C8=115.29               C11-C10-O9=110.83              
O12-C10-O9=123.07              O12-C10-C11=126.09             

 selected dihedral angles (degree)
 ---------------------------------
C3-C2-C1-H13=304.50           C3-C2-C1-H14= 65.26           C3-C2-C1-H15=185.03           H16-C2-C1-H13=182.73          
H16-C2-C1-H14=303.50          H16-C2-C1-H15= 63.26          H17-C2-C1-H13= 64.26          H17-C2-C1-H14=185.02          
H17-C2-C1-H15=304.78          C4-C3-C2-C1=292.54            C4-C3-C2-H16= 55.05           C4-C3-C2-H17=172.07           
O5-C3-C2-C1=173.93            O5-C3-C2-H16=296.44           O5-C3-C2-H17= 53.46           H18-C3-C2-C1= 56.61           
H18-C3-C2-H16=179.11          H18-C3-C2-H17=296.13          H19-C4-C3-C2= 66.12           H19-C4-C3-O5=186.08           
H19-C4-C3-H18=302.72          H20-C4-C3-C2=305.44           H20-C4-C3-O5= 65.40           H20-C4-C3-H18=182.04          
H21-C4-C3-C2=185.84           H21-C4-C3-O5=305.79           H21-C4-C3-H18= 62.44          C6-O5-C3-C2=272.67            
C6-O5-C3-C4=149.72            C6-O5-C3-H18= 31.11           O7-C6-O5-C3=  0.99            C8-C6-O5-C3=180.58            
O9-C8-C6-O5=167.17            O9-C8-C6-O7=346.76            H22-C8-C6-O5= 45.05           H22-C8-C6-O7=224.64           
H23-C8-C6-O5=284.37           H23-C8-C6-O7=103.96           C10-O9-C8-C6=294.16           C10-O9-C8-H22= 54.90          
C10-O9-C8-H23=175.01          C11-C10-O9-C8=173.34          O12-C10-O9-C8=352.91          
           -------------------------------------------------
          |                Final Singlepoint                |
           -------------------------------------------------

          ...................................................
          :                      SETUP                      :
          :.................................................:
          :  # basis functions                  62          :
          :  # atomic orbitals                  62          :
          :  # shells                           38          :
          :  # electrons                        70          :
          :  max. iterations                   250          :
          :  Hamiltonian                  GFN2-xTB          :
          :  restarted?                      false          :
          :  GBSA solvation                  false          :
          :  PC potential                    false          :
          :  electronic temp.          300.0000000     K    :
          :  accuracy                    1.0000000          :
          :  -> integral cutoff          0.2500000E+02      :
          :  -> integral neglect         0.1000000E-07      :
          :  -> SCF convergence          0.1000000E-05 Eh   :
          :  -> wf. convergence          0.1000000E-03 e    :
          :  Broyden damping             0.4000000          :
          :  net charge                          0          :
          :  unpaired electrons                  0          :
          ...................................................

 iter      E             dE          RMSdq      gap      omega  full diag
   1    -40.9934870 -0.409935E+02  0.105E-04    4.96       0.0  T
   2    -40.9934870 -0.133440E-10  0.652E-05    4.96     300.8  T
   3    -40.9934870 -0.532907E-12  0.237E-05    4.96     825.8  T

   *** convergence criteria satisfied after 3 iterations ***

         #    Occupation            Energy/Eh            Energy/eV
      -------------------------------------------------------------
         1        2.0000           -0.7513416             -20.4450
       ...           ...                  ...                  ...
        29        2.0000           -0.4667147             -12.7000
        30        2.0000           -0.4648094             -12.6481
        31        2.0000           -0.4613584             -12.5542
        32        2.0000           -0.4407159             -11.9925
        33        2.0000           -0.4361063             -11.8671
        34        2.0000           -0.4229307             -11.5085
        35        2.0000           -0.4184582             -11.3868 (HOMO)
        36                         -0.2360910              -6.4244 (LUMO)
        37                         -0.2276987              -6.1960
        38                         -0.0283996              -0.7728
        39                          0.0254768               0.6933
        40                          0.0764197               2.0795
       ...                                ...                  ...
        62                          0.6698171              18.2267
      -------------------------------------------------------------
                  HL-Gap            0.1823672 Eh            4.9625 eV
             Fermi-level           -0.3272746 Eh           -8.9056 eV

 SCC (total)                   0 d,  0 h,  0 min,  0.283 sec
 SCC setup                      ...        0 min,  0.001 sec (  0.448%)
 Dispersion                     ...        0 min,  0.005 sec (  1.625%)
 classical contributions        ...        0 min,  0.004 sec (  1.318%)
 integral evaluation            ...        0 min,  0.007 sec (  2.520%)
 iterations                     ...        0 min,  0.193 sec ( 68.270%)
 molecular gradient             ...        0 min,  0.073 sec ( 25.761%)
 printout                       ...        0 min,  0.000 sec (  0.047%)

         :::::::::::::::::::::::::::::::::::::::::::::::::::::
         ::                     SUMMARY                     ::
         :::::::::::::::::::::::::::::::::::::::::::::::::::::
         :: total energy             -40.566276559867 Eh    ::
         :: gradient norm              0.000230741168 Eh/a0 ::
         :: HOMO-LUMO gap              4.962465386461 eV    ::
         ::.................................................::
         :: SCC energy               -40.993483839069 Eh    ::
         :: -> isotropic ES            0.090233356880 Eh    ::
         :: -> anisotropic ES          0.000551948616 Eh    ::
         :: -> anisotropic XC          0.005920084519 Eh    ::
         :: -> dispersion             -0.017994988400 Eh    ::
         :: repulsion energy           0.427207279201 Eh    ::
         :: add. restraining           0.000000000000 Eh    ::
         :: total charge              -0.000000000000 e     ::
         :::::::::::::::::::::::::::::::::::::::::::::::::::::

           -------------------------------------------------
          |                Property Printout                |
           -------------------------------------------------

    * Orbital Energies and Occupations

         #    Occupation            Energy/Eh            Energy/eV
      -------------------------------------------------------------
         1        2.0000           -0.7513416             -20.4450
       ...           ...                  ...                  ...
        23        2.0000           -0.4916156             -13.3775
        24        2.0000           -0.4891865             -13.3114
        25        2.0000           -0.4829655             -13.1422
        26        2.0000           -0.4814592             -13.1012
        27        2.0000           -0.4790671             -13.0361
        28        2.0000           -0.4735815             -12.8868
        29        2.0000           -0.4667147             -12.7000
        30        2.0000           -0.4648094             -12.6481
        31        2.0000           -0.4613584             -12.5542
        32        2.0000           -0.4407159             -11.9925
        33        2.0000           -0.4361063             -11.8671
        34        2.0000           -0.4229307             -11.5085
        35        2.0000           -0.4184582             -11.3868 (HOMO)
        36                         -0.2360910              -6.4244 (LUMO)
        37                         -0.2276987              -6.1960
        38                         -0.0283996              -0.7728
        39                          0.0254768               0.6933
        40                          0.0764197               2.0795
        41                          0.0944135               2.5691
        42                          0.1145673               3.1175
        43                          0.1212118               3.2983
        44                          0.1277163               3.4753
        45                          0.1384775               3.7682
        46                          0.1390028               3.7825
       ...                                ...                  ...
        62                          0.6698171              18.2267
      -------------------------------------------------------------
                  HL-Gap            0.1823672 Eh            4.9625 eV
             Fermi-level           -0.3272746 Eh           -8.9056 eV

     #   Z          covCN         q      C6AA      α(0)
     1   6 C        3.752    -0.109    22.637     6.785
     2   6 C        3.800    -0.063    21.706     6.633
     3   6 C        3.747     0.114    18.779     6.181
     4   6 C        3.753    -0.118    22.822     6.812
     5   8 O        1.703    -0.267    18.434     5.797
     6   6 C        2.710     0.361    20.872     7.478
     7   8 O        0.856    -0.393    21.538     6.222
     8   6 C        3.713     0.050    19.855     6.367
     9   8 O        1.706    -0.253    18.189     5.758
    10   6 C        2.725     0.367    20.775     7.462
    11   6 C        3.754    -0.148    23.423     6.901
    12   8 O        0.856    -0.404    21.765     6.255
    13   1 H        0.925     0.044     2.399     2.422
    14   1 H        0.925     0.042     2.427     2.436
    15   1 H        0.925     0.046     2.370     2.407
    16   1 H        0.924     0.045     2.390     2.417
    17   1 H        0.924     0.047     2.357     2.401
    18   1 H        0.924     0.056     2.242     2.342
    19   1 H        0.925     0.057     2.239     2.340
    20   1 H        0.925     0.057     2.238     2.339
    21   1 H        0.925     0.058     2.217     2.329
    22   1 H        0.924     0.080     1.976     2.198
    23   1 H        0.924     0.085     1.933     2.174
    24   1 H        0.925     0.079     1.987     2.204
    25   1 H        0.925     0.091     1.872     2.140
    26   1 H        0.925     0.076     2.017     2.221

 Mol. C6AA /au·bohr⁶  :       5670.199829
 Mol. C8AA /au·bohr⁸  :     122523.546448
 Mol. α(0) /au        :        111.021703


Wiberg/Mayer (AO) data.
largest (>0.10) Wiberg bond orders for each atom

 ---------------------------------------------------------------------------
     #   Z sym  total        # sym  WBO       # sym  WBO       # sym  WBO
 ---------------------------------------------------------------------------
     1   6 C    3.994 --     2 C    1.018    13 H    0.987    14 H    0.986
                            15 H    0.986
     2   6 C    3.994 --     1 C    1.018     3 C    0.988    16 H    0.976
                            17 H    0.975
     3   6 C    3.912 --     4 C    1.008     2 C    0.988    18 H    0.960
                             5 O    0.903
     4   6 C    3.991 --     3 C    1.008    20 H    0.984    21 H    0.984
                            19 H    0.981
     5   8 O    2.317 --     6 C    1.164     3 C    0.903     7 O    0.182
     6   6 C    3.928 --     7 O    1.761     5 O    1.164     8 C    0.939
     7   8 O    2.058 --     6 C    1.761     5 O    0.182
     8   6 C    3.941 --     9 O    0.971    22 H    0.954    23 H    0.952
                             6 C    0.939
     9   8 O    2.299 --    10 C    1.102     8 C    0.971    12 O    0.165
    10   6 C    3.912 --    12 O    1.767     9 O    1.102    11 C    0.993
    11   6 C    3.990 --    10 C    0.993    24 H    0.978    26 H    0.975
                            25 H    0.952
    12   8 O    2.046 --    10 C    1.767     9 O    0.165
    13   1 H    0.998 --     1 C    0.987
    14   1 H    0.998 --     1 C    0.986
    15   1 H    0.998 --     1 C    0.986
    16   1 H    0.998 --     2 C    0.976
    17   1 H    0.998 --     2 C    0.975
    18   1 H    0.997 --     3 C    0.960
    19   1 H    0.996 --     4 C    0.981
    20   1 H    0.997 --     4 C    0.984
    21   1 H    0.997 --     4 C    0.984
    22   1 H    0.994 --     8 C    0.954
    23   1 H    0.993 --     8 C    0.952
    24   1 H    0.994 --    11 C    0.978
    25   1 H    0.992 --    11 C    0.952
    26   1 H    0.994 --    11 C    0.975
 ---------------------------------------------------------------------------

Topologies differ in total number of bonds
Writing topology from bond orders to xtbtopo.mol

molecular dipole:
                 x           y           z       tot (Debye)
 q only:       -0.457      -0.172       0.749
   full:       -0.345      -0.237       0.879       2.474
molecular quadrupole (traceless):
                xx          xy          yy          xz          yz          zz
 q only:       12.831       1.905      -6.135       0.306      -3.326      -6.697
  q+dip:       10.858       1.133      -5.406       1.113      -3.721      -5.451
   full:       11.510       0.636      -5.707       0.973      -3.473      -5.803

           -------------------------------------------------
          |                Geometry Summary                 |
           -------------------------------------------------

      molecular mass/u    :      174.1946774
   center of mass at/Å    :        0.5578559      -0.1063741      -0.0667719
  moments of inertia/u·Å² :        0.2231217E+03   0.1257640E+04   0.1302138E+04
rotational constants/cm⁻¹ :        0.7555354E-01   0.1340418E-01   0.1294612E-01

 * 23 selected distances

     #   Z          #   Z                                           value/Å
     1   6 C        2   6 C                                       1.5231811
     2   6 C        3   6 C                                       1.5308465 (max)
     3   6 C        4   6 C                                       1.5205210
     3   6 C        5   8 O                                       1.4446085
     5   8 O        6   6 C                                       1.3233370
     6   6 C        7   8 O                                       1.1997418
     8   6 C        9   8 O                                       1.4122582
     9   8 O       10   6 C                                       1.3475502
    10   6 C       12   8 O                                       1.2006689
     1   6 C       13   1 H                                       1.0873066
     1   6 C       14   1 H                                       1.0865739
     1   6 C       15   1 H                                       1.0870070
     2   6 C       16   1 H                                       1.0921844
     2   6 C       17   1 H                                       1.0923573
     3   6 C       18   1 H                                       1.0973293
     4   6 C       19   1 H                                       1.0852293 (min)
     4   6 C       20   1 H                                       1.0869544
     4   6 C       21   1 H                                       1.0867092
     8   6 C       22   1 H                                       1.0951452
     8   6 C       23   1 H                                       1.0912937
    11   6 C       24   1 H                                       1.0855923
    11   6 C       25   1 H                                       1.0884849
    11   6 C       26   1 H                                       1.0855110

 * 3 distinct bonds (by element types)

   Z      Z             #   av. dist./Å        max./Å        min./Å
   1 H    6 C          14     1.0891199     1.0973293     1.0852293
   6 C    6 C           3     1.5248496     1.5308465     1.5205210
   6 C    8 O           6     1.3213608     1.4446085     1.1997418


optimized geometry written to: xtbopt.xyz


           -------------------------------------------------
          | TOTAL ENERGY              -40.566276559867 Eh   |
          | GRADIENT NORM               0.000230741168 Eh/α |
          | HOMO-LUMO GAP               4.962465386461 eV   |
           -------------------------------------------------

------------------------------------------------------------------------
 * finished run on 2026/07/09 at 20:39:32.791     
------------------------------------------------------------------------
 total:
 * wall-time:     0 d,  0 h,  0 min,  4.900 sec
 *  cpu-time:     0 d,  0 h,  1 min, 17.779 sec
 * ratio c/w:    15.874 speedup
 SCF:
 * wall-time:     0 d,  0 h,  0 min,  0.273 sec
 *  cpu-time:     0 d,  0 h,  0 min,  4.345 sec
 * ratio c/w:    15.898 speedup
 ANC optimizer:
 * wall-time:     0 d,  0 h,  0 min,  4.551 sec
 *  cpu-time:     0 d,  0 h,  1 min, 12.452 sec
 * ratio c/w:    15.920 speedup

