18
 energy: -29.056154653567 gnorm: 0.000214425152 xtb: 6.7.1 (edcfbbe)
Br           1.23522552388809        3.24153826528877       -0.47018403088630
C            1.20166434064344        1.36532523447915       -0.11218339707842
C            2.38947079966109        0.74379866533007        0.15747810755668
C            2.41012988309505       -0.63192805089568        0.42568529546509
C            1.24947055297940       -1.35227525060334        0.41851283427195
C            0.01408598170000       -0.72993202056253        0.14269892777699
C           -1.19379850726968       -1.45797148857907        0.13106117028928
C           -2.38400293900802       -0.84289036875917       -0.13765792339606
C           -2.42056382974756        0.53270157381303       -0.40784288897713
C           -1.26934910954214        1.27002952563006       -0.40513894807739
C           -0.02635183661428        0.66589453524437       -0.13188109608506
H            3.30984737357995        1.30753987672945        0.16460941361717
H            3.35500226374448       -1.10915014527383        0.63687590367582
H            1.25911239049120       -2.41258056681805        0.62443498960996
H           -1.15598337156753       -2.51733224230412        0.34035105555183
H           -3.30266563849397       -1.41049071003610       -0.14382810825203
H           -3.36628050613886        1.00884464303816       -0.61893209553477
H           -1.30501337140166        2.32887852427783       -0.61405920952762
