      -----------------------------------------------------------      
     |                   =====================                   |     
     |                           x T B                           |     
     |                   =====================                   |     
     |                         S. Grimme                         |     
     |          Mulliken Center for Theoretical Chemistry        |     
     |                    University of Bonn                     |     
      -----------------------------------------------------------      

   * xtb version 6.7.1 (edcfbbe) compiled by 'conda@5dfe00f5fb80' on 2026-06-10

   xtb is free software: you can redistribute it and/or modify it under
   the terms of the GNU Lesser General Public License as published by
   the Free Software Foundation, either version 3 of the License, or
   (at your option) any later version.
   
   xtb is distributed in the hope that it will be useful,
   but WITHOUT ANY WARRANTY; without even the implied warranty of
   MERCHANTABILITY or FITNESS FOR A PARTICULAR PURPOSE.  See the
   GNU Lesser General Public License for more details.
   
   Cite this work as:
   * C. Bannwarth, E. Caldeweyher, S. Ehlert, A. Hansen, P. Pracht,
     J. Seibert, S. Spicher, S. Grimme, WIREs Comput. Mol. Sci., 2020, 11,
     e01493. DOI: 10.1002/wcms.1493
   
   for GFN2-xTB:
   * C. Bannwarth, S. Ehlert and S. Grimme., J. Chem. Theory Comput., 2019,
     15, 1652-1671. DOI: 10.1021/acs.jctc.8b01176
   for GFN1-xTB:
   * S. Grimme, C. Bannwarth, P. Shushkov, J. Chem. Theory Comput., 2017,
     13, 1989-2009. DOI: 10.1021/acs.jctc.7b00118
   for GFN0-xTB:
   * P. Pracht, E. Caldeweyher, S. Ehlert, S. Grimme, ChemRxiv, 2019, preprint.
     DOI: 10.26434/chemrxiv.8326202.v1
   for GFN-FF:
   * S. Spicher and S. Grimme, Angew. Chem. Int. Ed., 2020, 59, 15665-15673.
     DOI: 10.1002/anie.202004239
   
   for ALPB and GBSA implicit solvation:
   * S. Ehlert, M. Stahn, S. Spicher, S. Grimme, J. Chem. Theory Comput.,
     2021, 17, 4250-4261. DOI: 10.1021/acs.jctc.1c00471
   
   for ddCOSMO and CPCM-X implicit solvation:
   * M. Stahn, S. Ehlert, S. Grimme, J. Phys. Chem. A,
     2023, XX, XXXX-XXXX. DOI: 10.1021/acs.jpca.3c04382
   
   for DFT-D4:
   * E. Caldeweyher, C. Bannwarth and S. Grimme, J. Chem. Phys., 2017,
     147, 034112. DOI: 10.1063/1.4993215
   * E. Caldeweyher, S. Ehlert, A. Hansen, H. Neugebauer, S. Spicher,
     C. Bannwarth and S. Grimme, J. Chem. Phys., 2019, 150, 154122.
     DOI: 10.1063/1.5090222
   * E. Caldeweyher, J.-M. Mewes, S. Ehlert and S. Grimme, Phys. Chem. Chem. Phys.
     2020, 22, 8499-8512. DOI: 10.1039/D0CP00502A
   
   for sTDA-xTB:
   * S. Grimme and C. Bannwarth, J. Chem. Phys., 2016, 145, 054103.
     DOI: 10.1063/1.4959605
   
   in the mass-spec context:
   * V. Asgeirsson, C. Bauer and S. Grimme, Chem. Sci., 2017, 8, 4879.
     DOI: 10.1039/c7sc00601b
   * J. Koopman and S. Grimme, ACS Omega 2019, 4, 12, 15120-15133.
     DOI: 10.1021/acsomega.9b02011
   
   for metadynamics refer to:
   * S. Grimme, J. Chem. Theory Comput., 2019, 155, 2847-2862
     DOI: 10.1021/acs.jctc.9b00143
   
   for SPH calculations refer to:
   * S. Spicher and S. Grimme, J. Chem. Theory Comput., 2021, 17, 1701-1714
     DOI: 10.1021/acs.jctc.0c01306
   
   for ONIOM refer to:
   * C. Plett, A. Katbashev, S. Ehlert, S. Grimme, M. Bursch,
     Phys. Chem. Chem. Phys., 2023, 25, 17860-17868. DOI: 10.1039/D3CP02178E
   
   for DIPRO refer to:
   * J. Kohn, N. Gildemeister, S. Grimme, D. Fazzi, A. Hansen,
     J. Chem. Phys., 2023, just accepted.
   
   for PTB refer to:
   * S. Grimme, M. Mueller, A. Hansen, J. Chem. Phys., 2023, 158, 124111.
     DOI: 10.1063/5.0137838
   
   with help from (in alphabetical order)
   P. Atkinson, C. Bannwarth, F. Bohle, G. Brandenburg, E. Caldeweyher
   M. Checinski, S. Dohm, S. Ehlert, S. Ehrlich, I. Gerasimov, C. Hölzer
   A. Katbashev, J. Kohn, J. Koopman, C. Lavigne, S. Lehtola, F. März, M. Müller,
   F. Musil, H. Neugebauer, J. Pisarek, C. Plett, P. Pracht, F. Pultar,
   J. Seibert, P. Shushkov, S. Spicher, M. Stahn, M. Steiner, T. Strunk,
   J. Stückrath, T. Rose, and J. Unsleber
   
 * started run on 2026/07/08 at 19:43:15.305     
   ID    Z sym.   atoms
    1    6 C      1-3, 5-7
    2    8 O      4, 8
    3    1 H      9-22

           -------------------------------------------------
          |                Calculation Setup                |
           -------------------------------------------------

          program call               : /home/ws/xd2484/miniforge3/envs/p3z_dft/bin/xtb xtb_input.xyz --gfn 2 --opt tight --cycles 500 --chrg 0 --uhf 0
          hostname                   : gpu10
          coordinate file            : xtb_input.xyz
          omp threads                :                    16


           -------------------------------------------------
          |                 G F N 2 - x T B                 |
           -------------------------------------------------

        Reference                      10.1021/acs.jctc.8b01176
      * Hamiltonian:
        H0-scaling (s, p, d)           1.850000    2.230000    2.230000
        zeta-weighting                 0.500000
      * Dispersion:
        s8                             2.700000
        a1                             0.520000
        a2                             5.000000
        s9                             5.000000
      * Repulsion:
        kExp                           1.500000    1.000000
        rExp                           1.000000
      * Coulomb:
        alpha                          2.000000
        third order                    shell-resolved
        anisotropic                    true
        a3                             3.000000
        a5                             4.000000
        cn-shift                       1.200000
        cn-exp                         4.000000
        max-rad                        5.000000


          ...................................................
          :                      SETUP                      :
          :.................................................:
          :  # basis functions                  46          :
          :  # atomic orbitals                  46          :
          :  # shells                           30          :
          :  # electrons                        50          :
          :  max. iterations                   250          :
          :  Hamiltonian                  GFN2-xTB          :
          :  restarted?                      false          :
          :  GBSA solvation                  false          :
          :  PC potential                    false          :
          :  electronic temp.          300.0000000     K    :
          :  accuracy                    1.0000000          :
          :  -> integral cutoff          0.2500000E+02      :
          :  -> integral neglect         0.1000000E-07      :
          :  -> SCF convergence          0.1000000E-05 Eh   :
          :  -> wf. convergence          0.1000000E-03 e    :
          :  Broyden damping             0.4000000          :
          :  net charge                          0          :
          :  unpaired electrons                  0          :
          ...................................................

 iter      E             dE          RMSdq      gap      omega  full diag
   1    -28.3792309 -0.283792E+02  0.313E+00   11.03       0.0  T
   2    -28.4169124 -0.376815E-01  0.170E+00   10.63       1.0  T
   3    -28.4177133 -0.800911E-03  0.700E-01   10.70       1.0  T
   4    -28.4188216 -0.110831E-02  0.176E-01   10.62       1.0  T
   5    -28.4190327 -0.211061E-03  0.699E-02   10.65       1.0  T
   6    -28.4190358 -0.311701E-05  0.123E-02   10.67       1.7  T
   7    -28.4190361 -0.263878E-06  0.469E-03   10.66       4.5  T
   8    -28.4190361 -0.331961E-07  0.159E-03   10.66      13.4  T
   9    -28.4190361 -0.465866E-08  0.668E-04   10.66      31.9  T
  10    -28.4190361 -0.226646E-08  0.199E-04   10.66     107.2  T

   *** convergence criteria satisfied after 10 iterations ***

         #    Occupation            Energy/Eh            Energy/eV
      -------------------------------------------------------------
         1        2.0000           -0.6874439             -18.7063
       ...           ...                  ...                  ...
        19        2.0000           -0.4580567             -12.4644
        20        2.0000           -0.4538190             -12.3490
        21        2.0000           -0.4534405             -12.3387
        22        2.0000           -0.4394236             -11.9573
        23        2.0000           -0.4261158             -11.5952
        24        2.0000           -0.4132459             -11.2450
        25        2.0000           -0.3939603             -10.7202 (HOMO)
        26                         -0.0020617              -0.0561 (LUMO)
        27                          0.0274391               0.7467
        28                          0.0382520               1.0409
        29                          0.0831769               2.2634
        30                          0.0891451               2.4258
       ...                                ...                  ...
        46                          0.2737923               7.4503
      -------------------------------------------------------------
                  HL-Gap            0.3918986 Eh           10.6641 eV
             Fermi-level           -0.1980110 Eh           -5.3882 eV

 SCC (total)                   0 d,  0 h,  0 min,  0.213 sec
 SCC setup                      ...        0 min,  0.004 sec (  1.699%)
 Dispersion                     ...        0 min,  0.007 sec (  3.421%)
 classical contributions        ...        0 min,  0.004 sec (  1.699%)
 integral evaluation            ...        0 min,  0.012 sec (  5.422%)
 iterations                     ...        0 min,  0.139 sec ( 65.503%)
 molecular gradient             ...        0 min,  0.047 sec ( 22.168%)
 printout                       ...        0 min,  0.000 sec (  0.072%)

         :::::::::::::::::::::::::::::::::::::::::::::::::::::
         ::                     SUMMARY                     ::
         :::::::::::::::::::::::::::::::::::::::::::::::::::::
         :: total energy             -28.121284284289 Eh    ::
         :: gradient norm              0.040144282538 Eh/a0 ::
         :: HOMO-LUMO gap             10.664103495327 eV    ::
         ::.................................................::
         :: SCC energy               -28.418929661776 Eh    ::
         :: -> isotropic ES            0.055792828755 Eh    ::
         :: -> anisotropic ES          0.004989145238 Eh    ::
         :: -> anisotropic XC          0.007034338047 Eh    ::
         :: -> dispersion             -0.015342317095 Eh    ::
         :: repulsion energy           0.297645377487 Eh    ::
         :: add. restraining           0.000000000000 Eh    ::
         :: total charge               0.000000000000 e     ::
         :::::::::::::::::::::::::::::::::::::::::::::::::::::

      ----------------------------------------------------------- 
     |                   =====================                   |
     |                        A N C O P T                        |
     |                   =====================                   |
     |               Approximate Normal Coordinate               |
     |                Rational Function Optimizer                |
      ----------------------------------------------------------- 
      ----------------------------------------------------------- 
     |                   =====================                   |
     |                        A N C O P T                        |
     |                   =====================                   |
     |               Approximate Normal Coordinate               |
     |                Rational Function Optimizer                |
      ----------------------------------------------------------- 

          ...................................................
          :                      SETUP                      :
          :.................................................:
          :   optimization level             tight          :
          :   max. optcycles                   500          :
          :   ANC micro-cycles                  20          :
          :   degrees of freedom                60          :
          :.................................................:
          :   RF solver                   davidson          :
          :   write xtbopt.log                true          :
          :   linear?                        false          :
          :   energy convergence         0.1000000E-05 Eh   :
          :   grad. convergence          0.8000000E-03 Eh/α :
          :   maxmium RF displ.          1.0000000          :
          :   Hlow (freq-cutoff)         0.1000000E-01      :
          :   Hmax (freq-cutoff)         5.0000000          :
          :   S6 in model hess.         20.0000000          :
          ...................................................

generating ANC from exact Hessian ...
Using Lindh-Hessian (1995)
 Shifting diagonal of input Hessian by    8.2674715799575284E-003
 Lowest  eigenvalues of input Hessian
    0.000000    0.000000    0.000000    0.000000    0.000000    0.000000
    0.010000    0.013419    0.014018    0.016854    0.017349    0.017474
    0.017937    0.018177    0.019386    0.021951    0.022813    0.027255
 Highest eigenvalues
    1.188581    1.216621    1.253044    1.267360    1.361979    1.390358


........................................................................
.............................. CYCLE    1 ..............................
........................................................................

 iter      E             dE          RMSdq      gap      omega  full diag
   1    -28.4190361 -0.284190E+02  0.539E-05   10.66       0.0  T
   2    -28.4190361 -0.329692E-11  0.340E-05   10.66     626.6  T
   3    -28.4190361 -0.678568E-12  0.792E-06   10.66    2691.3  T
     SCC iter.                  ...        0 min,  0.038 sec
     gradient                   ...        0 min,  0.031 sec
 * total energy  :   -28.1212843 Eh     change       -0.1217799E-09 Eh
   gradient norm :     0.0401461 Eh/α   predicted     0.0000000E+00 (-100.00%)
   displ. norm   :     0.3044193 α      lambda       -0.5471124E-02
   maximum displ.:     0.1560157 α      in ANC's #16, #11, #4, ...

........................................................................
.............................. CYCLE    2 ..............................
........................................................................

 iter      E             dE          RMSdq      gap      omega  full diag
   1    -28.4353046 -0.284353E+02  0.195E-01   11.00       0.0  T
   2    -28.4353271 -0.225081E-04  0.112E-01   11.00       1.0  T
   3    -28.4353270  0.849751E-07  0.183E-02   11.00       1.2  T
   4    -28.4353291 -0.212118E-05  0.504E-03   11.00       4.2  T
   5    -28.4353293 -0.181367E-06  0.253E-03   11.00       8.4  T
   6    -28.4353293 -0.738861E-08  0.494E-04   11.00      43.2  T
   7    -28.4353293 -0.482139E-09  0.144E-04   11.00     148.5  T
     SCC iter.                  ...        0 min,  0.082 sec
     gradient                   ...        0 min,  0.036 sec
 * total energy  :   -28.1247139 Eh     change       -0.3429591E-02 Eh
   gradient norm :     0.0171622 Eh/α   predicted    -0.2989202E-02 ( -12.84%)
   displ. norm   :     0.1662912 α      lambda       -0.9906262E-03
   maximum displ.:     0.0880733 α      in ANC's #4, #13, #11, ...

........................................................................
.............................. CYCLE    3 ..............................
........................................................................

 iter      E             dE          RMSdq      gap      omega  full diag
   1    -28.4430991 -0.284431E+02  0.736E-02   11.16       0.0  T
   2    -28.4431064 -0.735835E-05  0.427E-02   11.16       1.0  T
   3    -28.4431064  0.205231E-07  0.116E-02   11.16       1.8  T
   4    -28.4431070 -0.597831E-06  0.238E-03   11.16       9.0  T
   5    -28.4431071 -0.430530E-07  0.110E-03   11.16      19.4  T
   6    -28.4431071 -0.157940E-08  0.308E-04   11.16      69.2  T
   7    -28.4431071 -0.286381E-09  0.137E-04   11.16     155.9  T
     SCC iter.                  ...        0 min,  0.070 sec
     gradient                   ...        0 min,  0.032 sec
 * total energy  :   -28.1253132 Eh     change       -0.5992791E-03 Eh
   gradient norm :     0.0053412 Eh/α   predicted    -0.5090123E-03 ( -15.06%)
   displ. norm   :     0.1113068 α      lambda       -0.2056965E-03
   maximum displ.:     0.0584639 α      in ANC's #4, #8, #7, ...

........................................................................
.............................. CYCLE    4 ..............................
........................................................................

 iter      E             dE          RMSdq      gap      omega  full diag
   1    -28.4439168 -0.284439E+02  0.303E-02   11.21       0.0  T
   2    -28.4439182 -0.143377E-05  0.181E-02   11.21       1.2  T
   3    -28.4439182  0.119996E-07  0.567E-03   11.22       3.8  T
   4    -28.4439184 -0.166785E-06  0.112E-03   11.22      19.0  T
   5    -28.4439184 -0.742359E-08  0.462E-04   11.22      46.2  T
   6    -28.4439184 -0.391640E-09  0.177E-04   11.22     120.1  T
     SCC iter.                  ...        0 min,  0.069 sec
     gradient                   ...        0 min,  0.026 sec
 * total energy  :   -28.1254652 Eh     change       -0.1520537E-03 Eh
   gradient norm :     0.0023296 Eh/α   predicted    -0.1041343E-03 ( -31.51%)
   displ. norm   :     0.1611185 α      lambda       -0.1751953E-03
   maximum displ.:     0.0847694 α      in ANC's #8, #7, #4, ...

........................................................................
.............................. CYCLE    5 ..............................
........................................................................

 iter      E             dE          RMSdq      gap      omega  full diag
   1    -28.4429545 -0.284430E+02  0.395E-02   11.24       0.0  T
   2    -28.4429555 -0.102112E-05  0.237E-02   11.25       1.0  T
   3    -28.4429555  0.772808E-07  0.478E-03   11.25       4.5  T
   4    -28.4429557 -0.241375E-06  0.113E-03   11.25      18.9  T
   5    -28.4429557 -0.495440E-08  0.408E-04   11.25      52.2  T
   6    -28.4429557 -0.159371E-09  0.175E-04   11.25     122.1  T
     SCC iter.                  ...        0 min,  0.058 sec
     gradient                   ...        0 min,  0.027 sec
 * total energy  :   -28.1255810 Eh     change       -0.1158403E-03 Eh
   gradient norm :     0.0037637 Eh/α   predicted    -0.8987204E-04 ( -22.42%)
   displ. norm   :     0.1196702 α      lambda       -0.7893114E-04
   maximum displ.:     0.0675823 α      in ANC's #7, #8, #4, ...

........................................................................
.............................. CYCLE    6 ..............................
........................................................................

 iter      E             dE          RMSdq      gap      omega  full diag
   1    -28.4423584 -0.284424E+02  0.269E-02   11.25       0.0  T
   2    -28.4423586 -0.150372E-06  0.162E-02   11.25       1.3  T
   3    -28.4423586  0.399385E-08  0.168E-03   11.25      12.7  T
   4    -28.4423586 -0.381290E-07  0.537E-04   11.25      39.7  T
   5    -28.4423586 -0.691060E-09  0.220E-04   11.25      96.8  T
     SCC iter.                  ...        0 min,  0.057 sec
     gradient                   ...        0 min,  0.033 sec
 * total energy  :   -28.1256385 Eh     change       -0.5741581E-04 Eh
   gradient norm :     0.0038142 Eh/α   predicted    -0.4003534E-04 ( -30.27%)
   displ. norm   :     0.1164655 α      lambda       -0.6680769E-04
   maximum displ.:     0.0682820 α      in ANC's #7, #8, #1, ...

........................................................................
.............................. CYCLE    7 ..............................
........................................................................

 iter      E             dE          RMSdq      gap      omega  full diag
   1    -28.4424199 -0.284424E+02  0.261E-02   11.24       0.0  T
   2    -28.4424201 -0.128715E-06  0.157E-02   11.24       1.4  T
   3    -28.4424201  0.854810E-08  0.161E-03   11.24      13.2  T
   4    -28.4424201 -0.363668E-07  0.504E-04   11.24      42.3  T
   5    -28.4424201 -0.769671E-09  0.214E-04   11.24      99.8  T
     SCC iter.                  ...        0 min,  0.173 sec
     gradient                   ...        0 min,  0.045 sec
 * total energy  :   -28.1256830 Eh     change       -0.4454381E-04 Eh
   gradient norm :     0.0025013 Eh/α   predicted    -0.3385737E-04 ( -23.99%)
   displ. norm   :     0.0623994 α      lambda       -0.2542856E-04
   maximum displ.:     0.0354220 α      in ANC's #1, #7, #4, ...

........................................................................
.............................. CYCLE    8 ..............................
........................................................................

 iter      E             dE          RMSdq      gap      omega  full diag
   1    -28.4429675 -0.284430E+02  0.148E-02   11.23       0.0  T
   2    -28.4429676 -0.122902E-06  0.885E-03   11.23       2.4  T
   3    -28.4429676  0.167571E-07  0.174E-03   11.23      12.2  T
   4    -28.4429677 -0.389125E-07  0.418E-04   11.23      51.0  T
   5    -28.4429677 -0.488704E-09  0.144E-04   11.23     148.1  T
     SCC iter.                  ...        0 min,  0.070 sec
     gradient                   ...        0 min,  0.037 sec
 * total energy  :   -28.1257001 Eh     change       -0.1708298E-04 Eh
   gradient norm :     0.0014178 Eh/α   predicted    -0.1276405E-04 ( -25.28%)
   displ. norm   :     0.0599220 α      lambda       -0.9846796E-05
   maximum displ.:     0.0428830 α      in ANC's #1, #7, #4, ...

........................................................................
.............................. CYCLE    9 ..............................
........................................................................

 iter      E             dE          RMSdq      gap      omega  full diag
   1    -28.4434452 -0.284434E+02  0.141E-02   11.21       0.0  T
   2    -28.4434453 -0.148519E-06  0.843E-03   11.21       2.5  T
   3    -28.4434453  0.167267E-07  0.202E-03   11.21      10.6  T
   4    -28.4434454 -0.440875E-07  0.438E-04   11.21      48.7  T
   5    -28.4434454 -0.405091E-09  0.173E-04   11.21     123.4  T
     SCC iter.                  ...        0 min,  0.057 sec
     gradient                   ...        0 min,  0.034 sec
 * total energy  :   -28.1257085 Eh     change       -0.8368084E-05 Eh
   gradient norm :     0.0011173 Eh/α   predicted    -0.4931669E-05 ( -41.07%)
   displ. norm   :     0.0246401 α      lambda       -0.3808664E-05
   maximum displ.:     0.0186305 α      in ANC's #1, #11, #8, ...

........................................................................
.............................. CYCLE   10 ..............................
........................................................................

 iter      E             dE          RMSdq      gap      omega  full diag
   1    -28.4435271 -0.284435E+02  0.640E-03   11.20       0.0  T
   2    -28.4435271 -0.241131E-07  0.390E-03   11.20       5.5  T
   3    -28.4435271 -0.204846E-08  0.625E-04   11.20      34.1  T
   4    -28.4435271 -0.298226E-08  0.205E-04   11.20     103.9  T
     SCC iter.                  ...        0 min,  0.056 sec
     gradient                   ...        0 min,  0.043 sec
 * total energy  :   -28.1257130 Eh     change       -0.4544936E-05 Eh
   gradient norm :     0.0008019 Eh/α   predicted    -0.1914750E-05 ( -57.87%)
   displ. norm   :     0.0399532 α      lambda       -0.4561948E-05
   maximum displ.:     0.0313347 α      in ANC's #1, #11, #8, ...

........................................................................
.............................. CYCLE   11 ..............................
........................................................................

 iter      E             dE          RMSdq      gap      omega  full diag
   1    -28.4431098 -0.284431E+02  0.104E-02   11.20       0.0  T
   2    -28.4431098 -0.354014E-07  0.634E-03   11.20       3.4  T
   3    -28.4431098 -0.739578E-08  0.812E-04   11.20      26.2  T
   4    -28.4431098 -0.596030E-08  0.349E-04   11.20      61.0  T
     SCC iter.                  ...        0 min,  0.047 sec
     gradient                   ...        0 min,  0.035 sec
 * total energy  :   -28.1257170 Eh     change       -0.4027326E-05 Eh
   gradient norm :     0.0004974 Eh/α   predicted    -0.2285553E-05 ( -43.25%)
   displ. norm   :     0.0238022 α      lambda       -0.1575423E-05
   maximum displ.:     0.0175956 α      in ANC's #1, #8, #11, ...

........................................................................
.............................. CYCLE   12 ..............................
........................................................................

 iter      E             dE          RMSdq      gap      omega  full diag
   1    -28.4433008 -0.284433E+02  0.663E-03   11.19       0.0  T
   2    -28.4433008 -0.153242E-07  0.401E-03   11.19       5.3  T
   3    -28.4433008 -0.264178E-08  0.429E-04   11.19      49.7  T
   4    -28.4433008 -0.968416E-09  0.177E-04   11.19     120.5  T
     SCC iter.                  ...        0 min,  0.047 sec
     gradient                   ...        0 min,  0.034 sec
 * total energy  :   -28.1257182 Eh     change       -0.1132922E-05 Eh
   gradient norm :     0.0005489 Eh/α   predicted    -0.7906439E-06 ( -30.21%)
   displ. norm   :     0.0132353 α      lambda       -0.7131078E-06
   maximum displ.:     0.0102079 α      in ANC's #1, #7, #6, ...

........................................................................
.............................. CYCLE   13 ..............................
........................................................................

 iter      E             dE          RMSdq      gap      omega  full diag
   1    -28.4432573 -0.284433E+02  0.290E-03   11.20       0.0  T
   2    -28.4432573 -0.279768E-08  0.174E-03   11.20      12.2  T
   3    -28.4432573 -0.330012E-10  0.186E-04   11.20     114.4  T
   4    -28.4432573 -0.330001E-09  0.599E-05   11.20     355.6  T
     SCC iter.                  ...        0 min,  0.046 sec
     gradient                   ...        0 min,  0.034 sec
 * total energy  :   -28.1257190 Eh     change       -0.8742326E-06 Eh
   gradient norm :     0.0002905 Eh/α   predicted    -0.3587260E-06 ( -58.97%)
   displ. norm   :     0.0195245 α      lambda       -0.9136185E-06
   maximum displ.:     0.0137891 α      in ANC's #1, #7, #3, ...

   *** GEOMETRY OPTIMIZATION CONVERGED AFTER 13 ITERATIONS ***

------------------------------------------------------------------------
 total energy gain   :        -0.0044348 Eh       -2.7829 kcal/mol
 total RMSD          :         0.1886166 a0        0.0998 Å
 total power (kW/mol):        -0.8956497 (step)   -6.7173 (real)
------------------------------------------------------------------------

 ANCopt (total)                0 d,  0 h,  0 min,  1.733 sec
 optimizer setup                ...        0 min,  0.001 sec (  0.033%)
 model hessian                  ...        0 min,  0.024 sec (  1.407%)
 ANC generation                 ...        0 min,  0.001 sec (  0.046%)
 coordinate transformation      ...        0 min,  0.000 sec (  0.008%)
 single point calculation       ...        0 min,  1.664 sec ( 95.979%)
 optimization log               ...        0 min,  0.001 sec (  0.075%)
 hessian update                 ...        0 min,  0.039 sec (  2.271%)
 rational function              ...        0 min,  0.001 sec (  0.064%)

================
 final structure:
================
22
 xtb: 6.7.1 (edcfbbe)
C           -1.15477844789661        1.34032579066311        0.28272121313301
C           -0.63361837165995        0.08150513791346       -0.41536912001186
C           -1.59887123855406       -1.08375513487980       -0.16958091989676
O           -0.53403126333468        0.32394548176983       -1.81994599624074
C            0.82079784027747       -0.30773319997219        0.00282525883491
C            0.92253618808656       -0.78984263287585        1.44889035758352
C            1.77594249508788        0.87436933581807       -0.21791161711029
O            1.22416182791326       -1.39515749897060       -0.80859006358025
H           -1.11340114510948        1.23166028875351        1.36172868520717
H           -0.57097601729301        2.20790755935644       -0.01121324901888
H           -2.19198799290603        1.51194015418284       -0.00367858199203
H           -2.53484925796804       -0.90843298144293       -0.69917360826387
H           -1.81763442724574       -1.18320641662695        0.88889149300098
H           -1.15998918542413       -2.00947368522275       -0.53364229268726
H           -1.41241252011643        0.53432304160928       -2.15253243085786
H            1.96506905374157       -1.00673463022076        1.66488035741901
H            0.56917765088050       -0.03341847790236        2.14224276061860
H            0.35486692428145       -1.70471438787845        1.58342612349652
H            2.79842505792572        0.50834937270179       -0.16548277999686
H            1.63779560152968        1.63564632292398        0.54358727122044
H            1.61081909326099        1.30940979360245       -1.20029412980241
H            1.04295813452297       -1.13691323330111       -1.72177873105607

 Bond Distances (Angstroems)
 ---------------------------
C1-C2=1.5309         C1-H9=1.0853         C1-H10=1.0862        C1-H11=1.0896        C2-C1=1.5309         C2-C3=1.5330         
C2-O4=1.4288         C2-C5=1.5626         C3-C2=1.5330         C3-H12=1.0896        C3-H13=1.0854        C3-H14=1.0873        
O4-C2=1.4288         O4-H15=0.9625        C5-C2=1.5626         C5-C6=1.5277         C5-C7=1.5357         C5-O8=1.4155         
C6-C5=1.5277         C6-H16=1.0865        C6-H17=1.0853        C6-H18=1.0851        C7-C5=1.5357         C7-H19=1.0873        
C7-H20=1.0856        C7-H21=1.0870        O8-C5=1.4155         O8-H22=0.9661        H9-C1=1.0853         H10-C1=1.0862        
H11-C1=1.0896        H12-C3=1.0896        H13-C3=1.0854        H14-C3=1.0873        H15-O4=0.9625        H16-C6=1.0865        
H17-C6=1.0853        H18-C6=1.0851        H19-C7=1.0873        H20-C7=1.0856        H21-C7=1.0870        H22-O8=0.9661        
 C  H  Rav=1.0867 sigma=0.0015  Rmin=1.0851  Rmax=1.0896    12
 C  C  Rav=1.5380 sigma=0.0126  Rmin=1.5277  Rmax=1.5626     5
 O  H  Rav=0.9643 sigma=0.0018  Rmin=0.9625  Rmax=0.9661     2
 O  C  Rav=1.4222 sigma=0.0067  Rmin=1.4155  Rmax=1.4288     2

 selected bond angles (degree)
 --------------------
H9-C1-C2=110.98                H10-C1-C2=110.51               H10-C1-H9=109.18               H11-C1-C2=109.49               
H11-C1-H9=108.26               H11-C1-H10=108.34              C3-C2-C1=109.73                O4-C2-C1=109.42                
O4-C2-C3=109.30                C5-C2-C1=113.56                C5-C2-C3=110.72                C5-C2-O4=103.91                
H12-C3-C2=109.92               H13-C3-C2=110.67               H13-C3-H12=108.40              H14-C3-C2=109.84               
H14-C3-H12=108.72              H14-C3-H13=109.26              H15-O4-C2=108.25               C6-C5-C2=113.20                
C7-C5-C2=110.41                C7-C5-C6=109.73                O8-C5-C2=107.65                O8-C5-C6=106.33                
O8-C5-C7=109.37                H16-C6-C5=108.36               H17-C6-C5=111.29               H17-C6-H16=108.94              
H18-C6-C5=110.40               H18-C6-H16=108.00              H18-C6-H17=109.76              H19-C7-C5=108.59               
H20-C7-C5=111.09               H20-C7-H19=108.78              H21-C7-C5=110.09               H21-C7-H19=108.73              
H21-C7-H20=109.51              H22-O8-C5=106.44               

 selected dihedral angles (degree)
 ---------------------------------
C3-C2-C1-H9= 67.78            C3-C2-C1-H10=189.05           C3-C2-C1-H11=308.32           O4-C2-C1-H9=187.69            
O4-C2-C1-H10=308.97           O4-C2-C1-H11= 68.23           C5-C2-C1-H9=303.28            C5-C2-C1-H10= 64.55           
C5-C2-C1-H11=183.82           H12-C3-C2-C1= 68.93           H12-C3-C2-O4=308.95           H12-C3-C2-C5=195.06           
H13-C3-C2-C1=309.24           H13-C3-C2-O4=189.25           H13-C3-C2-C5= 75.37           H14-C3-C2-C1=188.52           
H14-C3-C2-O4= 68.53           H14-C3-C2-C5=314.64           H15-O4-C2-C1=299.20           H15-O4-C2-C3= 59.38           
H15-O4-C2-C5=177.60           C6-C5-C2-C1= 68.64            C6-C5-C2-C3=304.67            C6-C5-C2-O4=187.43            
C7-C5-C2-C1=305.18            C7-C5-C2-C3=181.22            C7-C5-C2-O4= 63.98            O8-C5-C2-C1=185.86            
O8-C5-C2-C3= 61.89            O8-C5-C2-O4=304.65            H16-C6-C5-C2=181.84           H16-C6-C5-C7=305.67           
H16-C6-C5-O8= 63.85           H17-C6-C5-C2=301.60           H17-C6-C5-C7= 65.43           H17-C6-C5-O8=183.61           
H18-C6-C5-C2= 63.75           H18-C6-C5-C7=187.58           H18-C6-C5-O8=305.76           H19-C7-C5-C2=194.28           
H19-C7-C5-C6= 68.84           H19-C7-C5-O8=312.56           H20-C7-C5-C2= 74.69           H20-C7-C5-C6=309.25           
H20-C7-C5-O8=192.97           H21-C7-C5-C2=313.22           H21-C7-C5-C6=187.77           H21-C7-C5-O8= 71.49           
H22-O8-C5-C2= 50.62           H22-O8-C5-C6=172.22           H22-O8-C5-C7=290.63           
           -------------------------------------------------
          |                Final Singlepoint                |
           -------------------------------------------------

          ...................................................
          :                      SETUP                      :
          :.................................................:
          :  # basis functions                  46          :
          :  # atomic orbitals                  46          :
          :  # shells                           30          :
          :  # electrons                        50          :
          :  max. iterations                   250          :
          :  Hamiltonian                  GFN2-xTB          :
          :  restarted?                      false          :
          :  GBSA solvation                  false          :
          :  PC potential                    false          :
          :  electronic temp.          300.0000000     K    :
          :  accuracy                    1.0000000          :
          :  -> integral cutoff          0.2500000E+02      :
          :  -> integral neglect         0.1000000E-07      :
          :  -> SCF convergence          0.1000000E-05 Eh   :
          :  -> wf. convergence          0.1000000E-03 e    :
          :  Broyden damping             0.4000000          :
          :  net charge                          0          :
          :  unpaired electrons                  0          :
          ...................................................

 iter      E             dE          RMSdq      gap      omega  full diag
   1    -28.4432573 -0.284433E+02  0.294E-05   11.20       0.0  T
   2    -28.4432573 -0.948575E-12  0.171E-05   11.20    1246.6  T
   3    -28.4432573  0.120792E-12  0.497E-06   11.20    4293.0  T

   *** convergence criteria satisfied after 3 iterations ***

         #    Occupation            Energy/Eh            Energy/eV
      -------------------------------------------------------------
         1        2.0000           -0.6899104             -18.7734
       ...           ...                  ...                  ...
        19        2.0000           -0.4564669             -12.4211
        20        2.0000           -0.4541333             -12.3576
        21        2.0000           -0.4525287             -12.3139
        22        2.0000           -0.4394067             -11.9569
        23        2.0000           -0.4244505             -11.5499
        24        2.0000           -0.4119599             -11.2100
        25        2.0000           -0.3924913             -10.6802 (HOMO)
        26                          0.0189501               0.5157 (LUMO)
        27                          0.0458987               1.2490
        28                          0.0633913               1.7250
        29                          0.0899030               2.4464
        30                          0.1008765               2.7450
       ...                                ...                  ...
        46                          0.2983793               8.1193
      -------------------------------------------------------------
                  HL-Gap            0.4114414 Eh           11.1959 eV
             Fermi-level           -0.1867706 Eh           -5.0823 eV

 SCC (total)                   0 d,  0 h,  0 min,  0.094 sec
 SCC setup                      ...        0 min,  0.004 sec (  3.967%)
 Dispersion                     ...        0 min,  0.007 sec (  7.850%)
 classical contributions        ...        0 min,  0.004 sec (  3.887%)
 integral evaluation            ...        0 min,  0.011 sec ( 12.080%)
 iterations                     ...        0 min,  0.034 sec ( 35.522%)
 molecular gradient             ...        0 min,  0.034 sec ( 36.542%)
 printout                       ...        0 min,  0.000 sec (  0.122%)

         :::::::::::::::::::::::::::::::::::::::::::::::::::::
         ::                     SUMMARY                     ::
         :::::::::::::::::::::::::::::::::::::::::::::::::::::
         :: total energy             -28.125719038955 Eh    ::
         :: gradient norm              0.000290516276 Eh/a0 ::
         :: HOMO-LUMO gap             11.195890503263 eV    ::
         ::.................................................::
         :: SCC energy               -28.443156190724 Eh    ::
         :: -> isotropic ES            0.054905115504 Eh    ::
         :: -> anisotropic ES          0.003914568190 Eh    ::
         :: -> anisotropic XC          0.006470898489 Eh    ::
         :: -> dispersion             -0.015529452182 Eh    ::
         :: repulsion energy           0.317437151769 Eh    ::
         :: add. restraining           0.000000000000 Eh    ::
         :: total charge              -0.000000000000 e     ::
         :::::::::::::::::::::::::::::::::::::::::::::::::::::

           -------------------------------------------------
          |                Property Printout                |
           -------------------------------------------------

    * Orbital Energies and Occupations

         #    Occupation            Energy/Eh            Energy/eV
      -------------------------------------------------------------
         1        2.0000           -0.6899104             -18.7734
       ...           ...                  ...                  ...
        13        2.0000           -0.5016263             -13.6499
        14        2.0000           -0.4982334             -13.5576
        15        2.0000           -0.4770682             -12.9817
        16        2.0000           -0.4712665             -12.8238
        17        2.0000           -0.4643666             -12.6361
        18        2.0000           -0.4595854             -12.5060
        19        2.0000           -0.4564669             -12.4211
        20        2.0000           -0.4541333             -12.3576
        21        2.0000           -0.4525287             -12.3139
        22        2.0000           -0.4394067             -11.9569
        23        2.0000           -0.4244505             -11.5499
        24        2.0000           -0.4119599             -11.2100
        25        2.0000           -0.3924913             -10.6802 (HOMO)
        26                          0.0189501               0.5157 (LUMO)
        27                          0.0458987               1.2490
        28                          0.0633913               1.7250
        29                          0.0899030               2.4464
        30                          0.1008765               2.7450
        31                          0.1217901               3.3141
        32                          0.1345115               3.6602
        33                          0.1517244               4.1286
        34                          0.1696734               4.6170
        35                          0.1824788               4.9655
        36                          0.1994848               5.4283
       ...                                ...                  ...
        46                          0.2983793               8.1193
      -------------------------------------------------------------
                  HL-Gap            0.4114414 Eh           11.1959 eV
             Fermi-level           -0.1867706 Eh           -5.0823 eV

     #   Z          covCN         q      C6AA      α(0)
     1   6 C        3.754    -0.123    22.909     6.825
     2   6 C        3.771     0.130    18.494     6.128
     3   6 C        3.755    -0.120    22.858     6.817
     4   8 O        1.655    -0.462    22.095     6.345
     5   6 C        3.773     0.143    18.307     6.097
     6   6 C        3.756    -0.118    22.822     6.812
     7   6 C        3.755    -0.123    22.906     6.824
     8   8 O        1.656    -0.452    21.878     6.314
     9   1 H        0.925     0.040     2.453     2.449
    10   1 H        0.925     0.050     2.326     2.385
    11   1 H        0.925     0.036     2.505     2.475
    12   1 H        0.925     0.031     2.573     2.508
    13   1 H        0.925     0.041     2.430     2.438
    14   1 H        0.925     0.058     2.220     2.330
    15   1 H        0.805     0.286     0.764     1.373
    16   1 H        0.925     0.056     2.250     2.346
    17   1 H        0.925     0.035     2.520     2.482
    18   1 H        0.925     0.053     2.277     2.360
    19   1 H        0.925     0.048     2.345     2.395
    20   1 H        0.925     0.037     2.492     2.468
    21   1 H        0.925     0.050     2.319     2.382
    22   1 H        0.805     0.304     0.709     1.323

 Mol. C6AA /au·bohr⁶  :       3274.598743
 Mol. C8AA /au·bohr⁸  :      68172.020167
 Mol. α(0) /au        :         83.876856


Wiberg/Mayer (AO) data.
largest (>0.10) Wiberg bond orders for each atom

 ---------------------------------------------------------------------------
     #   Z sym  total        # sym  WBO       # sym  WBO       # sym  WBO
 ---------------------------------------------------------------------------
     1   6 C    3.995 --     2 C    0.994    11 H    0.984    10 H    0.983
                             9 H    0.982
     2   6 C    3.944 --     1 C    0.994     3 C    0.994     4 O    0.966
                             5 C    0.941
     3   6 C    3.995 --     2 C    0.994    13 H    0.984    12 H    0.983
                            14 H    0.982
     4   8 O    1.958 --     2 C    0.966    15 H    0.898
     5   6 C    3.956 --     6 C    0.997     7 C    0.988     8 O    0.987
                             2 C    0.941
     6   6 C    3.994 --     5 C    0.997    17 H    0.984    16 H    0.983
                            18 H    0.983
     7   6 C    3.995 --     5 C    0.988    20 H    0.985    19 H    0.984
                            21 H    0.983
     8   8 O    1.961 --     5 C    0.987    22 H    0.883
     9   1 H    0.998 --     1 C    0.982
    10   1 H    0.998 --     1 C    0.983
    11   1 H    0.999 --     1 C    0.984
    12   1 H    0.999 --     3 C    0.983
    13   1 H    0.998 --     3 C    0.984
    14   1 H    0.997 --     3 C    0.982
    15   1 H    0.918 --     4 O    0.898
    16   1 H    0.997 --     6 C    0.983
    17   1 H    0.999 --     6 C    0.984
    18   1 H    0.997 --     6 C    0.983
    19   1 H    0.997 --     7 C    0.984
    20   1 H    0.999 --     7 C    0.985
    21   1 H    0.997 --     7 C    0.983
    22   1 H    0.908 --     8 O    0.883
 ---------------------------------------------------------------------------

Topologies differ in total number of bonds
Writing topology from bond orders to xtbtopo.mol

molecular dipole:
                 x           y           z       tot (Debye)
 q only:       -0.569       0.428       0.181
   full:       -0.903       0.641       0.090       2.823
molecular quadrupole (traceless):
                xx          xy          yy          xz          yz          zz
 q only:        1.029       1.606      -2.343       2.069      -0.385       1.314
  q+dip:        2.439       1.915      -3.742       3.371      -0.602       1.303
   full:        2.026       1.869      -3.820       3.292      -0.555       1.794

           -------------------------------------------------
          |                Geometry Summary                 |
           -------------------------------------------------

      molecular mass/u    :      118.1743957
   center of mass at/Å    :        0.0998400      -0.1251976      -0.2467174
  moments of inertia/u·Å² :        0.2073081E+03   0.2856429E+03   0.2899118E+03
rotational constants/cm⁻¹ :        0.8131680E-01   0.5901646E-01   0.5814745E-01

 * 20 selected distances

     #   Z          #   Z                                           value/Å
     1   6 C        2   6 C                                       1.5308716
     2   6 C        3   6 C                                       1.5329569
     2   6 C        4   8 O                                       1.4288217
     5   6 C        6   6 C                                       1.5277058
     5   6 C        7   6 C                                       1.5357060 (max)
     5   6 C        8   8 O                                       1.4154820
     1   6 C        9   1 H                                       1.0852546
     1   6 C       10   1 H                                       1.0862417
     1   6 C       11   1 H                                       1.0896239
     3   6 C       12   1 H                                       1.0896152
     3   6 C       13   1 H                                       1.0854087
     3   6 C       14   1 H                                       1.0872503
     4   8 O       15   1 H                                       0.9625104 (min)
     6   6 C       16   1 H                                       1.0865398
     6   6 C       17   1 H                                       1.0852546
     6   6 C       18   1 H                                       1.0850524
     7   6 C       19   1 H                                       1.0872857
     7   6 C       20   1 H                                       1.0855911
     7   6 C       21   1 H                                       1.0870150
     8   8 O       22   1 H                                       0.9661463

 * 4 distinct bonds (by element types)

   Z      Z             #   av. dist./Å        max./Å        min./Å
   1 H    6 C          12     1.0866778     1.0896239     1.0850524
   6 C    6 C           4     1.5318101     1.5357060     1.5277058
   1 H    8 O           2     0.9643283     0.9661463     0.9625104
   6 C    8 O           2     1.4221519     1.4288217     1.4154820


optimized geometry written to: xtbopt.xyz


           -------------------------------------------------
          | TOTAL ENERGY              -28.125719038955 Eh   |
          | GRADIENT NORM               0.000290516276 Eh/α |
          | HOMO-LUMO GAP              11.195890503263 eV   |
           -------------------------------------------------

------------------------------------------------------------------------
 * finished run on 2026/07/08 at 19:43:17.410     
------------------------------------------------------------------------
 total:
 * wall-time:     0 d,  0 h,  0 min,  2.105 sec
 *  cpu-time:     0 d,  0 h,  0 min, 33.504 sec
 * ratio c/w:    15.917 speedup
 SCF:
 * wall-time:     0 d,  0 h,  0 min,  0.213 sec
 *  cpu-time:     0 d,  0 h,  0 min,  3.399 sec
 * ratio c/w:    15.976 speedup
 ANC optimizer:
 * wall-time:     0 d,  0 h,  0 min,  1.833 sec
 *  cpu-time:     0 d,  0 h,  0 min, 29.225 sec
 * ratio c/w:    15.943 speedup

