15
DEC_00030 MMFF geometry for GFN2-xTB preoptimization
C  -2.102882323835  0.019369293775  0.351519108454
C  -1.190266815869 -0.070802024525 -0.858364971738
N   0.163169712403 -0.421910384618 -0.483047720326
C   1.065379639820  0.526258283233 -0.057472327760
C   2.398407113885 -0.035877642747  0.358052010401
O   0.820048660738  1.726508051088 -0.000447040956
H  -2.123869807404 -0.930338721700  0.896363301652
H  -3.124262115705  0.260484778222  0.041702263056
H  -1.763891372705  0.794362570340  1.046688685759
H  -1.180611882965  0.884656798562 -1.393527244301
H  -1.547965622495 -0.845276578344 -1.544040583287
H   0.392006860805 -1.401703052629 -0.380950626492
H   2.470888160692 -0.015400886005  1.448531028419
H   2.528918951561 -1.064651428074  0.011062958640
H   3.194930841075  0.574320943421 -0.076774201287
