44
REP_00017 MMFF geometry for GFN2-xTB preoptimization
C  -0.950219702983  5.386444732773  0.359240294194
C  -1.102732237920  4.228276061906 -0.613599349805
C  -1.021586421108  2.883105755694  0.101825526663
C  -1.170337523574  1.720105491739 -0.869427611428
O  -1.071277660973  0.508676040200 -0.138529573433
P  -0.777551072640 -0.822389685891 -0.999213790654
O  -1.667631038379 -0.999187478195 -2.188251635364
O   0.793616226056 -0.714282951160 -1.334031205432
C   1.713398267692 -0.697611873591 -0.256357356012
C   3.030169610599 -0.083552560067 -0.718703947572
C   2.870540951850  1.385232159406 -1.118437306714
C   4.200627214988  1.997895018398 -1.527468042814
O  -0.858721223508 -1.998186279586  0.097815643119
C  -2.155317976834 -2.367961837874  0.533064981240
C  -2.044322067710 -3.413472191987  1.637115353668
C  -1.396476086867 -4.709098484743  1.143427033257
C  -1.325773270041 -5.750930190665  2.248848885138
H  -1.740631941508  5.369511951175  1.116405293726
H   0.016820147870  5.344422684920  0.870561652090
H  -1.011194444807  6.340162918420 -0.174242070827
H  -2.064760752730  4.317344033264 -1.131468554904
H  -0.316814925202  4.292883891357 -1.375143251758
H  -0.064982013891  2.792359357551  0.631736578101
H  -1.798941419036  2.814407022639  0.873100511627
H  -2.146011962666  1.751672146920 -1.365227107285
H  -0.387158099370  1.760103963127 -1.633859023413
H   1.882154663110 -1.729283407309  0.068842864256
H   1.309301329150 -0.131982541768  0.589771146716
H   3.410959286846 -0.646212028612 -1.579730849751
H   3.767746640301 -0.169384494912  0.087571762896
H   2.166354575731  1.475252245609 -1.953200508368
H   2.454700524738  1.955930288917 -0.279957750574
H   4.920559029212  1.958792004311 -0.703780827356
H   4.629191156499  1.468630606109 -2.384504459727
H   4.063886260334  3.046597783421 -1.809361288335
H  -2.672584849097 -1.482412898301  0.917076319038
H  -2.724683818173 -2.763640166893 -0.314586402901
H  -1.442967715369 -3.007799145948  2.459861779739
H  -3.044962677086 -3.626959167414  2.030335812497
H  -1.971797987355 -5.115116524612  0.303300972361
H  -0.383061909626 -4.510011693831  0.776577531124
H  -2.325989666033 -6.001953039569  2.616107171444
H  -0.860979475419 -6.668759628089  1.875378555290
H  -0.730555945073 -5.387617886839  3.092678020109
