      -----------------------------------------------------------      
     |                   =====================                   |     
     |                           x T B                           |     
     |                   =====================                   |     
     |                         S. Grimme                         |     
     |          Mulliken Center for Theoretical Chemistry        |     
     |                    University of Bonn                     |     
      -----------------------------------------------------------      

   * xtb version 6.7.1 (edcfbbe) compiled by 'conda@5dfe00f5fb80' on 2026-06-10

   xtb is free software: you can redistribute it and/or modify it under
   the terms of the GNU Lesser General Public License as published by
   the Free Software Foundation, either version 3 of the License, or
   (at your option) any later version.
   
   xtb is distributed in the hope that it will be useful,
   but WITHOUT ANY WARRANTY; without even the implied warranty of
   MERCHANTABILITY or FITNESS FOR A PARTICULAR PURPOSE.  See the
   GNU Lesser General Public License for more details.
   
   Cite this work as:
   * C. Bannwarth, E. Caldeweyher, S. Ehlert, A. Hansen, P. Pracht,
     J. Seibert, S. Spicher, S. Grimme, WIREs Comput. Mol. Sci., 2020, 11,
     e01493. DOI: 10.1002/wcms.1493
   
   for GFN2-xTB:
   * C. Bannwarth, S. Ehlert and S. Grimme., J. Chem. Theory Comput., 2019,
     15, 1652-1671. DOI: 10.1021/acs.jctc.8b01176
   for GFN1-xTB:
   * S. Grimme, C. Bannwarth, P. Shushkov, J. Chem. Theory Comput., 2017,
     13, 1989-2009. DOI: 10.1021/acs.jctc.7b00118
   for GFN0-xTB:
   * P. Pracht, E. Caldeweyher, S. Ehlert, S. Grimme, ChemRxiv, 2019, preprint.
     DOI: 10.26434/chemrxiv.8326202.v1
   for GFN-FF:
   * S. Spicher and S. Grimme, Angew. Chem. Int. Ed., 2020, 59, 15665-15673.
     DOI: 10.1002/anie.202004239
   
   for ALPB and GBSA implicit solvation:
   * S. Ehlert, M. Stahn, S. Spicher, S. Grimme, J. Chem. Theory Comput.,
     2021, 17, 4250-4261. DOI: 10.1021/acs.jctc.1c00471
   
   for ddCOSMO and CPCM-X implicit solvation:
   * M. Stahn, S. Ehlert, S. Grimme, J. Phys. Chem. A,
     2023, XX, XXXX-XXXX. DOI: 10.1021/acs.jpca.3c04382
   
   for DFT-D4:
   * E. Caldeweyher, C. Bannwarth and S. Grimme, J. Chem. Phys., 2017,
     147, 034112. DOI: 10.1063/1.4993215
   * E. Caldeweyher, S. Ehlert, A. Hansen, H. Neugebauer, S. Spicher,
     C. Bannwarth and S. Grimme, J. Chem. Phys., 2019, 150, 154122.
     DOI: 10.1063/1.5090222
   * E. Caldeweyher, J.-M. Mewes, S. Ehlert and S. Grimme, Phys. Chem. Chem. Phys.
     2020, 22, 8499-8512. DOI: 10.1039/D0CP00502A
   
   for sTDA-xTB:
   * S. Grimme and C. Bannwarth, J. Chem. Phys., 2016, 145, 054103.
     DOI: 10.1063/1.4959605
   
   in the mass-spec context:
   * V. Asgeirsson, C. Bauer and S. Grimme, Chem. Sci., 2017, 8, 4879.
     DOI: 10.1039/c7sc00601b
   * J. Koopman and S. Grimme, ACS Omega 2019, 4, 12, 15120-15133.
     DOI: 10.1021/acsomega.9b02011
   
   for metadynamics refer to:
   * S. Grimme, J. Chem. Theory Comput., 2019, 155, 2847-2862
     DOI: 10.1021/acs.jctc.9b00143
   
   for SPH calculations refer to:
   * S. Spicher and S. Grimme, J. Chem. Theory Comput., 2021, 17, 1701-1714
     DOI: 10.1021/acs.jctc.0c01306
   
   for ONIOM refer to:
   * C. Plett, A. Katbashev, S. Ehlert, S. Grimme, M. Bursch,
     Phys. Chem. Chem. Phys., 2023, 25, 17860-17868. DOI: 10.1039/D3CP02178E
   
   for DIPRO refer to:
   * J. Kohn, N. Gildemeister, S. Grimme, D. Fazzi, A. Hansen,
     J. Chem. Phys., 2023, just accepted.
   
   for PTB refer to:
   * S. Grimme, M. Mueller, A. Hansen, J. Chem. Phys., 2023, 158, 124111.
     DOI: 10.1063/5.0137838
   
   with help from (in alphabetical order)
   P. Atkinson, C. Bannwarth, F. Bohle, G. Brandenburg, E. Caldeweyher
   M. Checinski, S. Dohm, S. Ehlert, S. Ehrlich, I. Gerasimov, C. Hölzer
   A. Katbashev, J. Kohn, J. Koopman, C. Lavigne, S. Lehtola, F. März, M. Müller,
   F. Musil, H. Neugebauer, J. Pisarek, C. Plett, P. Pracht, F. Pultar,
   J. Seibert, P. Shushkov, S. Spicher, M. Stahn, M. Steiner, T. Strunk,
   J. Stückrath, T. Rose, and J. Unsleber
   
 * started run on 2026/07/07 at 06:09:05.073     
   ID    Z sym.   atoms
    1    8 O      1, 6, 12
    2    6 C      2-4, 7-11
    3   17 Cl     5
    4    1 H      13-25

           -------------------------------------------------
          |                Calculation Setup                |
           -------------------------------------------------

          program call               : /home/ws/xd2484/miniforge3/envs/p3z_dft/bin/xtb xtb_input.xyz --gfn 2 --opt tight --cycles 500 --chrg 0 --uhf 0
          hostname                   : gpu10
          coordinate file            : xtb_input.xyz
          omp threads                :                    16


           -------------------------------------------------
          |                 G F N 2 - x T B                 |
           -------------------------------------------------

        Reference                      10.1021/acs.jctc.8b01176
      * Hamiltonian:
        H0-scaling (s, p, d)           1.850000    2.230000    2.230000
        zeta-weighting                 0.500000
      * Dispersion:
        s8                             2.700000
        a1                             0.520000
        a2                             5.000000
        s9                             5.000000
      * Repulsion:
        kExp                           1.500000    1.000000
        rExp                           1.000000
      * Coulomb:
        alpha                          2.000000
        third order                    shell-resolved
        anisotropic                    true
        a3                             3.000000
        a5                             4.000000
        cn-shift                       1.200000
        cn-exp                         4.000000
        max-rad                        5.000000


          ...................................................
          :                      SETUP                      :
          :.................................................:
          :  # basis functions                  67          :
          :  # atomic orbitals                  66          :
          :  # shells                           38          :
          :  # electrons                        70          :
          :  max. iterations                   250          :
          :  Hamiltonian                  GFN2-xTB          :
          :  restarted?                      false          :
          :  GBSA solvation                  false          :
          :  PC potential                    false          :
          :  electronic temp.          300.0000000     K    :
          :  accuracy                    1.0000000          :
          :  -> integral cutoff          0.2500000E+02      :
          :  -> integral neglect         0.1000000E-07      :
          :  -> SCF convergence          0.1000000E-05 Eh   :
          :  -> wf. convergence          0.1000000E-03 e    :
          :  Broyden damping             0.4000000          :
          :  net charge                          0          :
          :  unpaired electrons                  0          :
          ...................................................

 iter      E             dE          RMSdq      gap      omega  full diag
   1    -40.7839668 -0.407840E+02  0.444E+00    5.57       0.0  T
   2    -40.8810114 -0.970446E-01  0.233E+00    4.15       1.0  T
   3    -40.8843686 -0.335721E-02  0.123E+00    4.37       1.0  T
   4    -40.8883232 -0.395463E-02  0.204E-01    3.93       1.0  T
   5    -40.8888523 -0.529112E-03  0.937E-02    4.04       1.0  T
   6    -40.8888769 -0.246066E-04  0.545E-02    4.06       1.0  T
   7    -40.8888928 -0.158824E-04  0.328E-02    4.06       1.0  T
   8    -40.8889024 -0.960701E-05  0.208E-02    4.05       1.0  T
   9    -40.8889075 -0.507156E-05  0.861E-03    4.05       2.3  T
  10    -40.8889083 -0.812399E-06  0.306E-03    4.05       6.5  T
  11    -40.8889083 -0.315419E-07  0.102E-03    4.05      19.5  T
  12    -40.8889083 -0.556179E-08  0.636E-04    4.05      31.4  T
  13    -40.8889083 -0.227319E-08  0.345E-04    4.05      57.9  T

   *** convergence criteria satisfied after 13 iterations ***

         #    Occupation            Energy/Eh            Energy/eV
      -------------------------------------------------------------
         1        2.0000           -1.0525672             -28.6418
       ...           ...                  ...                  ...
        29        2.0000           -0.4627187             -12.5912
        30        2.0000           -0.4554451             -12.3933
        31        2.0000           -0.4492728             -12.2253
        32        2.0000           -0.4342849             -11.8175
        33        2.0000           -0.4161882             -11.3251
        34        2.0000           -0.4143146             -11.2741
        35        2.0000           -0.3996671             -10.8755 (HOMO)
        36                         -0.2508799              -6.8268 (LUMO)
        37                         -0.1622617              -4.4154
        38                         -0.0331470              -0.9020
        39                         -0.0056353              -0.1533
        40                          0.0166362               0.4527
       ...                                ...                  ...
        66                          0.5792640              15.7626
      -------------------------------------------------------------
                  HL-Gap            0.1487871 Eh            4.0487 eV
             Fermi-level           -0.3252735 Eh           -8.8511 eV

 SCC (total)                   0 d,  0 h,  0 min,  0.362 sec
 SCC setup                      ...        0 min,  0.007 sec (  1.870%)
 Dispersion                     ...        0 min,  0.014 sec (  3.961%)
 classical contributions        ...        0 min,  0.007 sec (  2.017%)
 integral evaluation            ...        0 min,  0.015 sec (  4.124%)
 iterations                     ...        0 min,  0.262 sec ( 72.413%)
 molecular gradient             ...        0 min,  0.056 sec ( 15.559%)
 printout                       ...        0 min,  0.000 sec (  0.047%)

         :::::::::::::::::::::::::::::::::::::::::::::::::::::
         ::                     SUMMARY                     ::
         :::::::::::::::::::::::::::::::::::::::::::::::::::::
         :: total energy             -40.525493548219 Eh    ::
         :: gradient norm              0.059389624550 Eh/a0 ::
         :: HOMO-LUMO gap              4.048703634507 eV    ::
         ::.................................................::
         :: SCC energy               -40.888943586149 Eh    ::
         :: -> isotropic ES            0.069632395027 Eh    ::
         :: -> anisotropic ES          0.003123070935 Eh    ::
         :: -> anisotropic XC          0.007338898363 Eh    ::
         :: -> dispersion             -0.018261433389 Eh    ::
         :: repulsion energy           0.363450037930 Eh    ::
         :: add. restraining           0.000000000000 Eh    ::
         :: total charge               0.000000000000 e     ::
         :::::::::::::::::::::::::::::::::::::::::::::::::::::

      ----------------------------------------------------------- 
     |                   =====================                   |
     |                        A N C O P T                        |
     |                   =====================                   |
     |               Approximate Normal Coordinate               |
     |                Rational Function Optimizer                |
      ----------------------------------------------------------- 
      ----------------------------------------------------------- 
     |                   =====================                   |
     |                        A N C O P T                        |
     |                   =====================                   |
     |               Approximate Normal Coordinate               |
     |                Rational Function Optimizer                |
      ----------------------------------------------------------- 

          ...................................................
          :                      SETUP                      :
          :.................................................:
          :   optimization level             tight          :
          :   max. optcycles                   500          :
          :   ANC micro-cycles                  20          :
          :   degrees of freedom                69          :
          :.................................................:
          :   RF solver                   davidson          :
          :   write xtbopt.log                true          :
          :   linear?                        false          :
          :   energy convergence         0.1000000E-05 Eh   :
          :   grad. convergence          0.8000000E-03 Eh/α :
          :   maxmium RF displ.          1.0000000          :
          :   Hlow (freq-cutoff)         0.1000000E-01      :
          :   Hmax (freq-cutoff)         5.0000000          :
          :   S6 in model hess.         20.0000000          :
          ...................................................

generating ANC from exact Hessian ...
Using Lindh-Hessian (1995)
 Shifting diagonal of input Hessian by    9.2297800961844163E-003
 Lowest  eigenvalues of input Hessian
    0.000000    0.000000    0.000000    0.000000    0.000000    0.000000
    0.010000    0.010750    0.011012    0.014176    0.015492    0.017525
    0.019238    0.020283    0.024231    0.035650    0.037577    0.041994
 Highest eigenvalues
    1.282693    1.317993    1.337489    1.425649    1.693032    2.255229


........................................................................
.............................. CYCLE    1 ..............................
........................................................................

 iter      E             dE          RMSdq      gap      omega  full diag
   1    -40.8889083 -0.408889E+02  0.217E-04    4.05       0.0  T
   2    -40.8889083 -0.135152E-09  0.172E-04    4.05     116.3  T
   3    -40.8889083 -0.155872E-09  0.960E-05    4.05     208.4  T
     SCC iter.                  ...        0 min,  0.070 sec
     gradient                   ...        0 min,  0.063 sec
 * total energy  :   -40.5254935 Eh     change       -0.1000295E-08 Eh
   gradient norm :     0.0593889 Eh/α   predicted     0.0000000E+00 (-100.00%)
   displ. norm   :     0.1586012 α      lambda       -0.4892544E-02
   maximum displ.:     0.0761435 α      in ANC's #21, #23, #18, ...

........................................................................
.............................. CYCLE    2 ..............................
........................................................................

 iter      E             dE          RMSdq      gap      omega  full diag
   1    -40.9004663 -0.409005E+02  0.166E-01    4.29       0.0  T
   2    -40.9005208 -0.544374E-04  0.100E-01    4.25       1.0  T
   3    -40.9005174  0.341791E-05  0.396E-02    4.27       1.0  T
   4    -40.9005295 -0.121721E-04  0.469E-03    4.25       4.3  T
   5    -40.9005296 -0.110194E-06  0.284E-03    4.25       7.1  T
   6    -40.9005297 -0.299417E-07  0.117E-03    4.25      17.1  T
   7    -40.9005297 -0.419956E-08  0.623E-04    4.25      32.1  T
   8    -40.9005297 -0.233551E-08  0.424E-04    4.25      47.2  T
     SCC iter.                  ...        0 min,  0.163 sec
     gradient                   ...        0 min,  0.044 sec
 * total energy  :   -40.5286007 Eh     change       -0.3107103E-02 Eh
   gradient norm :     0.0202396 Eh/α   predicted    -0.2507868E-02 ( -19.29%)
   displ. norm   :     0.0905718 α      lambda       -0.7800865E-03
   maximum displ.:     0.0385800 α      in ANC's #21, #5, #6, ...

........................................................................
.............................. CYCLE    3 ..............................
........................................................................

 iter      E             dE          RMSdq      gap      omega  full diag
   1    -40.9036448 -0.409036E+02  0.734E-02    4.31       0.0  T
   2    -40.9036646 -0.198131E-04  0.445E-02    4.31       1.0  T
   3    -40.9036650 -0.374772E-06  0.197E-02    4.32       1.0  T
   4    -40.9036662 -0.121257E-05  0.272E-03    4.32       7.3  T
   5    -40.9036663 -0.103945E-06  0.115E-03    4.32      17.4  T
   6    -40.9036663 -0.500158E-08  0.573E-04    4.32      34.9  T
   7    -40.9036663 -0.101564E-08  0.338E-04    4.32      59.2  T
     SCC iter.                  ...        0 min,  0.126 sec
     gradient                   ...        0 min,  0.044 sec
 * total energy  :   -40.5290552 Eh     change       -0.4545217E-03 Eh
   gradient norm :     0.0081074 Eh/α   predicted    -0.3934970E-03 ( -13.43%)
   displ. norm   :     0.0598656 α      lambda       -0.1148595E-03
   maximum displ.:     0.0346093 α      in ANC's #5, #6, #4, ...

........................................................................
.............................. CYCLE    4 ..............................
........................................................................

 iter      E             dE          RMSdq      gap      omega  full diag
   1    -40.9035708 -0.409036E+02  0.269E-02    4.30       0.0  T
   2    -40.9035750 -0.415748E-05  0.164E-02    4.31       1.2  T
   3    -40.9035751 -0.950955E-07  0.809E-03    4.32       2.5  T
   4    -40.9035751 -0.389392E-07  0.125E-03    4.32      15.9  T
   5    -40.9035752 -0.242688E-07  0.363E-04    4.32      55.1  T
   6    -40.9035752 -0.519883E-09  0.190E-04    4.32     105.4  T
     SCC iter.                  ...        0 min,  0.089 sec
     gradient                   ...        0 min,  0.043 sec
 * total energy  :   -40.5291389 Eh     change       -0.8370490E-04 Eh
   gradient norm :     0.0030381 Eh/α   predicted    -0.5763864E-04 ( -31.14%)
   displ. norm   :     0.1047823 α      lambda       -0.9686445E-04
   maximum displ.:     0.0613862 α      in ANC's #5, #6, #4, ...

........................................................................
.............................. CYCLE    5 ..............................
........................................................................

 iter      E             dE          RMSdq      gap      omega  full diag
   1    -40.9030899 -0.409031E+02  0.392E-02    4.30       0.0  T
   2    -40.9030927 -0.287812E-05  0.239E-02    4.31       1.0  T
   3    -40.9030927  0.132182E-07  0.718E-03    4.31       2.8  T
   4    -40.9030929 -0.171508E-06  0.112E-03    4.31      17.8  T
   5    -40.9030929 -0.143266E-07  0.475E-04    4.31      42.1  T
   6    -40.9030929 -0.432443E-09  0.219E-04    4.31      91.5  T
     SCC iter.                  ...        0 min,  0.133 sec
     gradient                   ...        0 min,  0.037 sec
 * total energy  :   -40.5292071 Eh     change       -0.6826549E-04 Eh
   gradient norm :     0.0035940 Eh/α   predicted    -0.4910602E-04 ( -28.07%)
   displ. norm   :     0.1381650 α      lambda       -0.7800420E-04
   maximum displ.:     0.0820434 α      in ANC's #5, #6, #4, ...

........................................................................
.............................. CYCLE    6 ..............................
........................................................................

 iter      E             dE          RMSdq      gap      omega  full diag
   1    -40.9025379 -0.409025E+02  0.505E-02    4.31       0.0  T
   2    -40.9025387 -0.813077E-06  0.307E-02    4.31       1.0  T
   3    -40.9025387 -0.166707E-07  0.327E-03    4.32       6.1  T
   4    -40.9025388 -0.131964E-06  0.100E-03    4.32      20.0  T
   5    -40.9025388 -0.282618E-08  0.513E-04    4.31      39.0  T
   6    -40.9025388 -0.338154E-09  0.148E-04    4.31     135.5  T
     SCC iter.                  ...        0 min,  0.144 sec
     gradient                   ...        0 min,  0.038 sec
 * total energy  :   -40.5292688 Eh     change       -0.6164638E-04 Eh
   gradient norm :     0.0058809 Eh/α   predicted    -0.3974946E-04 ( -35.52%)
   displ. norm   :     0.2728307 α      lambda       -0.1330774E-03
   maximum displ.:     0.1624051 α      in ANC's #5, #6, #4, ...

........................................................................
.............................. CYCLE    7 ..............................
........................................................................

 iter      E             dE          RMSdq      gap      omega  full diag
   1    -40.9013228 -0.409013E+02  0.992E-02    4.32       0.0  T
   2    -40.9013243 -0.150510E-05  0.603E-02    4.32       1.0  T
   3    -40.9013247 -0.391498E-06  0.391E-03    4.32       5.1  T
   4    -40.9013249 -0.134648E-06  0.188E-03    4.32      10.6  T
   5    -40.9013249 -0.153091E-08  0.472E-04    4.32      42.4  T
   6    -40.9013249 -0.143987E-08  0.158E-04    4.32     126.9  T
     SCC iter.                  ...        0 min,  0.089 sec
     gradient                   ...        0 min,  0.034 sec
 * total energy  :   -40.5293658 Eh     change       -0.9696269E-04 Eh
   gradient norm :     0.0073910 Eh/α   predicted    -0.7150818E-04 ( -26.25%)
   displ. norm   :     0.2693019 α      lambda       -0.1258632E-03
   maximum displ.:     0.1606861 α      in ANC's #5, #6, #4, ...

........................................................................
.............................. CYCLE    8 ..............................
........................................................................

 iter      E             dE          RMSdq      gap      omega  full diag
   1    -40.9005714 -0.409006E+02  0.985E-02    4.34       0.0  T
   2    -40.9005738 -0.237182E-05  0.597E-02    4.34       1.0  T
   3    -40.9005742 -0.385043E-06  0.471E-03    4.33       4.2  T
   4    -40.9005744 -0.177073E-06  0.196E-03    4.33      10.2  T
   5    -40.9005744 -0.514984E-08  0.890E-04    4.33      22.5  T
   6    -40.9005744 -0.181484E-08  0.238E-04    4.33      84.2  T
     SCC iter.                  ...        0 min,  0.075 sec
     gradient                   ...        0 min,  0.036 sec
 * total energy  :   -40.5294549 Eh     change       -0.8911973E-04 Eh
   gradient norm :     0.0076625 Eh/α   predicted    -0.6750214E-04 ( -24.26%)
   displ. norm   :     0.2074302 α      lambda       -0.1608628E-03
   maximum displ.:     0.1216607 α      in ANC's #5, #6, #1, ...

........................................................................
.............................. CYCLE    9 ..............................
........................................................................

 iter      E             dE          RMSdq      gap      omega  full diag
   1    -40.9019460 -0.409019E+02  0.773E-02    4.35       0.0  T
   2    -40.9019496 -0.355156E-05  0.467E-02    4.34       1.0  T
   3    -40.9019497 -0.993580E-07  0.677E-03    4.34       3.0  T
   4    -40.9019500 -0.314900E-06  0.186E-03    4.34      10.8  T
   5    -40.9019500 -0.188526E-07  0.974E-04    4.34      20.5  T
   6    -40.9019500 -0.110187E-08  0.284E-04    4.34      70.3  T
     SCC iter.                  ...        0 min,  0.100 sec
     gradient                   ...        0 min,  0.029 sec
 * total energy  :   -40.5295732 Eh     change       -0.1183399E-03 Eh
   gradient norm :     0.0065819 Eh/α   predicted    -0.8389370E-04 ( -29.11%)
   displ. norm   :     0.2114466 α      lambda       -0.1546635E-03
   maximum displ.:     0.1208101 α      in ANC's #5, #6, #1, ...

........................................................................
.............................. CYCLE   10 ..............................
........................................................................

 iter      E             dE          RMSdq      gap      omega  full diag
   1    -40.9033811 -0.409034E+02  0.785E-02    4.35       0.0  T
   2    -40.9033826 -0.155565E-05  0.475E-02    4.35       1.0  T
   3    -40.9033829 -0.242577E-06  0.415E-03    4.34       4.8  T
   4    -40.9033830 -0.146096E-06  0.182E-03    4.34      11.0  T
   5    -40.9033830 -0.790375E-08  0.923E-04    4.34      21.7  T
   6    -40.9033830 -0.163897E-08  0.212E-04    4.34      94.1  T
     SCC iter.                  ...        0 min,  0.096 sec
     gradient                   ...        0 min,  0.055 sec
 * total energy  :   -40.5296909 Eh     change       -0.1177325E-03 Eh
   gradient norm :     0.0066805 Eh/α   predicted    -0.8079130E-04 ( -31.38%)
   displ. norm   :     0.3860650 α      lambda       -0.1770572E-03
   maximum displ.:     0.2209909 α      in ANC's #5, #6, #1, ...

........................................................................
.............................. CYCLE   11 ..............................
........................................................................

 iter      E             dE          RMSdq      gap      omega  full diag
   1    -40.9015463 -0.409015E+02  0.142E-01    4.36       0.0  T
   2    -40.9015491 -0.272681E-05  0.863E-02    4.36       1.0  T
   3    -40.9015500 -0.978057E-06  0.605E-03    4.36       3.3  T
   4    -40.9015503 -0.238977E-06  0.326E-03    4.36       6.1  T
   5    -40.9015503 -0.806702E-08  0.993E-04    4.36      20.1  T
   6    -40.9015503 -0.661518E-08  0.291E-04    4.36      68.6  T
     SCC iter.                  ...        0 min,  0.084 sec
     gradient                   ...        0 min,  0.043 sec
 * total energy  :   -40.5297900 Eh     change       -0.9909206E-04 Eh
   gradient norm :     0.0101405 Eh/α   predicted    -0.1017305E-03 (   2.66%)
   displ. norm   :     0.2366400 α      lambda       -0.3497038E-03
   maximum displ.:     0.0959743 α      in ANC's #5, #1, #8, ...

........................................................................
.............................. CYCLE   12 ..............................
........................................................................

 iter      E             dE          RMSdq      gap      omega  full diag
   1    -40.9054207 -0.409054E+02  0.950E-02    4.32       0.0  T
   2    -40.9054283 -0.754188E-05  0.575E-02    4.34       1.0  T
   3    -40.9054287 -0.438173E-06  0.895E-03    4.35       2.2  T
   4    -40.9054292 -0.504581E-06  0.283E-03    4.35       7.1  T
   5    -40.9054292 -0.220217E-07  0.145E-03    4.35      13.8  T
   6    -40.9054292 -0.229897E-08  0.526E-04    4.35      38.0  T
   7    -40.9054292 -0.847770E-09  0.180E-04    4.35     111.0  T
     SCC iter.                  ...        0 min,  0.095 sec
     gradient                   ...        0 min,  0.048 sec
 * total energy  :   -40.5298930 Eh     change       -0.1029227E-03 Eh
   gradient norm :     0.0082227 Eh/α   predicted    -0.1846472E-03 (  79.40%)
   displ. norm   :     0.2254721 α      lambda       -0.1608055E-03
   maximum displ.:     0.1301820 α      in ANC's #5, #6, #1, ...

........................................................................
.............................. CYCLE   13 ..............................
........................................................................

 iter      E             dE          RMSdq      gap      omega  full diag
   1    -40.9024350 -0.409024E+02  0.847E-02    4.38       0.0  T
   2    -40.9024364 -0.144157E-05  0.513E-02    4.38       1.0  T
   3    -40.9024367 -0.310282E-06  0.458E-03    4.38       4.4  T
   4    -40.9024369 -0.185439E-06  0.214E-03    4.38       9.3  T
   5    -40.9024369 -0.247795E-08  0.585E-04    4.38      34.2  T
   6    -40.9024369 -0.194077E-08  0.191E-04    4.38     104.8  T
     SCC iter.                  ...        0 min,  0.087 sec
     gradient                   ...        0 min,  0.039 sec
 * total energy  :   -40.5299747 Eh     change       -0.8178214E-04 Eh
   gradient norm :     0.0066177 Eh/α   predicted    -0.8450773E-04 (   3.33%)
   displ. norm   :     0.0869560 α      lambda       -0.8991655E-04
   maximum displ.:     0.0370695 α      in ANC's #5, #9, #8, ...

........................................................................
.............................. CYCLE   14 ..............................
........................................................................

 iter      E             dE          RMSdq      gap      omega  full diag
   1    -40.9033674 -0.409034E+02  0.358E-02    4.40       0.0  T
   2    -40.9033689 -0.158962E-05  0.217E-02    4.40       1.0  T
   3    -40.9033687  0.240989E-06  0.735E-03    4.41       2.7  T
   4    -40.9033692 -0.543358E-06  0.118E-03    4.40      17.0  T
   5    -40.9033692 -0.336360E-08  0.575E-04    4.40      34.8  T
   6    -40.9033692 -0.794095E-09  0.223E-04    4.40      89.7  T
     SCC iter.                  ...        0 min,  0.088 sec
     gradient                   ...        0 min,  0.041 sec
 * total energy  :   -40.5300090 Eh     change       -0.3429122E-04 Eh
   gradient norm :     0.0035072 Eh/α   predicted    -0.4530049E-04 (  32.11%)
   displ. norm   :     0.0985752 α      lambda       -0.3788427E-04
   maximum displ.:     0.0473239 α      in ANC's #5, #1, #6, ...

........................................................................
.............................. CYCLE   15 ..............................
........................................................................

 iter      E             dE          RMSdq      gap      omega  full diag
   1    -40.9031034 -0.409031E+02  0.401E-02    4.39       0.0  T
   2    -40.9031040 -0.667161E-06  0.241E-02    4.40       1.0  T
   3    -40.9031041 -0.172188E-07  0.313E-03    4.40       6.4  T
   4    -40.9031042 -0.967359E-07  0.104E-03    4.40      19.3  T
   5    -40.9031042 -0.323956E-08  0.589E-04    4.40      34.0  T
   6    -40.9031042 -0.472063E-09  0.139E-04    4.40     144.2  T
     SCC iter.                  ...        0 min,  0.058 sec
     gradient                   ...        0 min,  0.027 sec
 * total energy  :   -40.5300351 Eh     change       -0.2611485E-04 Eh
   gradient norm :     0.0016871 Eh/α   predicted    -0.1913167E-04 ( -26.74%)
   displ. norm   :     0.1861912 α      lambda       -0.2276199E-04
   maximum displ.:     0.0960311 α      in ANC's #5, #1, #6, ...

........................................................................
.............................. CYCLE   16 ..............................
........................................................................

 iter      E             dE          RMSdq      gap      omega  full diag
   1    -40.9029939 -0.409030E+02  0.696E-02    4.40       0.0  T
   2    -40.9029949 -0.107755E-05  0.420E-02    4.41       1.0  T
   3    -40.9029951 -0.170302E-06  0.392E-03    4.41       5.1  T
   4    -40.9029952 -0.139135E-06  0.174E-03    4.41      11.5  T
   5    -40.9029953 -0.586143E-08  0.811E-04    4.41      24.6  T
   6    -40.9029953 -0.135749E-08  0.204E-04    4.41      97.9  T
     SCC iter.                  ...        0 min,  0.067 sec
     gradient                   ...        0 min,  0.035 sec
 * total energy  :   -40.5300498 Eh     change       -0.1464928E-04 Eh
   gradient norm :     0.0023902 Eh/α   predicted    -0.1155917E-04 ( -21.09%)
   displ. norm   :     0.0247216 α      lambda       -0.1496985E-04
   maximum displ.:     0.0158293 α      in ANC's #2, #1, #9, ...

........................................................................
.............................. CYCLE   17 ..............................
........................................................................

 iter      E             dE          RMSdq      gap      omega  full diag
   1    -40.9035714 -0.409036E+02  0.796E-03    4.41       0.0  T
   2    -40.9035715 -0.687393E-07  0.474E-03    4.41       4.2  T
   3    -40.9035715  0.424507E-08  0.121E-03    4.41      16.6  T
   4    -40.9035715 -0.127050E-07  0.266E-04    4.41      75.1  T
   5    -40.9035715 -0.458115E-09  0.145E-04    4.41     138.3  T
     SCC iter.                  ...        0 min,  0.104 sec
     gradient                   ...        0 min,  0.039 sec
 * total energy  :   -40.5300609 Eh     change       -0.1112544E-04 Eh
   gradient norm :     0.0017028 Eh/α   predicted    -0.7491306E-05 ( -32.67%)
   displ. norm   :     0.1562959 α      lambda       -0.2414876E-04
   maximum displ.:     0.0785006 α      in ANC's #5, #1, #2, ...

........................................................................
.............................. CYCLE   18 ..............................
........................................................................

 iter      E             dE          RMSdq      gap      omega  full diag
   1    -40.9038692 -0.409039E+02  0.463E-02    4.43       0.0  T
   2    -40.9038696 -0.389631E-06  0.278E-02    4.43       1.0  T
   3    -40.9038695  0.668249E-07  0.346E-03    4.43       5.8  T
   4    -40.9038697 -0.193849E-06  0.108E-03    4.43      18.5  T
   5    -40.9038697 -0.123959E-08  0.404E-04    4.43      49.5  T
   6    -40.9038697 -0.383729E-09  0.147E-04    4.43     136.5  T
     SCC iter.                  ...        0 min,  0.087 sec
     gradient                   ...        0 min,  0.037 sec
 * total energy  :   -40.5300816 Eh     change       -0.2066587E-04 Eh
   gradient norm :     0.0027660 Eh/α   predicted    -0.1221378E-04 ( -40.90%)
   displ. norm   :     0.0939916 α      lambda       -0.1694304E-04
   maximum displ.:     0.0466375 α      in ANC's #5, #1, #2, ...

........................................................................
.............................. CYCLE   19 ..............................
........................................................................

 iter      E             dE          RMSdq      gap      omega  full diag
   1    -40.9041037 -0.409041E+02  0.276E-02    4.43       0.0  T
   2    -40.9041039 -0.191528E-06  0.165E-02    4.43       1.2  T
   3    -40.9041039 -0.235943E-07  0.136E-03    4.43      14.7  T
   4    -40.9041039 -0.111265E-07  0.627E-04    4.43      31.9  T
   5    -40.9041039 -0.121455E-08  0.349E-04    4.43      57.4  T
     SCC iter.                  ...        0 min,  0.062 sec
     gradient                   ...        0 min,  0.041 sec
 * total energy  :   -40.5300957 Eh     change       -0.1413845E-04 Eh
   gradient norm :     0.0024540 Eh/α   predicted    -0.8549066E-05 ( -39.53%)
   displ. norm   :     0.2940171 α      lambda       -0.3864049E-04
   maximum displ.:     0.1497143 α      in ANC's #5, #1, #2, ...

........................................................................
.............................. CYCLE   20 ..............................
........................................................................

 iter      E             dE          RMSdq      gap      omega  full diag
   1    -40.9028457 -0.409028E+02  0.890E-02    4.43       0.0  T
   2    -40.9028467 -0.103215E-05  0.533E-02    4.44       1.0  T
   3    -40.9028469 -0.182559E-06  0.458E-03    4.43       4.4  T
   4    -40.9028471 -0.226864E-06  0.213E-03    4.44       9.4  T
   5    -40.9028471 -0.501002E-08  0.760E-04    4.44      26.3  T
   6    -40.9028471 -0.210465E-08  0.243E-04    4.44      82.2  T
     SCC iter.                  ...        0 min,  0.083 sec
     gradient                   ...        0 min,  0.035 sec
 * total energy  :   -40.5301137 Eh     change       -0.1799481E-04 Eh
   gradient norm :     0.0026957 Eh/α   predicted    -0.2098965E-04 (  16.64%)
   displ. norm   :     0.0422263 α      lambda       -0.2309983E-04
   maximum displ.:     0.0247826 α      in ANC's #2, #9, #8, ...
 * RMSD in coord.:     0.5572474 α      energy gain  -0.4620174E-02 Eh

generating ANC from exact Hessian ...
Using Lindh-Hessian (1995)
 Shifting diagonal of input Hessian by    9.1432386227988660E-003
 Lowest  eigenvalues of input Hessian
    0.000000    0.000000    0.000000    0.000000    0.000000    0.000000
    0.010000    0.010567    0.011060    0.014310    0.014746    0.017674
    0.019075    0.019401    0.023707    0.037149    0.038827    0.043284
 Highest eigenvalues
    1.262679    1.316860    1.340383    1.495450    1.800321    2.370265


........................................................................
.............................. CYCLE   21 ..............................
........................................................................

 iter      E             dE          RMSdq      gap      omega  full diag
   1    -40.9040975 -0.409041E+02  0.150E-02    4.44       0.0  T
   2    -40.9040976 -0.194627E-06  0.876E-03    4.43       2.3  T
   3    -40.9040976 -0.184080E-08  0.195E-03    4.43      10.3  T
   4    -40.9040977 -0.208225E-07  0.469E-04    4.43      42.6  T
   5    -40.9040977 -0.419519E-09  0.271E-04    4.43      73.8  T
     SCC iter.                  ...        0 min,  0.062 sec
     gradient                   ...        0 min,  0.034 sec
 * total energy  :   -40.5301252 Eh     change       -0.1149969E-04 Eh
   gradient norm :     0.0015103 Eh/α   predicted     0.0000000E+00 (-100.00%)
   displ. norm   :     0.0139140 α      lambda       -0.4799054E-05
   maximum displ.:     0.0069686 α      in ANC's #2, #5, #4, ...

........................................................................
.............................. CYCLE   22 ..............................
........................................................................

 iter      E             dE          RMSdq      gap      omega  full diag
   1    -40.9037999 -0.409038E+02  0.723E-03    4.43       0.0  T
   2    -40.9038000 -0.910008E-07  0.427E-03    4.43       4.7  T
   3    -40.9038000 -0.215315E-08  0.105E-03    4.43      19.0  T
   4    -40.9038000 -0.313545E-08  0.254E-04    4.43      78.7  T
   5    -40.9038000 -0.478657E-09  0.139E-04    4.43     144.2  T
     SCC iter.                  ...        0 min,  0.073 sec
     gradient                   ...        0 min,  0.042 sec
 * total energy  :   -40.5301291 Eh     change       -0.3849540E-05 Eh
   gradient norm :     0.0005675 Eh/α   predicted    -0.2486765E-05 ( -35.40%)
   displ. norm   :     0.0154675 α      lambda       -0.1736114E-05
   maximum displ.:     0.0094253 α      in ANC's #2, #5, #3, ...

........................................................................
.............................. CYCLE   23 ..............................
........................................................................

 iter      E             dE          RMSdq      gap      omega  full diag
   1    -40.9037637 -0.409038E+02  0.513E-03    4.43       0.0  T
   2    -40.9037638 -0.252200E-07  0.306E-03    4.43       6.5  T
   3    -40.9037638  0.180336E-09  0.648E-04    4.43      30.9  T
   4    -40.9037638 -0.317706E-08  0.193E-04    4.43     103.4  T
     SCC iter.                  ...        0 min,  0.058 sec
     gradient                   ...        0 min,  0.040 sec
 * total energy  :   -40.5301309 Eh     change       -0.1839445E-05 Eh
   gradient norm :     0.0004257 Eh/α   predicted    -0.8709632E-06 ( -52.65%)
   displ. norm   :     0.0363016 α      lambda       -0.2378933E-05
   maximum displ.:     0.0216805 α      in ANC's #2, #5, #3, ...

........................................................................
.............................. CYCLE   24 ..............................
........................................................................

 iter      E             dE          RMSdq      gap      omega  full diag
   1    -40.9037993 -0.409038E+02  0.918E-03    4.43       0.0  T
   2    -40.9037993 -0.601098E-07  0.547E-03    4.43       3.7  T
   3    -40.9037993  0.435492E-08  0.117E-03    4.43      17.1  T
   4    -40.9037993 -0.153006E-07  0.348E-04    4.43      57.5  T
   5    -40.9037993 -0.459586E-09  0.223E-04    4.43      89.6  T
     SCC iter.                  ...        0 min,  0.073 sec
     gradient                   ...        0 min,  0.043 sec
 * total energy  :   -40.5301339 Eh     change       -0.2971537E-05 Eh
   gradient norm :     0.0007842 Eh/α   predicted    -0.1271331E-05 ( -57.22%)
   displ. norm   :     0.0700111 α      lambda       -0.3904019E-05
   maximum displ.:     0.0413926 α      in ANC's #2, #5, #3, ...

........................................................................
.............................. CYCLE   25 ..............................
........................................................................

 iter      E             dE          RMSdq      gap      omega  full diag
   1    -40.9038071 -0.409038E+02  0.175E-02    4.43       0.0  T
   2    -40.9038072 -0.852890E-07  0.104E-02    4.43       1.9  T
   3    -40.9038072 -0.336264E-09  0.136E-03    4.44      14.7  T
   4    -40.9038072 -0.238535E-07  0.558E-04    4.43      35.9  T
   5    -40.9038072 -0.845070E-09  0.326E-04    4.43      61.3  T
     SCC iter.                  ...        0 min,  0.067 sec
     gradient                   ...        0 min,  0.035 sec
 * total energy  :   -40.5301387 Eh     change       -0.4787697E-05 Eh
   gradient norm :     0.0011155 Eh/α   predicted    -0.1964534E-05 ( -58.97%)
   displ. norm   :     0.1042749 α      lambda       -0.5194857E-05
   maximum displ.:     0.0629602 α      in ANC's #2, #3, #5, ...

........................................................................
.............................. CYCLE   26 ..............................
........................................................................

 iter      E             dE          RMSdq      gap      omega  full diag
   1    -40.9037684 -0.409038E+02  0.253E-02    4.44       0.0  T
   2    -40.9037685 -0.835577E-07  0.151E-02    4.44       1.3  T
   3    -40.9037685 -0.216249E-07  0.138E-03    4.44      14.5  T
   4    -40.9037685 -0.182809E-07  0.744E-04    4.44      26.9  T
   5    -40.9037685 -0.131755E-08  0.297E-04    4.44      67.3  T
     SCC iter.                  ...        0 min,  0.063 sec
     gradient                   ...        0 min,  0.035 sec
 * total energy  :   -40.5301449 Eh     change       -0.6201037E-05 Eh
   gradient norm :     0.0009372 Eh/α   predicted    -0.2615424E-05 ( -57.82%)
   displ. norm   :     0.0932975 α      lambda       -0.4184544E-05
   maximum displ.:     0.0585657 α      in ANC's #2, #3, #5, ...

........................................................................
.............................. CYCLE   27 ..............................
........................................................................

 iter      E             dE          RMSdq      gap      omega  full diag
   1    -40.9037977 -0.409038E+02  0.238E-02    4.44       0.0  T
   2    -40.9037978 -0.648721E-07  0.141E-02    4.44       1.4  T
   3    -40.9037978 -0.197839E-07  0.995E-04    4.44      20.1  T
   4    -40.9037978 -0.582124E-08  0.588E-04    4.44      34.0  T
     SCC iter.                  ...        0 min,  0.049 sec
     gradient                   ...        0 min,  0.035 sec
 * total energy  :   -40.5301498 Eh     change       -0.4896726E-05 Eh
   gradient norm :     0.0004746 Eh/α   predicted    -0.2102247E-05 ( -57.07%)
   displ. norm   :     0.0602427 α      lambda       -0.2662994E-05
   maximum displ.:     0.0394674 α      in ANC's #2, #3, #7, ...

........................................................................
.............................. CYCLE   28 ..............................
........................................................................

 iter      E             dE          RMSdq      gap      omega  full diag
   1    -40.9038701 -0.409039E+02  0.165E-02    4.44       0.0  T
   2    -40.9038701 -0.400152E-07  0.979E-03    4.44       2.0  T
   3    -40.9038701 -0.722068E-08  0.715E-04    4.44      28.0  T
   4    -40.9038701 -0.326636E-08  0.419E-04    4.44      47.7  T
     SCC iter.                  ...        0 min,  0.053 sec
     gradient                   ...        0 min,  0.035 sec
 * total energy  :   -40.5301531 Eh     change       -0.3289237E-05 Eh
   gradient norm :     0.0003285 Eh/α   predicted    -0.1334205E-05 ( -59.44%)
   displ. norm   :     0.0475338 α      lambda       -0.2207124E-05
   maximum displ.:     0.0317737 α      in ANC's #3, #2, #7, ...

........................................................................
.............................. CYCLE   29 ..............................
........................................................................

 iter      E             dE          RMSdq      gap      omega  full diag
   1    -40.9039095 -0.409039E+02  0.151E-02    4.44       0.0  T
   2    -40.9039096 -0.264192E-07  0.894E-03    4.44       2.2  T
   3    -40.9039096 -0.194662E-08  0.667E-04    4.44      30.0  T
   4    -40.9039096 -0.446933E-08  0.367E-04    4.44      54.6  T
     SCC iter.                  ...        0 min,  0.047 sec
     gradient                   ...        0 min,  0.040 sec
 * total energy  :   -40.5301559 Eh     change       -0.2798629E-05 Eh
   gradient norm :     0.0004582 Eh/α   predicted    -0.1106442E-05 ( -60.46%)
   displ. norm   :     0.0501040 α      lambda       -0.2129942E-05
   maximum displ.:     0.0343936 α      in ANC's #3, #2, #7, ...

........................................................................
.............................. CYCLE   30 ..............................
........................................................................

 iter      E             dE          RMSdq      gap      omega  full diag
   1    -40.9038898 -0.409039E+02  0.167E-02    4.44       0.0  T
   2    -40.9038899 -0.309967E-07  0.985E-03    4.44       2.0  T
   3    -40.9038899 -0.323242E-08  0.723E-04    4.44      27.7  T
   4    -40.9038899 -0.511671E-08  0.411E-04    4.44      48.7  T
     SCC iter.                  ...        0 min,  0.053 sec
     gradient                   ...        0 min,  0.043 sec
 * total energy  :   -40.5301586 Eh     change       -0.2727500E-05 Eh
   gradient norm :     0.0004432 Eh/α   predicted    -0.1068071E-05 ( -60.84%)
   displ. norm   :     0.0562853 α      lambda       -0.2015159E-05
   maximum displ.:     0.0388256 α      in ANC's #3, #2, #1, ...

........................................................................
.............................. CYCLE   31 ..............................
........................................................................

 iter      E             dE          RMSdq      gap      omega  full diag
   1    -40.9038645 -0.409039E+02  0.181E-02    4.44       0.0  T
   2    -40.9038645 -0.269479E-07  0.107E-02    4.44       1.9  T
   3    -40.9038645 -0.616027E-08  0.655E-04    4.44      30.5  T
   4    -40.9038645 -0.297048E-08  0.415E-04    4.44      48.2  T
     SCC iter.                  ...        0 min,  0.067 sec
     gradient                   ...        0 min,  0.043 sec
 * total energy  :   -40.5301611 Eh     change       -0.2530520E-05 Eh
   gradient norm :     0.0003137 Eh/α   predicted    -0.1011274E-05 ( -60.04%)
   displ. norm   :     0.0596379 α      lambda       -0.1713709E-05
   maximum displ.:     0.0411850 α      in ANC's #3, #2, #1, ...

........................................................................
.............................. CYCLE   32 ..............................
........................................................................

 iter      E             dE          RMSdq      gap      omega  full diag
   1    -40.9038529 -0.409039E+02  0.183E-02    4.44       0.0  T
   2    -40.9038529 -0.266030E-07  0.108E-02    4.44       1.8  T
   3    -40.9038530 -0.781638E-08  0.603E-04    4.44      33.2  T
   4    -40.9038530 -0.165343E-08  0.387E-04    4.44      51.7  T
     SCC iter.                  ...        0 min,  0.100 sec
     gradient                   ...        0 min,  0.041 sec
 * total energy  :   -40.5301633 Eh     change       -0.2168422E-05 Eh
   gradient norm :     0.0001830 Eh/α   predicted    -0.8604516E-06 ( -60.32%)
   displ. norm   :     0.0560994 α      lambda       -0.1339213E-05
   maximum displ.:     0.0386384 α      in ANC's #3, #2, #1, ...

........................................................................
.............................. CYCLE   33 ..............................
........................................................................

 iter      E             dE          RMSdq      gap      omega  full diag
   1    -40.9038475 -0.409038E+02  0.162E-02    4.44       0.0  T
   2    -40.9038475 -0.214250E-07  0.957E-03    4.44       2.1  T
   3    -40.9038475 -0.561112E-08  0.586E-04    4.45      34.1  T
   4    -40.9038475 -0.218437E-08  0.365E-04    4.44      54.8  T
     SCC iter.                  ...        0 min,  0.066 sec
     gradient                   ...        0 min,  0.052 sec
 * total energy  :   -40.5301650 Eh     change       -0.1710928E-05 Eh
   gradient norm :     0.0001773 Eh/α   predicted    -0.6737527E-06 ( -60.62%)
   displ. norm   :     0.0518875 α      lambda       -0.1046077E-05
   maximum displ.:     0.0358991 α      in ANC's #3, #2, #1, ...

........................................................................
.............................. CYCLE   34 ..............................
........................................................................

 iter      E             dE          RMSdq      gap      omega  full diag
   1    -40.9038599 -0.409039E+02  0.144E-02    4.45       0.0  T
   2    -40.9038600 -0.178587E-07  0.853E-03    4.45       2.3  T
   3    -40.9038600 -0.395724E-08  0.589E-04    4.45      34.0  T
   4    -40.9038600 -0.289963E-08  0.355E-04    4.45      56.3  T
     SCC iter.                  ...        0 min,  0.070 sec
     gradient                   ...        0 min,  0.051 sec
 * total energy  :   -40.5301663 Eh     change       -0.1311642E-05 Eh
   gradient norm :     0.0001929 Eh/α   predicted    -0.5263908E-06 ( -59.87%)
   displ. norm   :     0.0411082 α      lambda       -0.6989831E-06
   maximum displ.:     0.0288610 α      in ANC's #3, #2, #5, ...

........................................................................
.............................. CYCLE   35 ..............................
........................................................................

 iter      E             dE          RMSdq      gap      omega  full diag
   1    -40.9038753 -0.409039E+02  0.110E-02    4.45       0.0  T
   2    -40.9038754 -0.934479E-08  0.653E-03    4.45       3.1  T
   3    -40.9038754 -0.266173E-08  0.448E-04    4.45      44.7  T
   4    -40.9038754 -0.147935E-08  0.287E-04    4.45      69.6  T
     SCC iter.                  ...        0 min,  0.063 sec
     gradient                   ...        0 min,  0.035 sec
 * total energy  :   -40.5301672 Eh     change       -0.8873087E-06 Eh
   gradient norm :     0.0001529 Eh/α   predicted    -0.3516230E-06 ( -60.37%)
   displ. norm   :     0.0288605 α      lambda       -0.4917694E-06
   maximum displ.:     0.0211714 α      in ANC's #3, #2, #5, ...

   *** GEOMETRY OPTIMIZATION CONVERGED AFTER 35 ITERATIONS ***

------------------------------------------------------------------------
 total energy gain   :        -0.0046736 Eh       -2.9328 kcal/mol
 total RMSD          :         0.6128037 a0        0.3243 Å
 total power (kW/mol):        -0.3505900 (step)   -2.2198 (real)
------------------------------------------------------------------------

 ANCopt (total)                0 d,  0 h,  0 min,  5.528 sec
 optimizer setup                ...        0 min,  0.001 sec (  0.012%)
 model hessian                  ...        0 min,  0.021 sec (  0.385%)
 ANC generation                 ...        0 min,  0.002 sec (  0.037%)
 coordinate transformation      ...        0 min,  0.000 sec (  0.007%)
 single point calculation       ...        0 min,  5.355 sec ( 96.865%)
 optimization log               ...        0 min,  0.004 sec (  0.077%)
 hessian update                 ...        0 min,  0.136 sec (  2.461%)
 rational function              ...        0 min,  0.003 sec (  0.057%)

================
 final structure:
================
25
 xtb: 6.7.1 (edcfbbe)
O            1.85807420189667        0.20175307216209        1.32795723130593
C            1.93661682187665        0.34313001108690        0.13578354225858
C            3.11762834396418       -0.08136706433479       -0.71436345388989
C            4.16408022217305       -0.78794110293057        0.12957563834066
Cl           5.56382449458282       -1.23821096500862       -0.87529800809322
O            1.00048394369158        0.91588950861211       -0.61928403135218
C           -0.19145224390561        1.33970551327668        0.03345620701414
C           -1.12921248409534        0.15944621102164        0.33627093378631
C           -2.38800542841684        0.63254185642968        1.09316899497010
C           -3.53645882760987        0.01994205938149        0.28927778868136
C           -2.90662308827219       -0.09787378719848       -1.09774011848427
O           -1.56556293428091       -0.46814083129395       -0.85622362434492
H            3.53888484730639        0.80900813903368       -1.18624272870077
H            2.75080093856168       -0.73195606325693       -1.51049899376320
H            3.76626503330341       -1.70466858243367        0.56340799447936
H            4.52872425345184       -0.13975344813294        0.92581457242084
H           -0.66433382443438        2.03541041427949       -0.66148227528023
H            0.06626723366936        1.84269475247407        0.97159011421650
H           -0.56352052221912       -0.58876706580256        0.90270949824664
H           -2.37999862662950        0.30517495186980        2.12944954463088
H           -2.44645863160391        1.72147237503158        1.07302363728143
H           -4.43296012490701        0.63464915745423        0.29226047728789
H           -3.78070410042493       -0.97214651332515        0.66856223053795
H           -3.35306714308561       -0.87092176804068       -1.72350619632843
H           -2.95329235459108        0.86504232020419       -1.62766897522172

 Bond Distances (Angstroems)
 ---------------------------
O1-C2=1.2031         C2-O1=1.2031         C2-C3=1.5158         C2-O6=1.3321         C3-C2=1.5158         C3-C4=1.5187         
C3-H13=1.0922        C3-H14=1.0916        C4-C3=1.5187         C4-Cl5=1.7810        C4-H15=1.0894        C4-H16=1.0895        
Cl5-C4=1.7810        O6-C2=1.3321         O6-C7=1.4235         C7-O6=1.4235         C7-C8=1.5376         C7-H17=1.0911        
C7-H18=1.0952        C8-C7=1.5376         C8-C9=1.5431         C8-O12=1.4164        C8-H19=1.0958        C9-C8=1.5431         
C9-C10=1.5299        C9-H20=1.0868        C9-H21=1.0907        C10-C9=1.5299        C10-C11=1.5279       C10-H22=1.0870       
C10-H23=1.0898       C11-C10=1.5279       C11-O12=1.4120       C11-H24=1.0902       C11-H25=1.1001       O12-C8=1.4164        
O12-C11=1.4120       H13-C3=1.0922        H14-C3=1.0916        H15-C4=1.0894        H16-C4=1.0895        H17-C7=1.0911        
H18-C7=1.0952        H19-C8=1.0958        H20-C9=1.0868        H21-C9=1.0907        H22-C10=1.0870       H23-C10=1.0898       
H24-C11=1.0902       H25-C11=1.1001       
 C  H  Rav=1.0915 sigma=0.0035  Rmin=1.0868  Rmax=1.1001    13
 C  C  Rav=1.5288 sigma=0.0096  Rmin=1.5158  Rmax=1.5431     6
 O  C  Rav=1.3574 sigma=0.0840  Rmin=1.2031  Rmax=1.4235     5
 Cl C  Rav=1.7810 sigma=0.0000  Rmin=1.7810  Rmax=1.7810     1

 selected bond angles (degree)
 --------------------
C3-C2-O1=125.01                O6-C2-O1=124.49                O6-C2-C3=110.49                C4-C3-C2=110.82                
H13-C3-C2=108.33               H13-C3-C4=110.71               H14-C3-C2=108.31               H14-C3-C4=111.07               
H14-C3-H13=107.48              Cl5-C4-C3=110.22               H15-C4-C3=111.17               H15-C4-Cl5=107.39              
H16-C4-C3=111.10               H16-C4-Cl5=107.44              H16-C4-H15=109.38              C7-O6-C2=117.16                
C8-C7-O6=111.87                H17-C7-O6=105.11               H17-C7-C8=110.52               H18-C7-O6=109.42               
H18-C7-C8=109.11               H18-C7-H17=110.78              C9-C8-C7=111.03                O12-C8-C7=111.23               
O12-C8-C9=107.31               H19-C8-C7=108.13               H19-C8-C9=112.14               H19-C8-O12=106.96              
C10-C9-C8=103.41               H20-C9-C8=111.67               H20-C9-C10=112.70              H21-C9-C8=109.92               
H21-C9-C10=110.48              H21-C9-H20=108.59              C11-C10-C9=101.45              H22-C10-C9=113.03              
H22-C10-C11=112.71             H23-C10-C9=110.48              H23-C10-C11=109.76             H23-C10-H22=109.21             

 selected dihedral angles (degree)
 ---------------------------------
C4-C3-C2-O1=  3.33            C4-C3-C2-O6=182.39            H13-C3-C2-O1=241.70           H13-C3-C2-O6= 60.75           
H14-C3-C2-O1=125.40           H14-C3-C2-O6=304.46           Cl5-C4-C3-C2=181.61           Cl5-C4-C3-H13=301.84          
Cl5-C4-C3-H14= 61.16          H15-C4-C3-C2= 62.64           H15-C4-C3-H13=182.87          H15-C4-C3-H14=302.20          
H16-C4-C3-C2=300.58           H16-C4-C3-H13= 60.81          H16-C4-C3-H14=180.14          C7-O6-C2-O1=357.51            
C7-O6-C2-C3=178.44            C8-C7-O6-C2=282.81            H17-C7-O6-C2=162.84           H18-C7-O6-C2= 43.84           
C9-C8-C7-O6=177.74            C9-C8-C7-H17=294.49           C9-C8-C7-H18= 56.53           O12-C8-C7-O6=297.16           
O12-C8-C7-H17= 53.91          O12-C8-C7-H18=175.95          H19-C8-C7-O6= 54.32           H19-C8-C7-H17=171.07          
H19-C8-C7-H18=293.11          C10-C9-C8-C7=129.58           C10-C9-C8-O12=  7.83          C10-C9-C8-H19=250.66          
H20-C9-C8-C7=251.03           H20-C9-C8-O12=129.28          H20-C9-C8-H19= 12.11          H21-C9-C8-C7= 11.62           
H21-C9-C8-O12=249.87          H21-C9-C8-H19=132.70          C11-C10-C9-C8=333.23          C11-C10-C9-H20=212.48         
C11-C10-C9-H21= 90.80         H22-C10-C9-C8=212.29          H22-C10-C9-H20= 91.54         H22-C10-C9-H21=329.87         
H23-C10-C9-C8= 89.58          H23-C10-C9-H20=328.83         H23-C10-C9-H21=207.16         
           -------------------------------------------------
          |                Final Singlepoint                |
           -------------------------------------------------

          ...................................................
          :                      SETUP                      :
          :.................................................:
          :  # basis functions                  67          :
          :  # atomic orbitals                  66          :
          :  # shells                           38          :
          :  # electrons                        70          :
          :  max. iterations                   250          :
          :  Hamiltonian                  GFN2-xTB          :
          :  restarted?                      false          :
          :  GBSA solvation                  false          :
          :  PC potential                    false          :
          :  electronic temp.          300.0000000     K    :
          :  accuracy                    1.0000000          :
          :  -> integral cutoff          0.2500000E+02      :
          :  -> integral neglect         0.1000000E-07      :
          :  -> SCF convergence          0.1000000E-05 Eh   :
          :  -> wf. convergence          0.1000000E-03 e    :
          :  Broyden damping             0.4000000          :
          :  net charge                          0          :
          :  unpaired electrons                  0          :
          ...................................................

 iter      E             dE          RMSdq      gap      omega  full diag
   1    -40.9038754 -0.409039E+02  0.179E-04    4.45       0.0  T
   2    -40.9038754 -0.100101E-09  0.147E-04    4.45     135.9  T
   3    -40.9038754 -0.115961E-09  0.910E-05    4.45     219.8  T

   *** convergence criteria satisfied after 3 iterations ***

         #    Occupation            Energy/Eh            Energy/eV
      -------------------------------------------------------------
         1        2.0000           -1.0516329             -28.6164
       ...           ...                  ...                  ...
        29        2.0000           -0.4633715             -12.6090
        30        2.0000           -0.4588811             -12.4868
        31        2.0000           -0.4475395             -12.1782
        32        2.0000           -0.4320452             -11.7565
        33        2.0000           -0.4149709             -11.2919
        34        2.0000           -0.4133961             -11.2491
        35        2.0000           -0.4032591             -10.9732 (HOMO)
        36                         -0.2398439              -6.5265 (LUMO)
        37                         -0.1612854              -4.3888
        38                         -0.0213181              -0.5801
        39                          0.0118189               0.3216
        40                          0.0204096               0.5554
       ...                                ...                  ...
        66                          0.6438377              17.5197
      -------------------------------------------------------------
                  HL-Gap            0.1634151 Eh            4.4468 eV
             Fermi-level           -0.3215515 Eh           -8.7499 eV

 SCC (total)                   0 d,  0 h,  0 min,  0.116 sec
 SCC setup                      ...        0 min,  0.005 sec (  3.873%)
 Dispersion                     ...        0 min,  0.009 sec (  7.334%)
 classical contributions        ...        0 min,  0.004 sec (  3.773%)
 integral evaluation            ...        0 min,  0.014 sec ( 12.195%)
 iterations                     ...        0 min,  0.044 sec ( 37.807%)
 molecular gradient             ...        0 min,  0.041 sec ( 34.875%)
 printout                       ...        0 min,  0.000 sec (  0.120%)

         :::::::::::::::::::::::::::::::::::::::::::::::::::::
         ::                     SUMMARY                     ::
         :::::::::::::::::::::::::::::::::::::::::::::::::::::
         :: total energy             -40.530167192627 Eh    ::
         :: gradient norm              0.000151660679 Eh/a0 ::
         :: HOMO-LUMO gap              4.446752385039 eV    ::
         ::.................................................::
         :: SCC energy               -40.903930231972 Eh    ::
         :: -> isotropic ES            0.067528597248 Eh    ::
         :: -> anisotropic ES          0.002459651744 Eh    ::
         :: -> anisotropic XC          0.006494475283 Eh    ::
         :: -> dispersion             -0.018455819893 Eh    ::
         :: repulsion energy           0.373763039344 Eh    ::
         :: add. restraining           0.000000000000 Eh    ::
         :: total charge              -0.000000000000 e     ::
         :::::::::::::::::::::::::::::::::::::::::::::::::::::

           -------------------------------------------------
          |                Property Printout                |
           -------------------------------------------------

    * Orbital Energies and Occupations

         #    Occupation            Energy/Eh            Energy/eV
      -------------------------------------------------------------
         1        2.0000           -1.0516329             -28.6164
       ...           ...                  ...                  ...
        23        2.0000           -0.5055479             -13.7567
        24        2.0000           -0.4908037             -13.3554
        25        2.0000           -0.4837418             -13.1633
        26        2.0000           -0.4774819             -12.9929
        27        2.0000           -0.4759871             -12.9523
        28        2.0000           -0.4738042             -12.8929
        29        2.0000           -0.4633715             -12.6090
        30        2.0000           -0.4588811             -12.4868
        31        2.0000           -0.4475395             -12.1782
        32        2.0000           -0.4320452             -11.7565
        33        2.0000           -0.4149709             -11.2919
        34        2.0000           -0.4133961             -11.2491
        35        2.0000           -0.4032591             -10.9732 (HOMO)
        36                         -0.2398439              -6.5265 (LUMO)
        37                         -0.1612854              -4.3888
        38                         -0.0213181              -0.5801
        39                          0.0118189               0.3216
        40                          0.0204096               0.5554
        41                          0.0249774               0.6797
        42                          0.0261822               0.7125
        43                          0.0276246               0.7517
        44                          0.0369493               1.0054
        45                          0.0643909               1.7522
        46                          0.0828129               2.2535
       ...                                ...                  ...
        66                          0.6438377              17.5197
      -------------------------------------------------------------
                  HL-Gap            0.1634151 Eh            4.4468 eV
             Fermi-level           -0.3215515 Eh           -8.7499 eV

     #   Z          covCN         q      C6AA      α(0)
     1   8 O        0.856    -0.411    21.901     6.274
     2   6 C        2.720     0.358    20.924     7.488
     3   6 C        3.835    -0.095    22.292     6.717
     4   6 C        3.716     0.033    20.136     6.410
     5  17 Cl       0.921    -0.201   105.475    15.712
     6   8 O        1.705    -0.249    18.127     5.748
     7   6 C        3.703     0.066    19.622     6.333
     8   6 C        3.791     0.105    18.859     6.185
     9   6 C        3.825    -0.072    21.848     6.651
    10   6 C        3.815    -0.065    21.728     6.634
    11   6 C        3.753     0.078    19.328     6.269
    12   8 O        1.702    -0.316    19.267     5.926
    13   1 H        0.924     0.087     1.904     2.158
    14   1 H        0.924     0.089     1.885     2.147
    15   1 H        0.925     0.076     2.017     2.221
    16   1 H        0.925     0.078     1.998     2.211
    17   1 H        0.924     0.068     2.104     2.269
    18   1 H        0.924     0.057     2.236     2.338
    19   1 H        0.924     0.054     2.269     2.356
    20   1 H        0.925     0.050     2.320     2.382
    21   1 H        0.924     0.039     2.460     2.453
    22   1 H        0.925     0.043     2.410     2.428
    23   1 H        0.925     0.049     2.328     2.386
    24   1 H        0.925     0.051     2.310     2.377
    25   1 H        0.923     0.025     2.664     2.553

 Mol. C6AA /au·bohr⁶  :       6250.823467
 Mol. C8AA /au·bohr⁸  :     150445.561463
 Mol. α(0) /au        :        116.626067


Wiberg/Mayer (AO) data.
largest (>0.10) Wiberg bond orders for each atom

 ---------------------------------------------------------------------------
     #   Z sym  total        # sym  WBO       # sym  WBO       # sym  WBO
 ---------------------------------------------------------------------------
     1   8 O    2.036 --     2 C    1.748     6 O    0.174
     2   6 C    3.921 --     1 O    1.748     6 O    1.145     3 C    0.964
     3   6 C    3.992 --     4 C    1.018     2 C    0.964    14 H    0.953
                            13 H    0.951
     4   6 C    3.938 --     3 C    1.018    15 H    0.977    16 H    0.977
                             5 Cl   0.953
     5  17 Cl   0.994 --     4 C    0.953
     6   8 O    2.324 --     2 C    1.145     7 C    0.944     1 O    0.174
     7   6 C    3.927 --     8 C    0.975    17 H    0.969    18 H    0.967
                             6 O    0.944
     8   6 C    3.957 --    12 O    0.982     9 C    0.982     7 C    0.975
                            19 H    0.961
     9   6 C    3.995 --    10 C    1.007     8 C    0.982    20 H    0.980
                            21 H    0.979
    10   6 C    3.996 --     9 C    1.007    11 C    0.999    23 H    0.980
                            22 H    0.979
    11   6 C    3.955 --    10 C    0.999    12 O    0.982    24 H    0.972
                            25 H    0.970
    12   8 O    2.076 --     8 C    0.982    11 C    0.982
    13   1 H    0.992 --     3 C    0.951
    14   1 H    0.992 --     3 C    0.953
    15   1 H    0.994 --     4 C    0.977
    16   1 H    0.994 --     4 C    0.977
    17   1 H    0.995 --     7 C    0.969
    18   1 H    0.997 --     7 C    0.967
    19   1 H    0.997 --     8 C    0.961
    20   1 H    0.997 --     9 C    0.980
    21   1 H    0.998 --     9 C    0.979
    22   1 H    0.998 --    10 C    0.979
    23   1 H    0.998 --    10 C    0.980
    24   1 H    0.997 --    11 C    0.972
    25   1 H    0.999 --    11 C    0.970
 ---------------------------------------------------------------------------

Topologies differ in total number of bonds
Writing topology from bond orders to xtbtopo.mol

molecular dipole:
                 x           y           z       tot (Debye)
 q only:       -1.464       0.673       0.061
   full:       -1.499       0.806       0.073       4.331
molecular quadrupole (traceless):
                xx          xy          yy          xz          yz          zz
 q only:       -3.430       2.320       3.827       0.626      -1.626      -0.397
  q+dip:       -6.041       3.263       7.496       1.503      -2.820      -1.454
   full:       -4.524       2.887       6.438       0.931      -2.053      -1.914

           -------------------------------------------------
          |                Geometry Summary                 |
           -------------------------------------------------

      molecular mass/u    :      192.6402693
   center of mass at/Å    :        1.0421472      -0.0619210      -0.1562567
  moments of inertia/u·Å² :        0.2006919E+03   0.1941610E+04   0.2011917E+04
rotational constants/cm⁻¹ :        0.8399758E-01   0.8682294E-02   0.8378889E-02

 * 24 selected distances

     #   Z          #   Z                                           value/Å
     1   8 O        2   6 C                                       1.2030938
     3   6 C        4   6 C                                       1.5187304
     4   6 C        5  17 Cl                                      1.7809544 (max)
     2   6 C        6   8 O                                       1.3321132
     6   8 O        7   6 C                                       1.4235175
     7   6 C        8   6 C                                       1.5375641
     8   6 C        9   6 C                                       1.5431378
     9   6 C       10   6 C                                       1.5298579
    10   6 C       11   6 C                                       1.5278720
     8   6 C       12   8 O                                       1.4164430
    11   6 C       12   8 O                                       1.4120448
     3   6 C       13   1 H                                       1.0921975
     3   6 C       14   1 H                                       1.0916320
     4   6 C       15   1 H                                       1.0894296
     4   6 C       16   1 H                                       1.0895454
     7   6 C       17   1 H                                       1.0911288
     7   6 C       18   1 H                                       1.0952228
     8   6 C       19   1 H                                       1.0957570
     9   6 C       20   1 H                                       1.0867892 (min)
     9   6 C       21   1 H                                       1.0906844
    10   6 C       22   1 H                                       1.0870090
    10   6 C       23   1 H                                       1.0898405
    11   6 C       24   1 H                                       1.0901830
    11   6 C       25   1 H                                       1.1000956

 * 4 distinct bonds (by element types)

   Z      Z             #   av. dist./Å        max./Å        min./Å
   1 H    6 C          13     1.0915011     1.1000956     1.0867892
   6 C    6 C           5     1.5314324     1.5431378     1.5187304
   6 C    8 O           5     1.3574425     1.4235175     1.2030938
   6 C   17 Cl          1     1.7809544     1.7809544     1.7809544


optimized geometry written to: xtbopt.xyz


           -------------------------------------------------
          | TOTAL ENERGY              -40.530167192627 Eh   |
          | GRADIENT NORM               0.000151660679 Eh/α |
          | HOMO-LUMO GAP               4.446752385039 eV   |
           -------------------------------------------------

------------------------------------------------------------------------
 * finished run on 2026/07/07 at 06:09:11.155     
------------------------------------------------------------------------
 total:
 * wall-time:     0 d,  0 h,  0 min,  6.083 sec
 *  cpu-time:     0 d,  0 h,  1 min, 36.936 sec
 * ratio c/w:    15.937 speedup
 SCF:
 * wall-time:     0 d,  0 h,  0 min,  0.362 sec
 *  cpu-time:     0 d,  0 h,  0 min,  5.770 sec
 * ratio c/w:    15.945 speedup
 ANC optimizer:
 * wall-time:     0 d,  0 h,  0 min,  5.650 sec
 *  cpu-time:     0 d,  0 h,  1 min, 30.094 sec
 * ratio c/w:    15.946 speedup

