      -----------------------------------------------------------      
     |                   =====================                   |     
     |                           x T B                           |     
     |                   =====================                   |     
     |                         S. Grimme                         |     
     |          Mulliken Center for Theoretical Chemistry        |     
     |                    University of Bonn                     |     
      -----------------------------------------------------------      

   * xtb version 6.7.1 (edcfbbe) compiled by 'conda@5dfe00f5fb80' on 2026-06-10

   xtb is free software: you can redistribute it and/or modify it under
   the terms of the GNU Lesser General Public License as published by
   the Free Software Foundation, either version 3 of the License, or
   (at your option) any later version.
   
   xtb is distributed in the hope that it will be useful,
   but WITHOUT ANY WARRANTY; without even the implied warranty of
   MERCHANTABILITY or FITNESS FOR A PARTICULAR PURPOSE.  See the
   GNU Lesser General Public License for more details.
   
   Cite this work as:
   * C. Bannwarth, E. Caldeweyher, S. Ehlert, A. Hansen, P. Pracht,
     J. Seibert, S. Spicher, S. Grimme, WIREs Comput. Mol. Sci., 2020, 11,
     e01493. DOI: 10.1002/wcms.1493
   
   for GFN2-xTB:
   * C. Bannwarth, S. Ehlert and S. Grimme., J. Chem. Theory Comput., 2019,
     15, 1652-1671. DOI: 10.1021/acs.jctc.8b01176
   for GFN1-xTB:
   * S. Grimme, C. Bannwarth, P. Shushkov, J. Chem. Theory Comput., 2017,
     13, 1989-2009. DOI: 10.1021/acs.jctc.7b00118
   for GFN0-xTB:
   * P. Pracht, E. Caldeweyher, S. Ehlert, S. Grimme, ChemRxiv, 2019, preprint.
     DOI: 10.26434/chemrxiv.8326202.v1
   for GFN-FF:
   * S. Spicher and S. Grimme, Angew. Chem. Int. Ed., 2020, 59, 15665-15673.
     DOI: 10.1002/anie.202004239
   
   for ALPB and GBSA implicit solvation:
   * S. Ehlert, M. Stahn, S. Spicher, S. Grimme, J. Chem. Theory Comput.,
     2021, 17, 4250-4261. DOI: 10.1021/acs.jctc.1c00471
   
   for ddCOSMO and CPCM-X implicit solvation:
   * M. Stahn, S. Ehlert, S. Grimme, J. Phys. Chem. A,
     2023, XX, XXXX-XXXX. DOI: 10.1021/acs.jpca.3c04382
   
   for DFT-D4:
   * E. Caldeweyher, C. Bannwarth and S. Grimme, J. Chem. Phys., 2017,
     147, 034112. DOI: 10.1063/1.4993215
   * E. Caldeweyher, S. Ehlert, A. Hansen, H. Neugebauer, S. Spicher,
     C. Bannwarth and S. Grimme, J. Chem. Phys., 2019, 150, 154122.
     DOI: 10.1063/1.5090222
   * E. Caldeweyher, J.-M. Mewes, S. Ehlert and S. Grimme, Phys. Chem. Chem. Phys.
     2020, 22, 8499-8512. DOI: 10.1039/D0CP00502A
   
   for sTDA-xTB:
   * S. Grimme and C. Bannwarth, J. Chem. Phys., 2016, 145, 054103.
     DOI: 10.1063/1.4959605
   
   in the mass-spec context:
   * V. Asgeirsson, C. Bauer and S. Grimme, Chem. Sci., 2017, 8, 4879.
     DOI: 10.1039/c7sc00601b
   * J. Koopman and S. Grimme, ACS Omega 2019, 4, 12, 15120-15133.
     DOI: 10.1021/acsomega.9b02011
   
   for metadynamics refer to:
   * S. Grimme, J. Chem. Theory Comput., 2019, 155, 2847-2862
     DOI: 10.1021/acs.jctc.9b00143
   
   for SPH calculations refer to:
   * S. Spicher and S. Grimme, J. Chem. Theory Comput., 2021, 17, 1701-1714
     DOI: 10.1021/acs.jctc.0c01306
   
   for ONIOM refer to:
   * C. Plett, A. Katbashev, S. Ehlert, S. Grimme, M. Bursch,
     Phys. Chem. Chem. Phys., 2023, 25, 17860-17868. DOI: 10.1039/D3CP02178E
   
   for DIPRO refer to:
   * J. Kohn, N. Gildemeister, S. Grimme, D. Fazzi, A. Hansen,
     J. Chem. Phys., 2023, just accepted.
   
   for PTB refer to:
   * S. Grimme, M. Mueller, A. Hansen, J. Chem. Phys., 2023, 158, 124111.
     DOI: 10.1063/5.0137838
   
   with help from (in alphabetical order)
   P. Atkinson, C. Bannwarth, F. Bohle, G. Brandenburg, E. Caldeweyher
   M. Checinski, S. Dohm, S. Ehlert, S. Ehrlich, I. Gerasimov, C. Hölzer
   A. Katbashev, J. Kohn, J. Koopman, C. Lavigne, S. Lehtola, F. März, M. Müller,
   F. Musil, H. Neugebauer, J. Pisarek, C. Plett, P. Pracht, F. Pultar,
   J. Seibert, P. Shushkov, S. Spicher, M. Stahn, M. Steiner, T. Strunk,
   J. Stückrath, T. Rose, and J. Unsleber
   
 * started run on 2026/07/07 at 14:33:14.223     
   ID    Z sym.   atoms
    1    6 C      1, 2, 4-6, 8, 10-15
    2    7 N      3
    3    8 O      7, 9
    4    1 H      16-38

           -------------------------------------------------
          |                Calculation Setup                |
           -------------------------------------------------

          program call               : /home/ws/xd2484/miniforge3/envs/p3z_dft/bin/xtb xtb_input.xyz --gfn 2 --opt tight --cycles 500 --chrg 0 --uhf 0
          hostname                   : gpu10
          coordinate file            : xtb_input.xyz
          omp threads                :                    16


           -------------------------------------------------
          |                 G F N 2 - x T B                 |
           -------------------------------------------------

        Reference                      10.1021/acs.jctc.8b01176
      * Hamiltonian:
        H0-scaling (s, p, d)           1.850000    2.230000    2.230000
        zeta-weighting                 0.500000
      * Dispersion:
        s8                             2.700000
        a1                             0.520000
        a2                             5.000000
        s9                             5.000000
      * Repulsion:
        kExp                           1.500000    1.000000
        rExp                           1.000000
      * Coulomb:
        alpha                          2.000000
        third order                    shell-resolved
        anisotropic                    true
        a3                             3.000000
        a5                             4.000000
        cn-shift                       1.200000
        cn-exp                         4.000000
        max-rad                        5.000000


          ...................................................
          :                      SETUP                      :
          :.................................................:
          :  # basis functions                  83          :
          :  # atomic orbitals                  83          :
          :  # shells                           53          :
          :  # electrons                        88          :
          :  max. iterations                   250          :
          :  Hamiltonian                  GFN2-xTB          :
          :  restarted?                      false          :
          :  GBSA solvation                  false          :
          :  PC potential                    false          :
          :  electronic temp.          300.0000000     K    :
          :  accuracy                    1.0000000          :
          :  -> integral cutoff          0.2500000E+02      :
          :  -> integral neglect         0.1000000E-07      :
          :  -> SCF convergence          0.1000000E-05 Eh   :
          :  -> wf. convergence          0.1000000E-03 e    :
          :  Broyden damping             0.4000000          :
          :  net charge                          0          :
          :  unpaired electrons                  0          :
          ...................................................

 iter      E             dE          RMSdq      gap      omega  full diag
   1    -48.9656033 -0.489656E+02  0.330E+00    4.63       0.0  T
   2    -49.0832998 -0.117697E+00  0.175E+00    4.26       1.0  T
   3    -49.0873738 -0.407397E-02  0.944E-01    4.49       1.0  T
   4    -49.0887238 -0.135001E-02  0.175E-01    4.24       1.0  T
   5    -49.0893549 -0.631077E-03  0.762E-02    4.35       1.0  T
   6    -49.0893889 -0.339915E-04  0.373E-02    4.34       1.0  T
   7    -49.0893929 -0.404363E-05  0.838E-03    4.34       1.9  T
   8    -49.0893932 -0.339946E-06  0.231E-03    4.34       7.0  T
   9    -49.0893933 -0.165216E-07  0.105E-03    4.34      15.4  T
  10    -49.0893933 -0.447532E-08  0.279E-04    4.34      58.2  T
  11    -49.0893933 -0.567582E-09  0.107E-04    4.34     151.3  T

   *** convergence criteria satisfied after 11 iterations ***

         #    Occupation            Energy/Eh            Energy/eV
      -------------------------------------------------------------
         1        2.0000           -0.6881574             -18.7257
       ...           ...                  ...                  ...
        38        2.0000           -0.4329679             -11.7817
        39        2.0000           -0.4249177             -11.5626
        40        2.0000           -0.4204714             -11.4416
        41        2.0000           -0.4103053             -11.1650
        42        2.0000           -0.3999855             -10.8842
        43        2.0000           -0.3883166             -10.5666
        44        2.0000           -0.3734710             -10.1627 (HOMO)
        45                         -0.2138793              -5.8200 (LUMO)
        46                         -0.0431231              -1.1734
        47                          0.0096511               0.2626
        48                          0.0460227               1.2523
        49                          0.0762295               2.0743
       ...                                ...                  ...
        83                          0.5653396              15.3837
      -------------------------------------------------------------
                  HL-Gap            0.1595917 Eh            4.3427 eV
             Fermi-level           -0.2936752 Eh           -7.9913 eV

 SCC (total)                   0 d,  0 h,  0 min,  0.201 sec
 SCC setup                      ...        0 min,  0.003 sec (  1.394%)
 Dispersion                     ...        0 min,  0.007 sec (  3.309%)
 classical contributions        ...        0 min,  0.003 sec (  1.312%)
 integral evaluation            ...        0 min,  0.010 sec (  4.984%)
 iterations                     ...        0 min,  0.141 sec ( 69.972%)
 molecular gradient             ...        0 min,  0.038 sec ( 18.888%)
 printout                       ...        0 min,  0.000 sec (  0.125%)

         :::::::::::::::::::::::::::::::::::::::::::::::::::::
         ::                     SUMMARY                     ::
         :::::::::::::::::::::::::::::::::::::::::::::::::::::
         :: total energy             -48.515240307810 Eh    ::
         :: gradient norm              0.057515678749 Eh/a0 ::
         :: HOMO-LUMO gap              4.342711294967 eV    ::
         ::.................................................::
         :: SCC energy               -49.089177086315 Eh    ::
         :: -> isotropic ES            0.058760715149 Eh    ::
         :: -> anisotropic ES          0.009785457895 Eh    ::
         :: -> anisotropic XC          0.017584278450 Eh    ::
         :: -> dispersion             -0.030553084571 Eh    ::
         :: repulsion energy           0.573936778505 Eh    ::
         :: add. restraining           0.000000000000 Eh    ::
         :: total charge               0.000000000000 e     ::
         :::::::::::::::::::::::::::::::::::::::::::::::::::::

      ----------------------------------------------------------- 
     |                   =====================                   |
     |                        A N C O P T                        |
     |                   =====================                   |
     |               Approximate Normal Coordinate               |
     |                Rational Function Optimizer                |
      ----------------------------------------------------------- 
      ----------------------------------------------------------- 
     |                   =====================                   |
     |                        A N C O P T                        |
     |                   =====================                   |
     |               Approximate Normal Coordinate               |
     |                Rational Function Optimizer                |
      ----------------------------------------------------------- 

          ...................................................
          :                      SETUP                      :
          :.................................................:
          :   optimization level             tight          :
          :   max. optcycles                   500          :
          :   ANC micro-cycles                  20          :
          :   degrees of freedom               108          :
          :.................................................:
          :   RF solver                   davidson          :
          :   write xtbopt.log                true          :
          :   linear?                        false          :
          :   energy convergence         0.1000000E-05 Eh   :
          :   grad. convergence          0.8000000E-03 Eh/α :
          :   maxmium RF displ.          1.0000000          :
          :   Hlow (freq-cutoff)         0.1000000E-01      :
          :   Hmax (freq-cutoff)         5.0000000          :
          :   S6 in model hess.         20.0000000          :
          ...................................................

generating ANC from exact Hessian ...
Using Lindh-Hessian (1995)
 Shifting diagonal of input Hessian by    9.6076077757675533E-003
 Lowest  eigenvalues of input Hessian
    0.000000    0.000000    0.000000    0.000000    0.000000    0.000000
    0.010000    0.010126    0.010328    0.011623    0.012068    0.013361
    0.013600    0.014679    0.016061    0.017309    0.018437    0.020308
 Highest eigenvalues
    1.279253    1.303725    1.484415    1.521433    1.696293    2.146445


........................................................................
.............................. CYCLE    1 ..............................
........................................................................

 iter      E             dE          RMSdq      gap      omega  full diag
   1    -49.0893933 -0.490894E+02  0.256E-05    4.34       0.0  T
   2    -49.0893933 -0.402167E-11  0.149E-05    4.34    1092.2  T
   3    -49.0893933 -0.305533E-12  0.744E-06    4.34    2181.0  T
     SCC iter.                  ...        0 min,  0.040 sec
     gradient                   ...        0 min,  0.037 sec
 * total energy  :   -48.5152403 Eh     change       -0.3920064E-10 Eh
   gradient norm :     0.0575166 Eh/α   predicted     0.0000000E+00 (-100.00%)
   displ. norm   :     0.2541468 α      lambda       -0.6911275E-02
   maximum displ.:     0.0923034 α      in ANC's #20, #16, #8, ...

........................................................................
.............................. CYCLE    2 ..............................
........................................................................

 iter      E             dE          RMSdq      gap      omega  full diag
   1    -49.1110708 -0.491111E+02  0.148E-01    4.57       0.0  T
   2    -49.1111502 -0.793654E-04  0.911E-02    4.52       1.0  T
   3    -49.1111466  0.353537E-05  0.382E-02    4.54       1.0  T
   4    -49.1111648 -0.181276E-04  0.517E-03    4.53       3.1  T
   5    -49.1111649 -0.176037E-06  0.253E-03    4.53       6.4  T
   6    -49.1111649 -0.186641E-07  0.103E-03    4.53      15.7  T
   7    -49.1111650 -0.314427E-08  0.348E-04    4.53      46.6  T
   8    -49.1111650 -0.633662E-09  0.109E-04    4.53     148.6  T
     SCC iter.                  ...        0 min,  0.116 sec
     gradient                   ...        0 min,  0.031 sec
 * total energy  :   -48.5197293 Eh     change       -0.4489032E-02 Eh
   gradient norm :     0.0181276 Eh/α   predicted    -0.3679678E-02 ( -18.03%)
   displ. norm   :     0.2050815 α      lambda       -0.1405725E-02
   maximum displ.:     0.0852633 α      in ANC's #20, #16, #8, ...

........................................................................
.............................. CYCLE    3 ..............................
........................................................................

 iter      E             dE          RMSdq      gap      omega  full diag
   1    -49.1205926 -0.491206E+02  0.766E-02    4.61       0.0  T
   2    -49.1206243 -0.317900E-04  0.479E-02    4.59       1.0  T
   3    -49.1206259 -0.150870E-05  0.214E-02    4.60       1.0  T
   4    -49.1206276 -0.175909E-05  0.270E-03    4.60       6.0  T
   5    -49.1206277 -0.138417E-06  0.125E-03    4.60      13.0  T
   6    -49.1206278 -0.530119E-08  0.514E-04    4.60      31.5  T
   7    -49.1206278 -0.947011E-09  0.177E-04    4.60      91.4  T
     SCC iter.                  ...        0 min,  0.108 sec
     gradient                   ...        0 min,  0.044 sec
 * total energy  :   -48.5205637 Eh     change       -0.8343888E-03 Eh
   gradient norm :     0.0072228 Eh/α   predicted    -0.7326448E-03 ( -12.19%)
   displ. norm   :     0.1272098 α      lambda       -0.2632902E-03
   maximum displ.:     0.0528126 α      in ANC's #8, #16, #12, ...

........................................................................
.............................. CYCLE    4 ..............................
........................................................................

 iter      E             dE          RMSdq      gap      omega  full diag
   1    -49.1220339 -0.491220E+02  0.342E-02    4.58       0.0  T
   2    -49.1220403 -0.637680E-05  0.204E-02    4.59       1.0  T
   3    -49.1220406 -0.301885E-06  0.882E-03    4.59       1.8  T
   4    -49.1220408 -0.202403E-06  0.101E-03    4.59      16.1  T
   5    -49.1220408 -0.671874E-08  0.455E-04    4.59      35.7  T
   6    -49.1220408 -0.689752E-09  0.206E-04    4.59      78.7  T
     SCC iter.                  ...        0 min,  0.093 sec
     gradient                   ...        0 min,  0.040 sec
 * total energy  :   -48.5207537 Eh     change       -0.1899383E-03 Eh
   gradient norm :     0.0034315 Eh/α   predicted    -0.1337768E-03 ( -29.57%)
   displ. norm   :     0.1519648 α      lambda       -0.1799117E-03
   maximum displ.:     0.0593424 α      in ANC's #14, #8, #6, ...

........................................................................
.............................. CYCLE    5 ..............................
........................................................................

 iter      E             dE          RMSdq      gap      omega  full diag
   1    -49.1218763 -0.491219E+02  0.386E-02    4.56       0.0  T
   2    -49.1218804 -0.403664E-05  0.226E-02    4.56       1.0  T
   3    -49.1218804 -0.109544E-07  0.737E-03    4.56       2.2  T
   4    -49.1218808 -0.399409E-06  0.109E-03    4.56      14.9  T
   5    -49.1218808 -0.958191E-08  0.537E-04    4.56      30.2  T
   6    -49.1218808 -0.207814E-08  0.235E-04    4.56      68.9  T
     SCC iter.                  ...        0 min,  0.081 sec
     gradient                   ...        0 min,  0.033 sec
 * total energy  :   -48.5208665 Eh     change       -0.1127910E-03 Eh
   gradient norm :     0.0032600 Eh/α   predicted    -0.9203416E-04 ( -18.40%)
   displ. norm   :     0.0879916 α      lambda       -0.5546033E-04
   maximum displ.:     0.0431236 α      in ANC's #14, #6, #3, ...

........................................................................
.............................. CYCLE    6 ..............................
........................................................................

 iter      E             dE          RMSdq      gap      omega  full diag
   1    -49.1215662 -0.491216E+02  0.200E-02    4.56       0.0  T
   2    -49.1215663 -0.123095E-06  0.118E-02    4.56       1.4  T
   3    -49.1215663 -0.182920E-07  0.105E-03    4.56      15.5  T
   4    -49.1215664 -0.200845E-07  0.474E-04    4.56      34.2  T
   5    -49.1215664 -0.871061E-09  0.203E-04    4.56      80.0  T
     SCC iter.                  ...        0 min,  0.067 sec
     gradient                   ...        0 min,  0.038 sec
 * total energy  :   -48.5209063 Eh     change       -0.3987204E-04 Eh
   gradient norm :     0.0028460 Eh/α   predicted    -0.2794643E-04 ( -29.91%)
   displ. norm   :     0.0919463 α      lambda       -0.4345187E-04
   maximum displ.:     0.0451615 α      in ANC's #6, #14, #3, ...

........................................................................
.............................. CYCLE    7 ..............................
........................................................................

 iter      E             dE          RMSdq      gap      omega  full diag
   1    -49.1212644 -0.491213E+02  0.210E-02    4.56       0.0  T
   2    -49.1212647 -0.303437E-06  0.124E-02    4.56       1.3  T
   3    -49.1212647 -0.609553E-08  0.165E-03    4.56       9.8  T
   4    -49.1212648 -0.404437E-07  0.476E-04    4.56      34.1  T
   5    -49.1212648 -0.120643E-08  0.232E-04    4.56      69.8  T
     SCC iter.                  ...        0 min,  0.082 sec
     gradient                   ...        0 min,  0.050 sec
 * total energy  :   -48.5209352 Eh     change       -0.2885858E-04 Eh
   gradient norm :     0.0016434 Eh/α   predicted    -0.2191027E-04 ( -24.08%)
   displ. norm   :     0.0937026 α      lambda       -0.1933424E-04
   maximum displ.:     0.0487141 α      in ANC's #6, #3, #1, ...

........................................................................
.............................. CYCLE    8 ..............................
........................................................................

 iter      E             dE          RMSdq      gap      omega  full diag
   1    -49.1213618 -0.491214E+02  0.185E-02    4.56       0.0  T
   2    -49.1213626 -0.722198E-06  0.109E-02    4.56       1.5  T
   3    -49.1213625  0.256454E-07  0.313E-03    4.56       5.2  T
   4    -49.1213626 -0.102153E-06  0.572E-04    4.56      28.3  T
   5    -49.1213626 -0.367042E-08  0.266E-04    4.56      61.0  T
     SCC iter.                  ...        0 min,  0.064 sec
     gradient                   ...        0 min,  0.032 sec
 * total energy  :   -48.5209526 Eh     change       -0.1744042E-04 Eh
   gradient norm :     0.0014729 Eh/α   predicted    -0.9705182E-05 ( -44.35%)
   displ. norm   :     0.0706378 α      lambda       -0.1254984E-04
   maximum displ.:     0.0347928 α      in ANC's #4, #3, #6, ...

........................................................................
.............................. CYCLE    9 ..............................
........................................................................

 iter      E             dE          RMSdq      gap      omega  full diag
   1    -49.1215441 -0.491215E+02  0.126E-02    4.56       0.0  T
   2    -49.1215442 -0.109158E-06  0.748E-03    4.56       2.2  T
   3    -49.1215442  0.131138E-07  0.124E-03    4.56      13.0  T
   4    -49.1215442 -0.295882E-07  0.304E-04    4.56      53.3  T
   5    -49.1215442 -0.737209E-09  0.135E-04    4.56     120.0  T
     SCC iter.                  ...        0 min,  0.074 sec
     gradient                   ...        0 min,  0.038 sec
 * total energy  :   -48.5209675 Eh     change       -0.1487376E-04 Eh
   gradient norm :     0.0012476 Eh/α   predicted    -0.6292608E-05 ( -57.69%)
   displ. norm   :     0.1291769 α      lambda       -0.1893052E-04
   maximum displ.:     0.0671658 α      in ANC's #4, #3, #1, ...

........................................................................
.............................. CYCLE   10 ..............................
........................................................................

 iter      E             dE          RMSdq      gap      omega  full diag
   1    -49.1217771 -0.491218E+02  0.203E-02    4.56       0.0  T
   2    -49.1217773 -0.124787E-06  0.121E-02    4.56       1.3  T
   3    -49.1217773 -0.775069E-08  0.105E-03    4.56      15.5  T
   4    -49.1217773 -0.193003E-07  0.439E-04    4.56      37.0  T
   5    -49.1217773 -0.143618E-08  0.188E-04    4.56      86.4  T
     SCC iter.                  ...        0 min,  0.078 sec
     gradient                   ...        0 min,  0.037 sec
 * total energy  :   -48.5209860 Eh     change       -0.1852075E-04 Eh
   gradient norm :     0.0014834 Eh/α   predicted    -0.9537635E-05 ( -48.50%)
   displ. norm   :     0.1045006 α      lambda       -0.1015338E-04
   maximum displ.:     0.0569000 α      in ANC's #3, #4, #1, ...

........................................................................
.............................. CYCLE   11 ..............................
........................................................................

 iter      E             dE          RMSdq      gap      omega  full diag
   1    -49.1215106 -0.491215E+02  0.161E-02    4.55       0.0  T
   2    -49.1215109 -0.320963E-06  0.955E-03    4.55       1.7  T
   3    -49.1215109  0.225661E-07  0.225E-03    4.55       7.2  T
   4    -49.1215109 -0.578293E-07  0.328E-04    4.55      49.5  T
   5    -49.1215109 -0.570232E-09  0.174E-04    4.55      93.3  T
     SCC iter.                  ...        0 min,  0.078 sec
     gradient                   ...        0 min,  0.045 sec
 * total energy  :   -48.5209960 Eh     change       -0.9940876E-05 Eh
   gradient norm :     0.0009392 Eh/α   predicted    -0.5106995E-05 ( -48.63%)
   displ. norm   :     0.0678258 α      lambda       -0.5696423E-05
   maximum displ.:     0.0396398 α      in ANC's #3, #4, #1, ...

........................................................................
.............................. CYCLE   12 ..............................
........................................................................

 iter      E             dE          RMSdq      gap      omega  full diag
   1    -49.1217118 -0.491217E+02  0.106E-02    4.55       0.0  T
   2    -49.1217119 -0.324453E-07  0.630E-03    4.55       2.6  T
   3    -49.1217119 -0.176444E-08  0.551E-04    4.55      29.4  T
   4    -49.1217119 -0.574119E-08  0.233E-04    4.55      69.5  T
     SCC iter.                  ...        0 min,  0.060 sec
     gradient                   ...        0 min,  0.037 sec
 * total energy  :   -48.5210025 Eh     change       -0.6515020E-05 Eh
   gradient norm :     0.0003824 Eh/α   predicted    -0.2855913E-05 ( -56.16%)
   displ. norm   :     0.0761930 α      lambda       -0.5295784E-05
   maximum displ.:     0.0472836 α      in ANC's #3, #4, #1, ...

........................................................................
.............................. CYCLE   13 ..............................
........................................................................

 iter      E             dE          RMSdq      gap      omega  full diag
   1    -49.1215553 -0.491216E+02  0.121E-02    4.55       0.0  T
   2    -49.1215554 -0.456256E-07  0.716E-03    4.55       2.3  T
   3    -49.1215554  0.168554E-07  0.102E-03    4.55      15.9  T
   4    -49.1215554 -0.292656E-07  0.244E-04    4.55      66.6  T
   5    -49.1215554 -0.161478E-09  0.876E-05    4.55     185.2  T
     SCC iter.                  ...        0 min,  0.074 sec
     gradient                   ...        0 min,  0.034 sec
 * total energy  :   -48.5210084 Eh     change       -0.5953631E-05 Eh
   gradient norm :     0.0004918 Eh/α   predicted    -0.2657247E-05 ( -55.37%)
   displ. norm   :     0.0685567 α      lambda       -0.4022651E-05
   maximum displ.:     0.0431000 α      in ANC's #3, #1, #4, ...

........................................................................
.............................. CYCLE   14 ..............................
........................................................................

 iter      E             dE          RMSdq      gap      omega  full diag
   1    -49.1216426 -0.491216E+02  0.113E-02    4.56       0.0  T
   2    -49.1216426 -0.224594E-07  0.666E-03    4.56       2.4  T
   3    -49.1216426 -0.453729E-08  0.460E-04    4.55      35.3  T
   4    -49.1216426 -0.313054E-08  0.229E-04    4.56      71.0  T
     SCC iter.                  ...        0 min,  0.047 sec
     gradient                   ...        0 min,  0.030 sec
 * total energy  :   -48.5210129 Eh     change       -0.4469463E-05 Eh
   gradient norm :     0.0006249 Eh/α   predicted    -0.2019376E-05 ( -54.82%)
   displ. norm   :     0.0593295 α      lambda       -0.2983865E-05
   maximum displ.:     0.0385520 α      in ANC's #3, #1, #5, ...

........................................................................
.............................. CYCLE   15 ..............................
........................................................................

 iter      E             dE          RMSdq      gap      omega  full diag
   1    -49.1216060 -0.491216E+02  0.936E-03    4.55       0.0  T
   2    -49.1216060 -0.122954E-07  0.555E-03    4.55       2.9  T
   3    -49.1216060 -0.208089E-08  0.340E-04    4.55      47.8  T
   4    -49.1216060 -0.188363E-08  0.163E-04    4.55      99.3  T
     SCC iter.                  ...        0 min,  0.043 sec
     gradient                   ...        0 min,  0.029 sec
 * total energy  :   -48.5210162 Eh     change       -0.3340413E-05 Eh
   gradient norm :     0.0004427 Eh/α   predicted    -0.1495994E-05 ( -55.22%)
   displ. norm   :     0.0465385 α      lambda       -0.2155529E-05
   maximum displ.:     0.0309713 α      in ANC's #3, #5, #1, ...

........................................................................
.............................. CYCLE   16 ..............................
........................................................................

 iter      E             dE          RMSdq      gap      omega  full diag
   1    -49.1216248 -0.491216E+02  0.687E-03    4.55       0.0  T
   2    -49.1216249 -0.951449E-08  0.408E-03    4.55       4.0  T
   3    -49.1216249 -0.703281E-09  0.299E-04    4.55      54.2  T
   4    -49.1216249 -0.161910E-08  0.124E-04    4.55     130.8  T
     SCC iter.                  ...        0 min,  0.045 sec
     gradient                   ...        0 min,  0.030 sec
 * total energy  :   -48.5210187 Eh     change       -0.2453193E-05 Eh
   gradient norm :     0.0002134 Eh/α   predicted    -0.1082843E-05 ( -55.86%)
   displ. norm   :     0.0434920 α      lambda       -0.1823248E-05
   maximum displ.:     0.0288919 α      in ANC's #3, #5, #2, ...

........................................................................
.............................. CYCLE   17 ..............................
........................................................................

 iter      E             dE          RMSdq      gap      omega  full diag
   1    -49.1217436 -0.491217E+02  0.654E-03    4.56       0.0  T
   2    -49.1217437 -0.110625E-07  0.389E-03    4.55       4.2  T
   3    -49.1217437  0.205330E-08  0.410E-04    4.55      39.6  T
   4    -49.1217437 -0.437637E-08  0.117E-04    4.55     139.2  T
     SCC iter.                  ...        0 min,  0.054 sec
     gradient                   ...        0 min,  0.039 sec
 * total energy  :   -48.5210208 Eh     change       -0.2061125E-05 Eh
   gradient norm :     0.0003181 Eh/α   predicted    -0.9154896E-06 ( -55.58%)
   displ. norm   :     0.0390614 α      lambda       -0.1490762E-05
   maximum displ.:     0.0261911 α      in ANC's #3, #2, #5, ...

........................................................................
.............................. CYCLE   18 ..............................
........................................................................

 iter      E             dE          RMSdq      gap      omega  full diag
   1    -49.1217022 -0.491217E+02  0.593E-03    4.55       0.0  T
   2    -49.1217023 -0.823749E-08  0.351E-03    4.55       4.6  T
   3    -49.1217023 -0.220929E-09  0.276E-04    4.55      58.9  T
   4    -49.1217023 -0.138627E-08  0.969E-05    4.55     167.5  T
     SCC iter.                  ...        0 min,  0.051 sec
     gradient                   ...        0 min,  0.033 sec
 * total energy  :   -48.5210225 Eh     change       -0.1748041E-05 Eh
   gradient norm :     0.0003710 Eh/α   predicted    -0.7487117E-06 ( -57.17%)
   displ. norm   :     0.0340847 α      lambda       -0.1263656E-05
   maximum displ.:     0.0226674 α      in ANC's #3, #2, #1, ...

........................................................................
.............................. CYCLE   19 ..............................
........................................................................

 iter      E             dE          RMSdq      gap      omega  full diag
   1    -49.1217142 -0.491217E+02  0.528E-03    4.55       0.0  T
   2    -49.1217142 -0.474029E-08  0.312E-03    4.55       5.2  T
   3    -49.1217142 -0.473023E-09  0.211E-04    4.55      76.8  T
   4    -49.1217142 -0.715325E-09  0.844E-05    4.55     192.2  T
     SCC iter.                  ...        0 min,  0.049 sec
     gradient                   ...        0 min,  0.032 sec
 * total energy  :   -48.5210241 Eh     change       -0.1548056E-05 Eh
   gradient norm :     0.0002640 Eh/α   predicted    -0.6355728E-06 ( -58.94%)
   displ. norm   :     0.0348207 α      lambda       -0.1200586E-05
   maximum displ.:     0.0231309 α      in ANC's #3, #2, #1, ...

........................................................................
.............................. CYCLE   20 ..............................
........................................................................

 iter      E             dE          RMSdq      gap      omega  full diag
   1    -49.1217227 -0.491217E+02  0.538E-03    4.55       0.0  T
   2    -49.1217228 -0.570453E-08  0.317E-03    4.55       5.1  T
   3    -49.1217228  0.126384E-09  0.249E-04    4.55      65.3  T
   4    -49.1217228 -0.138572E-08  0.864E-05    4.55     187.8  T
     SCC iter.                  ...        0 min,  0.048 sec
     gradient                   ...        0 min,  0.027 sec
 * total energy  :   -48.5210256 Eh     change       -0.1529023E-05 Eh
   gradient norm :     0.0001371 Eh/α   predicted    -0.6055371E-06 ( -60.40%)
   displ. norm   :     0.0392349 α      lambda       -0.1306853E-05
   maximum displ.:     0.0259781 α      in ANC's #3, #2, #7, ...
 * RMSD in coord.:     0.1989600 α      energy gain  -0.5785275E-02 Eh

generating ANC from exact Hessian ...
Using Lindh-Hessian (1995)
 Shifting diagonal of input Hessian by    9.5767716369101301E-003
 Lowest  eigenvalues of input Hessian
    0.000000    0.000000    0.000000    0.000000    0.000000    0.000000
    0.010000    0.010134    0.010346    0.011763    0.012262    0.013688
    0.013909    0.015056    0.016401    0.017637    0.018748    0.020895
 Highest eigenvalues
    1.283920    1.327791    1.561632    1.591249    1.841265    2.302723


........................................................................
.............................. CYCLE   21 ..............................
........................................................................

 iter      E             dE          RMSdq      gap      omega  full diag
   1    -49.1216715 -0.491217E+02  0.605E-03    4.55       0.0  T
   2    -49.1216715 -0.549627E-08  0.357E-03    4.55       4.5  T
   3    -49.1216715  0.765610E-10  0.237E-04    4.55      68.6  T
   4    -49.1216715 -0.133775E-08  0.895E-05    4.55     181.3  T
     SCC iter.                  ...        0 min,  0.036 sec
     gradient                   ...        0 min,  0.024 sec
 * total energy  :   -48.5210273 Eh     change       -0.1710136E-05 Eh
   gradient norm :     0.0002389 Eh/α   predicted     0.0000000E+00 (-100.00%)
   displ. norm   :     0.0097977 α      lambda       -0.5102678E-07
   maximum displ.:     0.0050240 α      in ANC's #3, #5, #2, ...

........................................................................
.............................. CYCLE   22 ..............................
........................................................................

 iter      E             dE          RMSdq      gap      omega  full diag
   1    -49.1216809 -0.491217E+02  0.180E-03    4.55       0.0  T
   2    -49.1216809 -0.727297E-09  0.107E-03    4.55      15.2  T
   3    -49.1216809 -0.152760E-09  0.653E-05    4.55     248.3  T
   4    -49.1216809 -0.318039E-10  0.330E-05    4.55     492.2  T
     SCC iter.                  ...        0 min,  0.037 sec
     gradient                   ...        0 min,  0.027 sec
 * total energy  :   -48.5210281 Eh     change       -0.8345370E-06 Eh
   gradient norm :     0.0001222 Eh/α   predicted    -0.3207621E-06 ( -61.56%)
   displ. norm   :     0.0418122 α      lambda       -0.2092714E-05
   maximum displ.:     0.0211075 α      in ANC's #3, #5, #2, ...

   *** GEOMETRY OPTIMIZATION CONVERGED AFTER 22 ITERATIONS ***

------------------------------------------------------------------------
 total energy gain   :        -0.0057878 Eh       -3.6319 kcal/mol
 total RMSD          :         0.1993371 a0        0.1055 Å
 total power (kW/mol):        -0.6907235 (step)   -5.1077 (real)
------------------------------------------------------------------------

 ANCopt (total)                0 d,  0 h,  0 min,  2.975 sec
 optimizer setup                ...        0 min,  0.001 sec (  0.032%)
 model hessian                  ...        0 min,  0.073 sec (  2.442%)
 ANC generation                 ...        0 min,  0.004 sec (  0.139%)
 coordinate transformation      ...        0 min,  0.000 sec (  0.014%)
 single point calculation       ...        0 min,  2.810 sec ( 94.450%)
 optimization log               ...        0 min,  0.004 sec (  0.131%)
 hessian update                 ...        0 min,  0.075 sec (  2.512%)
 rational function              ...        0 min,  0.003 sec (  0.088%)

================
 final structure:
================
38
 xtb: 6.7.1 (edcfbbe)
C           -4.19028901891713       -1.68578878189083       -1.34563208586492
C           -3.27842552835324       -1.50730685390596       -0.13565687616393
N           -2.53234291720421       -0.26035900225843       -0.20088001329879
C           -3.19265026028392        0.91633021671125        0.32037505283854
C           -2.95533797318716        1.09815453710863        1.82072738405298
C           -1.27894544380209       -0.29789025338551       -0.71810883400587
O           -0.77739142122494       -1.33242052022614       -1.11010320213627
C           -0.53002138999469        1.04065902064256       -0.78610002195339
O            0.75554929084710        0.91567456025924       -1.32198221217457
C            1.71067851975793        0.25938423332088       -0.49312787002378
C            2.37858123582993        1.24326702820035        0.47465118153170
C            3.46403618642154        0.53952654545806        1.28264161799336
C            4.50910073388344       -0.07254104182707        0.35536051199745
C            3.85029785605299       -1.05245386004466       -0.61089860785772
C            2.75652429923596       -0.36085774860265       -1.41671847284564
H           -4.91501488400656       -0.87692653444103       -1.41358393932191
H           -4.72741736504137       -2.62710911831670       -1.26819594314404
H           -3.59396575186475       -1.69718649790138       -2.25390073980941
H           -3.86068498332793       -1.51985993750300        0.78904184210821
H           -2.54922927338701       -2.31974907400023       -0.10988797925607
H           -4.26508102616294        0.80472962625431        0.13799985775652
H           -2.85705065903313        1.80332846653273       -0.21882544326845
H           -3.48095000010246        1.98095136966295        2.17469547294738
H           -1.89591363432837        1.21514130258874        2.03333899466515
H           -3.31836451975222        0.23430366132918        2.37194925446287
H           -1.05986083567950        1.70822683220377       -1.47340014509873
H           -0.50385271799744        1.50465511050449        0.21069601422638
H            1.22061709411157       -0.53958299295698        0.07788994826743
H            2.81425750461689        2.05784562180424       -0.10774489368955
H            1.63360723095376        1.67423720168186        1.14876099456185
H            3.00991204804161       -0.25036747397911        1.88624417009988
H            3.93711414953394        1.25127740699880        1.96306208943567
H            5.27330965295766       -0.58477054950846        0.94401095085842
H            4.99853718125300        0.72241282331425       -0.21167046403395
H            3.41355395712792       -1.87955110180940       -0.04665480713735
H            4.59841981552806       -1.46768382613400       -1.28894760155167
H            2.25561381964658       -1.07011685255271       -2.07563495161372
H            3.18307902785054        0.43241645666927       -2.03308612672496

 Bond Distances (Angstroems)
 ---------------------------
C1-C2=1.5256         C1-H16=1.0882        C1-H17=1.0865        C1-H18=1.0866        C2-C1=1.5256         C2-N3=1.4546         
C2-H19=1.0928        C2-H20=1.0920        N3-C2=1.4546         N3-C4=1.4465         N3-C6=1.3564         C4-N3=1.4465         
C4-C5=1.5298         C4-H21=1.0935        C4-H22=1.0909        C5-C4=1.5298         C5-H23=1.0867        C5-H24=1.0869        
C5-H25=1.0871        C6-N3=1.3564         C6-O7=1.2147         C6-C8=1.5353         O7-C6=1.2147         C8-C6=1.5353         
C8-O9=1.3984         C8-H26=1.0949        C8-H27=1.0998        O9-C8=1.3984         O9-C10=1.4248        C10-O9=1.4248        
C10-C11=1.5332       C10-C15=1.5269       C10-H28=1.0975       C11-C10=1.5332       C11-C12=1.5252       C11-H29=1.0920       
C11-H30=1.0932       C12-C11=1.5252       C12-C13=1.5253       C12-H31=1.0929       C12-H32=1.0924       C13-C12=1.5253       
C13-C14=1.5257       C13-H33=1.0922       C13-H34=1.0923       C14-C13=1.5257       C14-C15=1.5245       C14-H35=1.0923       
C14-H36=1.0917       C15-C10=1.5269       C15-C14=1.5245       C15-H37=1.0900       C15-H38=1.0914       H16-C1=1.0882        
H17-C1=1.0865        H18-C1=1.0866        H19-C2=1.0928        H20-C2=1.0920        H21-C4=1.0935        H22-C4=1.0909        
H23-C5=1.0867        H24-C5=1.0869        H25-C5=1.0871        H26-C8=1.0949        H27-C8=1.0998        H28-C10=1.0975       
H29-C11=1.0920       H30-C11=1.0932       H31-C12=1.0929       H32-C12=1.0924       H33-C13=1.0922       H34-C13=1.0923       
H35-C14=1.0923       H36-C14=1.0917       H37-C15=1.0900       H38-C15=1.0914       
 C  H  Rav=1.0915 sigma=0.0033  Rmin=1.0865  Rmax=1.0998    23
 C  C  Rav=1.5280 sigma=0.0037  Rmin=1.5245  Rmax=1.5353     9
 N  C  Rav=1.4192 sigma=0.0445  Rmin=1.3564  Rmax=1.4546     3
 O  C  Rav=1.3460 sigma=0.0934  Rmin=1.2147  Rmax=1.4248     3

 selected bond angles (degree)
 --------------------
H16-C1-C2=111.14               H17-C1-C2=109.90               H17-C1-H16=108.61              H18-C1-C2=109.64               
H18-C1-H16=108.73              H18-C1-H17=108.77              N3-C2-C1=111.80                H19-C2-C1=110.57               
H19-C2-N3=108.73               H20-C2-C1=109.32               H20-C2-N3=107.24               H20-C2-H19=109.10              
C4-N3-C2=116.56                C6-N3-C2=117.86                C6-N3-C4=125.57                C5-C4-N3=112.29                
H21-C4-N3=107.73               H21-C4-C5=109.14               H22-C4-N3=110.05               H22-C4-C5=109.90               
H22-C4-H21=107.59              H23-C5-C4=109.94               H24-C5-C4=110.85               H24-C5-H23=108.68              
H25-C5-C4=110.55               H25-C5-H23=108.59              H25-C5-H24=108.17              O7-C6-N3=121.88                
C8-C6-N3=116.33                C8-C6-O7=121.79                O9-C8-C6=112.80                H26-C8-C6=108.86               
H26-C8-O9=105.00               H27-C8-C6=109.83               H27-C8-O9=111.29               H27-C8-H26=108.86              
C10-O9-C8=115.76               C11-C10-O9=111.32              C15-C10-O9=107.12              C15-C10-C11=110.13             
H28-C10-O9=109.80              H28-C10-C11=109.47             H28-C10-C15=108.96             

 selected dihedral angles (degree)
 ---------------------------------
N3-C2-C1-H16=299.95           N3-C2-C1-H17=179.69           N3-C2-C1-H18= 60.18           H19-C2-C1-H16= 61.24          
H19-C2-C1-H17=300.98          H19-C2-C1-H18=181.48          H20-C2-C1-H16=181.37          H20-C2-C1-H17= 61.11          
H20-C2-C1-H18=301.60          C4-N3-C2-C1= 86.00            C4-N3-C2-H19=323.66           C4-N3-C2-H20=205.81           
C6-N3-C2-C1=264.89            C6-N3-C2-H19=142.54           C6-N3-C2-H20= 24.70           C5-C4-N3-C2= 87.78            
C5-C4-N3-C6=268.99            H21-C4-N3-C2=327.58           H21-C4-N3-C6=148.79           H22-C4-N3-C2=210.54           
H22-C4-N3-C6= 31.76           H23-C5-C4-N3=180.98           H23-C5-C4-H21=300.36          H23-C5-C4-H22= 58.12          
H24-C5-C4-N3= 60.80           H24-C5-C4-H21=180.18          H24-C5-C4-H22=297.95          H25-C5-C4-N3=300.86           
H25-C5-C4-H21= 60.24          H25-C5-C4-H22=178.01          O7-C6-N3-C2=359.50            O7-C6-N3-C4=178.27            
C8-C6-N3-C2=179.27            C8-C6-N3-C4=358.05            O9-C8-C6-N3=179.60            O9-C8-C6-O7=359.37            
H26-C8-C6-N3=295.72           H26-C8-C6-O7=115.49           H27-C8-C6-N3= 54.82           H27-C8-C6-O7=234.59           
C10-O9-C8-C6=288.88           C10-O9-C8-H26=170.48          C10-O9-C8-H27= 52.86          C11-C10-O9-C8=273.88          
C15-C10-O9-C8=153.43          H28-C10-O9-C8= 35.26          
           -------------------------------------------------
          |                Final Singlepoint                |
           -------------------------------------------------

          ...................................................
          :                      SETUP                      :
          :.................................................:
          :  # basis functions                  83          :
          :  # atomic orbitals                  83          :
          :  # shells                           53          :
          :  # electrons                        88          :
          :  max. iterations                   250          :
          :  Hamiltonian                  GFN2-xTB          :
          :  restarted?                      false          :
          :  GBSA solvation                  false          :
          :  PC potential                    false          :
          :  electronic temp.          300.0000000     K    :
          :  accuracy                    1.0000000          :
          :  -> integral cutoff          0.2500000E+02      :
          :  -> integral neglect         0.1000000E-07      :
          :  -> SCF convergence          0.1000000E-05 Eh   :
          :  -> wf. convergence          0.1000000E-03 e    :
          :  Broyden damping             0.4000000          :
          :  net charge                          0          :
          :  unpaired electrons                  0          :
          ...................................................

 iter      E             dE          RMSdq      gap      omega  full diag
   1    -49.1216809 -0.491217E+02  0.115E-05    4.55       0.0  T
   2    -49.1216809 -0.348166E-12  0.704E-06    4.55    2303.2  T
   3    -49.1216809 -0.156319E-12  0.367E-06    4.55    4414.2  T

   *** convergence criteria satisfied after 3 iterations ***

         #    Occupation            Energy/Eh            Energy/eV
      -------------------------------------------------------------
         1        2.0000           -0.6925511             -18.8453
       ...           ...                  ...                  ...
        38        2.0000           -0.4314099             -11.7393
        39        2.0000           -0.4226197             -11.5001
        40        2.0000           -0.4197590             -11.4222
        41        2.0000           -0.4104918             -11.1701
        42        2.0000           -0.3979599             -10.8290
        43        2.0000           -0.3896442             -10.6028
        44        2.0000           -0.3697473             -10.0613 (HOMO)
        45                         -0.2023966              -5.5075 (LUMO)
        46                         -0.0166610              -0.4534
        47                          0.0225528               0.6137
        48                          0.0638449               1.7373
        49                          0.0871594               2.3717
       ...                                ...                  ...
        83                          0.6322955              17.2056
      -------------------------------------------------------------
                  HL-Gap            0.1673508 Eh            4.5538 eV
             Fermi-level           -0.2860720 Eh           -7.7844 eV

 SCC (total)                   0 d,  0 h,  0 min,  0.098 sec
 SCC setup                      ...        0 min,  0.002 sec (  2.140%)
 Dispersion                     ...        0 min,  0.006 sec (  6.026%)
 classical contributions        ...        0 min,  0.004 sec (  4.372%)
 integral evaluation            ...        0 min,  0.012 sec ( 12.487%)
 iterations                     ...        0 min,  0.042 sec ( 42.638%)
 molecular gradient             ...        0 min,  0.031 sec ( 32.105%)
 printout                       ...        0 min,  0.000 sec (  0.202%)

         :::::::::::::::::::::::::::::::::::::::::::::::::::::
         ::                     SUMMARY                     ::
         :::::::::::::::::::::::::::::::::::::::::::::::::::::
         :: total energy             -48.521028127051 Eh    ::
         :: gradient norm              0.000123215096 Eh/a0 ::
         :: HOMO-LUMO gap              4.553845909626 eV    ::
         ::.................................................::
         :: SCC energy               -49.121466299048 Eh    ::
         :: -> isotropic ES            0.059170398721 Eh    ::
         :: -> anisotropic ES          0.008559780585 Eh    ::
         :: -> anisotropic XC          0.016751732593 Eh    ::
         :: -> dispersion             -0.030979318821 Eh    ::
         :: repulsion energy           0.600438171997 Eh    ::
         :: add. restraining           0.000000000000 Eh    ::
         :: total charge               0.000000000000 e     ::
         :::::::::::::::::::::::::::::::::::::::::::::::::::::

           -------------------------------------------------
          |                Property Printout                |
           -------------------------------------------------

    * Orbital Energies and Occupations

         #    Occupation            Energy/Eh            Energy/eV
      -------------------------------------------------------------
         1        2.0000           -0.6925511             -18.8453
       ...           ...                  ...                  ...
        32        2.0000           -0.4634059             -12.6099
        33        2.0000           -0.4603948             -12.5280
        34        2.0000           -0.4587099             -12.4821
        35        2.0000           -0.4535472             -12.3416
        36        2.0000           -0.4444287             -12.0935
        37        2.0000           -0.4328737             -11.7791
        38        2.0000           -0.4314099             -11.7393
        39        2.0000           -0.4226197             -11.5001
        40        2.0000           -0.4197590             -11.4222
        41        2.0000           -0.4104918             -11.1701
        42        2.0000           -0.3979599             -10.8290
        43        2.0000           -0.3896442             -10.6028
        44        2.0000           -0.3697473             -10.0613 (HOMO)
        45                         -0.2023966              -5.5075 (LUMO)
        46                         -0.0166610              -0.4534
        47                          0.0225528               0.6137
        48                          0.0638449               1.7373
        49                          0.0871594               2.3717
        50                          0.0908304               2.4716
        51                          0.0984269               2.6783
        52                          0.1011407               2.7522
        53                          0.1050822               2.8594
        54                          0.1128916               3.0719
        55                          0.1136523               3.0926
       ...                                ...                  ...
        83                          0.6322955              17.2056
      -------------------------------------------------------------
                  HL-Gap            0.1673508 Eh            4.5538 eV
             Fermi-level           -0.2860720 Eh           -7.7844 eV

     #   Z          covCN         q      C6AA      α(0)
     1   6 C        3.752    -0.111    22.684     6.792
     2   6 C        3.752     0.003    20.585     6.470
     3   7 N        2.734    -0.112    23.451     7.192
     4   6 C        3.742    -0.003    20.699     6.491
     5   6 C        3.751    -0.112    22.709     6.796
     6   6 C        2.759     0.253    22.753     7.811
     7   8 O        0.859    -0.429    22.271     6.327
     8   6 C        3.694     0.063    19.691     6.349
     9   8 O        1.701    -0.310    19.175     5.912
    10   6 C        3.747     0.116    18.748     6.176
    11   6 C        3.805    -0.066    21.757     6.640
    12   6 C        3.806    -0.056    21.584     6.614
    13   6 C        3.806    -0.059    21.627     6.620
    14   6 C        3.806    -0.059    21.624     6.620
    15   6 C        3.807    -0.065    21.748     6.639
    16   1 H        0.925     0.037     2.492     2.469
    17   1 H        0.925     0.047     2.363     2.404
    18   1 H        0.925     0.055     2.264     2.353
    19   1 H        0.924     0.040     2.448     2.447
    20   1 H        0.924     0.075     2.032     2.229
    21   1 H        0.924     0.054     2.267     2.355
    22   1 H        0.924     0.044     2.392     2.419
    23   1 H        0.925     0.048     2.342     2.393
    24   1 H        0.925     0.042     2.426     2.436
    25   1 H        0.925     0.048     2.348     2.396
    26   1 H        0.924     0.055     2.257     2.350
    27   1 H        0.923     0.026     2.641     2.541
    28   1 H        0.924     0.027     2.624     2.533
    29   1 H        0.924     0.041     2.432     2.439
    30   1 H        0.924     0.019     2.743     2.590
    31   1 H        0.924     0.030     2.589     2.516
    32   1 H        0.924     0.029     2.596     2.520
    33   1 H        0.924     0.029     2.597     2.520
    34   1 H        0.924     0.035     2.518     2.481
    35   1 H        0.924     0.035     2.523     2.484
    36   1 H        0.924     0.033     2.542     2.494
    37   1 H        0.925     0.053     2.278     2.360
    38   1 H        0.924     0.045     2.387     2.416

 Mol. C6AA /au·bohr⁶  :      11036.317821
 Mol. C8AA /au·bohr⁸  :     235844.166044
 Mol. α(0) /au        :        155.594593


Wiberg/Mayer (AO) data.
largest (>0.10) Wiberg bond orders for each atom

 ---------------------------------------------------------------------------
     #   Z sym  total        # sym  WBO       # sym  WBO       # sym  WBO
 ---------------------------------------------------------------------------
     1   6 C    3.995 --     2 C    1.010    18 H    0.986    16 H    0.986
                            17 H    0.984
     2   6 C    3.968 --     1 C    1.010     3 N    0.979    19 H    0.972
                            20 H    0.966
     3   7 N    3.484 --     6 C    1.240     4 C    0.993     2 C    0.979
                             7 O    0.195
     4   6 C    3.976 --     5 C    1.006     3 N    0.993    21 H    0.969
                            22 H    0.968
     5   6 C    3.995 --     4 C    1.006    25 H    0.985    24 H    0.985
                            23 H    0.985
     6   6 C    3.954 --     7 O    1.684     3 N    1.240     8 C    0.942
     7   8 O    2.012 --     6 C    1.684     3 N    0.195
     8   6 C    3.966 --     9 O    1.008    27 H    0.951    26 H    0.951
                             6 C    0.942
     9   8 O    2.084 --     8 C    1.008    10 C    0.956
    10   6 C    3.946 --    15 C    0.992    11 C    0.987    28 H    0.962
                             9 O    0.956
    11   6 C    3.998 --    12 C    1.008    10 C    0.987    29 H    0.976
                            30 H    0.975
    12   6 C    3.998 --    13 C    1.009    11 C    1.008    31 H    0.978
                            32 H    0.978
    13   6 C    3.998 --    12 C    1.009    14 C    1.009    33 H    0.978
                            34 H    0.977
    14   6 C    3.998 --    13 C    1.009    15 C    1.008    35 H    0.977
                            36 H    0.977
    15   6 C    3.995 --    14 C    1.008    10 C    0.992    38 H    0.975
                            37 H    0.975
    16   1 H    0.999 --     1 C    0.986
    17   1 H    0.997 --     1 C    0.984
    18   1 H    0.997 --     1 C    0.986
    19   1 H    0.998 --     2 C    0.972
    20   1 H    0.994 --     2 C    0.966
    21   1 H    0.997 --     4 C    0.969
    22   1 H    0.998 --     4 C    0.968
    23   1 H    0.997 --     5 C    0.985
    24   1 H    0.998 --     5 C    0.985
    25   1 H    0.998 --     5 C    0.985
    26   1 H    0.996 --     8 C    0.951
    27   1 H    0.999 --     8 C    0.951
    28   1 H    0.999 --    10 C    0.962
    29   1 H    0.998 --    11 C    0.976
    30   1 H    1.000 --    11 C    0.975
    31   1 H    0.999 --    12 C    0.978
    32   1 H    0.999 --    12 C    0.978
    33   1 H    0.999 --    13 C    0.978
    34   1 H    0.999 --    13 C    0.977
    35   1 H    0.999 --    14 C    0.977
    36   1 H    0.999 --    14 C    0.977
    37   1 H    0.997 --    15 C    0.975
    38   1 H    0.998 --    15 C    0.975
 ---------------------------------------------------------------------------

Topologies differ in total number of bonds
Writing topology from bond orders to xtbtopo.mol

molecular dipole:
                 x           y           z       tot (Debye)
 q only:       -1.006       0.553       0.928
   full:       -1.201       0.781       1.166       4.695
molecular quadrupole (traceless):
                xx          xy          yy          xz          yz          zz
 q only:       13.115      -1.757      -5.500      -0.843      -0.624      -7.616
  q+dip:       12.457      -1.258      -4.505      -1.114      -2.216      -7.953
   full:       12.829      -1.945      -5.271      -0.341      -1.868      -7.559

           -------------------------------------------------
          |                Geometry Summary                 |
           -------------------------------------------------

      molecular mass/u    :      213.3169811
   center of mass at/Å    :        0.0114540      -0.0389389      -0.2602836
  moments of inertia/u·Å² :        0.4331144E+03   0.1863292E+04   0.2057707E+04
rotational constants/cm⁻¹ :        0.3892189E-01   0.9047232E-02   0.8192437E-02

 * 37 selected distances

     #   Z          #   Z                                           value/Å
     1   6 C        2   6 C                                       1.5255790
     2   6 C        3   7 N                                       1.4545696
     3   7 N        4   6 C                                       1.4464821
     4   6 C        5   6 C                                       1.5298480
     3   7 N        6   6 C                                       1.3564438
     6   6 C        7   8 O                                       1.2146889
     8   6 C        9   8 O                                       1.3983859
     9   8 O       10   6 C                                       1.4247767
    10   6 C       11   6 C                                       1.5332045 (max)
    11   6 C       12   6 C                                       1.5252253
    12   6 C       13   6 C                                       1.5253319
    13   6 C       14   6 C                                       1.5257482
    10   6 C       15   6 C                                       1.5269294
    14   6 C       15   6 C                                       1.5244645
     1   6 C       16   1 H                                       1.0881651
     1   6 C       17   1 H                                       1.0865484 (min)
     1   6 C       18   1 H                                       1.0865926
     2   6 C       19   1 H                                       1.0928182
     2   6 C       20   1 H                                       1.0919953
     4   6 C       21   1 H                                       1.0935371
     4   6 C       22   1 H                                       1.0909310
     5   6 C       23   1 H                                       1.0866885
     5   6 C       24   1 H                                       1.0868623
     5   6 C       25   1 H                                       1.0871395
     8   6 C       26   1 H                                       1.0948782
     8   6 C       27   1 H                                       1.0998090
    10   6 C       28   1 H                                       1.0975292
    11   6 C       29   1 H                                       1.0920337
    11   6 C       30   1 H                                       1.0932273
    12   6 C       31   1 H                                       1.0929307
    12   6 C       32   1 H                                       1.0924121
    13   6 C       33   1 H                                       1.0922014
    13   6 C       34   1 H                                       1.0922564
    14   6 C       35   1 H                                       1.0923399
    14   6 C       36   1 H                                       1.0917202
    15   6 C       37   1 H                                       1.0900142
    15   6 C       38   1 H                                       1.0913946

 * 4 distinct bonds (by element types)

   Z      Z             #   av. dist./Å        max./Å        min./Å
   1 H    6 C          23     1.0914793     1.0998090     1.0865484
   6 C    6 C           8     1.5270413     1.5332045     1.5244645
   6 C    7 N           3     1.4191652     1.4545696     1.3564438
   6 C    8 O           3     1.3459505     1.4247767     1.2146889


optimized geometry written to: xtbopt.xyz


           -------------------------------------------------
          | TOTAL ENERGY              -48.521028127051 Eh   |
          | GRADIENT NORM               0.000123215096 Eh/α |
          | HOMO-LUMO GAP               4.553845909626 eV   |
           -------------------------------------------------

------------------------------------------------------------------------
 * finished run on 2026/07/07 at 14:33:17.561     
------------------------------------------------------------------------
 total:
 * wall-time:     0 d,  0 h,  0 min,  3.338 sec
 *  cpu-time:     0 d,  0 h,  0 min, 53.256 sec
 * ratio c/w:    15.955 speedup
 SCF:
 * wall-time:     0 d,  0 h,  0 min,  0.201 sec
 *  cpu-time:     0 d,  0 h,  0 min,  3.213 sec
 * ratio c/w:    15.969 speedup
 ANC optimizer:
 * wall-time:     0 d,  0 h,  0 min,  3.079 sec
 *  cpu-time:     0 d,  0 h,  0 min, 49.188 sec
 * ratio c/w:    15.975 speedup

