17
 energy: -23.920172119923 gnorm: 0.000241016723 xtb: 6.7.1 (edcfbbe)
C            2.00269697846076        0.71537042498735        0.56196700460477
C            0.87516570092868       -0.22898147878042        0.86119224788880
O            0.75940054589753       -0.81984346030226        1.90441608233878
C           -0.16134298002963       -0.34858876606020       -0.25344952160736
C           -0.69200960768155       -1.77550280157746       -0.34583013987140
C           -1.29891394872691        0.62869532260070        0.07884790063901
O           -0.81502749815519        1.95024962037731       -0.03275546377678
H            1.57736622387002        1.67620541473257        0.27817355943522
H            2.57941234249454        0.33967065995892       -0.28091571841241
H            2.65010048319763        0.82771893284873        1.42740519901853
H            0.27920343114664       -0.03523473565841       -1.20280746491721
H           -1.06061371225965       -2.09414987351843        0.62607733164674
H            0.10482786049868       -2.45098959122258       -0.64711250553842
H           -1.49921963427511       -1.84152802167175       -1.07131945618423
H           -2.12816268765119        0.46628735969912       -0.62533523042527
H           -1.66048554283271        0.42817712918244        1.09657417285761
H           -1.51239795488251        2.56244386440229        0.22161279909051
