      -----------------------------------------------------------      
     |                   =====================                   |     
     |                           x T B                           |     
     |                   =====================                   |     
     |                         S. Grimme                         |     
     |          Mulliken Center for Theoretical Chemistry        |     
     |                    University of Bonn                     |     
      -----------------------------------------------------------      

   * xtb version 6.7.1 (edcfbbe) compiled by 'conda@5dfe00f5fb80' on 2026-06-10

   xtb is free software: you can redistribute it and/or modify it under
   the terms of the GNU Lesser General Public License as published by
   the Free Software Foundation, either version 3 of the License, or
   (at your option) any later version.
   
   xtb is distributed in the hope that it will be useful,
   but WITHOUT ANY WARRANTY; without even the implied warranty of
   MERCHANTABILITY or FITNESS FOR A PARTICULAR PURPOSE.  See the
   GNU Lesser General Public License for more details.
   
   Cite this work as:
   * C. Bannwarth, E. Caldeweyher, S. Ehlert, A. Hansen, P. Pracht,
     J. Seibert, S. Spicher, S. Grimme, WIREs Comput. Mol. Sci., 2020, 11,
     e01493. DOI: 10.1002/wcms.1493
   
   for GFN2-xTB:
   * C. Bannwarth, S. Ehlert and S. Grimme., J. Chem. Theory Comput., 2019,
     15, 1652-1671. DOI: 10.1021/acs.jctc.8b01176
   for GFN1-xTB:
   * S. Grimme, C. Bannwarth, P. Shushkov, J. Chem. Theory Comput., 2017,
     13, 1989-2009. DOI: 10.1021/acs.jctc.7b00118
   for GFN0-xTB:
   * P. Pracht, E. Caldeweyher, S. Ehlert, S. Grimme, ChemRxiv, 2019, preprint.
     DOI: 10.26434/chemrxiv.8326202.v1
   for GFN-FF:
   * S. Spicher and S. Grimme, Angew. Chem. Int. Ed., 2020, 59, 15665-15673.
     DOI: 10.1002/anie.202004239
   
   for ALPB and GBSA implicit solvation:
   * S. Ehlert, M. Stahn, S. Spicher, S. Grimme, J. Chem. Theory Comput.,
     2021, 17, 4250-4261. DOI: 10.1021/acs.jctc.1c00471
   
   for ddCOSMO and CPCM-X implicit solvation:
   * M. Stahn, S. Ehlert, S. Grimme, J. Phys. Chem. A,
     2023, XX, XXXX-XXXX. DOI: 10.1021/acs.jpca.3c04382
   
   for DFT-D4:
   * E. Caldeweyher, C. Bannwarth and S. Grimme, J. Chem. Phys., 2017,
     147, 034112. DOI: 10.1063/1.4993215
   * E. Caldeweyher, S. Ehlert, A. Hansen, H. Neugebauer, S. Spicher,
     C. Bannwarth and S. Grimme, J. Chem. Phys., 2019, 150, 154122.
     DOI: 10.1063/1.5090222
   * E. Caldeweyher, J.-M. Mewes, S. Ehlert and S. Grimme, Phys. Chem. Chem. Phys.
     2020, 22, 8499-8512. DOI: 10.1039/D0CP00502A
   
   for sTDA-xTB:
   * S. Grimme and C. Bannwarth, J. Chem. Phys., 2016, 145, 054103.
     DOI: 10.1063/1.4959605
   
   in the mass-spec context:
   * V. Asgeirsson, C. Bauer and S. Grimme, Chem. Sci., 2017, 8, 4879.
     DOI: 10.1039/c7sc00601b
   * J. Koopman and S. Grimme, ACS Omega 2019, 4, 12, 15120-15133.
     DOI: 10.1021/acsomega.9b02011
   
   for metadynamics refer to:
   * S. Grimme, J. Chem. Theory Comput., 2019, 155, 2847-2862
     DOI: 10.1021/acs.jctc.9b00143
   
   for SPH calculations refer to:
   * S. Spicher and S. Grimme, J. Chem. Theory Comput., 2021, 17, 1701-1714
     DOI: 10.1021/acs.jctc.0c01306
   
   for ONIOM refer to:
   * C. Plett, A. Katbashev, S. Ehlert, S. Grimme, M. Bursch,
     Phys. Chem. Chem. Phys., 2023, 25, 17860-17868. DOI: 10.1039/D3CP02178E
   
   for DIPRO refer to:
   * J. Kohn, N. Gildemeister, S. Grimme, D. Fazzi, A. Hansen,
     J. Chem. Phys., 2023, just accepted.
   
   for PTB refer to:
   * S. Grimme, M. Mueller, A. Hansen, J. Chem. Phys., 2023, 158, 124111.
     DOI: 10.1063/5.0137838
   
   with help from (in alphabetical order)
   P. Atkinson, C. Bannwarth, F. Bohle, G. Brandenburg, E. Caldeweyher
   M. Checinski, S. Dohm, S. Ehlert, S. Ehrlich, I. Gerasimov, C. Hölzer
   A. Katbashev, J. Kohn, J. Koopman, C. Lavigne, S. Lehtola, F. März, M. Müller,
   F. Musil, H. Neugebauer, J. Pisarek, C. Plett, P. Pracht, F. Pultar,
   J. Seibert, P. Shushkov, S. Spicher, M. Stahn, M. Steiner, T. Strunk,
   J. Stückrath, T. Rose, and J. Unsleber
   
 * started run on 2026/07/09 at 14:19:24.843     
   ID    Z sym.   atoms
    1    6 C      1-12
    2    1 H      13-30

           -------------------------------------------------
          |                Calculation Setup                |
           -------------------------------------------------

          program call               : /home/ws/xd2484/miniforge3/envs/p3z_dft/bin/xtb xtb_input.xyz --gfn 2 --opt tight --cycles 500 --chrg 0 --uhf 0
          hostname                   : gpu10
          coordinate file            : xtb_input.xyz
          omp threads                :                    16


           -------------------------------------------------
          |                 G F N 2 - x T B                 |
           -------------------------------------------------

        Reference                      10.1021/acs.jctc.8b01176
      * Hamiltonian:
        H0-scaling (s, p, d)           1.850000    2.230000    2.230000
        zeta-weighting                 0.500000
      * Dispersion:
        s8                             2.700000
        a1                             0.520000
        a2                             5.000000
        s9                             5.000000
      * Repulsion:
        kExp                           1.500000    1.000000
        rExp                           1.000000
      * Coulomb:
        alpha                          2.000000
        third order                    shell-resolved
        anisotropic                    true
        a3                             3.000000
        a5                             4.000000
        cn-shift                       1.200000
        cn-exp                         4.000000
        max-rad                        5.000000


          ...................................................
          :                      SETUP                      :
          :.................................................:
          :  # basis functions                  66          :
          :  # atomic orbitals                  66          :
          :  # shells                           42          :
          :  # electrons                        66          :
          :  max. iterations                   250          :
          :  Hamiltonian                  GFN2-xTB          :
          :  restarted?                      false          :
          :  GBSA solvation                  false          :
          :  PC potential                    false          :
          :  electronic temp.          300.0000000     K    :
          :  accuracy                    1.0000000          :
          :  -> integral cutoff          0.2500000E+02      :
          :  -> integral neglect         0.1000000E-07      :
          :  -> SCF convergence          0.1000000E-05 Eh   :
          :  -> wf. convergence          0.1000000E-03 e    :
          :  Broyden damping             0.4000000          :
          :  net charge                          0          :
          :  unpaired electrons                  0          :
          ...................................................

 iter      E             dE          RMSdq      gap      omega  full diag
   1    -35.3988505 -0.353989E+02  0.343E+00    4.62       0.0  T
   2    -35.4498538 -0.510033E-01  0.200E+00    4.59       1.0  T
   3    -35.4482490  0.160483E-02  0.895E-01    4.60       1.0  T
   4    -35.4519713 -0.372233E-02  0.365E-01    4.57       1.0  T
   5    -35.4537418 -0.177048E-02  0.613E-02    4.57       1.0  T
   6    -35.4537576 -0.158337E-04  0.303E-02    4.57       1.0  T
   7    -35.4537583 -0.616361E-06  0.451E-03    4.57       4.1  T
   8    -35.4537584 -0.164066E-06  0.976E-04    4.57      18.7  T
   9    -35.4537584 -0.126378E-08  0.170E-04    4.57     107.3  T

   *** convergence criteria satisfied after 9 iterations ***

         #    Occupation            Energy/Eh            Energy/eV
      -------------------------------------------------------------
         1        2.0000           -0.6323885             -17.2082
       ...           ...                  ...                  ...
        27        2.0000           -0.4343739             -11.8199
        28        2.0000           -0.4343739             -11.8199
        29        2.0000           -0.4223807             -11.4936
        30        2.0000           -0.4070027             -11.0751
        31        2.0000           -0.4070027             -11.0751
        32        2.0000           -0.3799092             -10.3379
        33        2.0000           -0.3799091             -10.3379 (HOMO)
        34                         -0.2118071              -5.7636 (LUMO)
        35                         -0.2118071              -5.7636
        36                         -0.0926594              -2.5214
        37                          0.0774849               2.1085
        38                          0.1118736               3.0442
       ...                                ...                  ...
        66                          0.6218061              16.9202
      -------------------------------------------------------------
                  HL-Gap            0.1681020 Eh            4.5743 eV
             Fermi-level           -0.2958581 Eh           -8.0507 eV

 SCC (total)                   0 d,  0 h,  0 min,  0.220 sec
 SCC setup                      ...        0 min,  0.002 sec (  0.746%)
 Dispersion                     ...        0 min,  0.003 sec (  1.396%)
 classical contributions        ...        0 min,  0.002 sec (  0.815%)
 integral evaluation            ...        0 min,  0.007 sec (  3.087%)
 iterations                     ...        0 min,  0.172 sec ( 78.211%)
 molecular gradient             ...        0 min,  0.034 sec ( 15.635%)
 printout                       ...        0 min,  0.000 sec (  0.093%)

         :::::::::::::::::::::::::::::::::::::::::::::::::::::
         ::                     SUMMARY                     ::
         :::::::::::::::::::::::::::::::::::::::::::::::::::::
         :: total energy             -34.882806185596 Eh    ::
         :: gradient norm              0.036613407947 Eh/a0 ::
         :: HOMO-LUMO gap              4.574289247091 eV    ::
         ::.................................................::
         :: SCC energy               -35.453520399744 Eh    ::
         :: -> isotropic ES            0.004570167935 Eh    ::
         :: -> anisotropic ES          0.009322937796 Eh    ::
         :: -> anisotropic XC          0.021935329010 Eh    ::
         :: -> dispersion             -0.024112819924 Eh    ::
         :: repulsion energy           0.570714214147 Eh    ::
         :: add. restraining           0.000000000000 Eh    ::
         :: total charge               0.000000000000 e     ::
         :::::::::::::::::::::::::::::::::::::::::::::::::::::

      ----------------------------------------------------------- 
     |                   =====================                   |
     |                        A N C O P T                        |
     |                   =====================                   |
     |               Approximate Normal Coordinate               |
     |                Rational Function Optimizer                |
      ----------------------------------------------------------- 
      ----------------------------------------------------------- 
     |                   =====================                   |
     |                        A N C O P T                        |
     |                   =====================                   |
     |               Approximate Normal Coordinate               |
     |                Rational Function Optimizer                |
      ----------------------------------------------------------- 

          ...................................................
          :                      SETUP                      :
          :.................................................:
          :   optimization level             tight          :
          :   max. optcycles                   500          :
          :   ANC micro-cycles                  20          :
          :   degrees of freedom                84          :
          :.................................................:
          :   RF solver                   davidson          :
          :   write xtbopt.log                true          :
          :   linear?                        false          :
          :   energy convergence         0.1000000E-05 Eh   :
          :   grad. convergence          0.8000000E-03 Eh/α :
          :   maxmium RF displ.          1.0000000          :
          :   Hlow (freq-cutoff)         0.1000000E-01      :
          :   Hmax (freq-cutoff)         5.0000000          :
          :   S6 in model hess.         20.0000000          :
          ...................................................

generating ANC from exact Hessian ...
Using Lindh-Hessian (1995)
 Shifting diagonal of input Hessian by    8.8055638594179957E-003
 Lowest  eigenvalues of input Hessian
    0.000000    0.000000    0.000000    0.000000    0.000000    0.000000
    0.010000    0.010040    0.010040    0.011373    0.013878    0.013878
    0.014129    0.014129    0.017206    0.018797    0.018797    0.022623
 Highest eigenvalues
    1.396889    1.533811    1.533811    1.813449    1.908303    1.908303


........................................................................
.............................. CYCLE    1 ..............................
........................................................................

 iter      E             dE          RMSdq      gap      omega  full diag
   1    -35.4537584 -0.354538E+02  0.675E-05    4.57       0.0  T
   2    -35.4537584 -0.189715E-10  0.317E-05    4.57     576.1  T
   3    -35.4537584 -0.248690E-12  0.219E-05    4.57     835.0  T
     SCC iter.                  ...        0 min,  0.032 sec
     gradient                   ...        0 min,  0.030 sec
 * total energy  :   -34.8828062 Eh     change       -0.1413625E-09 Eh
   gradient norm :     0.0366142 Eh/α   predicted     0.0000000E+00 (-100.00%)
   displ. norm   :     0.1583447 α      lambda       -0.3213805E-02
   maximum displ.:     0.0965166 α      in ANC's #15, #52, #31, ...

........................................................................
.............................. CYCLE    2 ..............................
........................................................................

 iter      E             dE          RMSdq      gap      omega  full diag
   1    -35.4788678 -0.354789E+02  0.127E-01    4.68       0.0  T
   2    -35.4788817 -0.139046E-04  0.747E-02    4.68       1.0  T
   3    -35.4788811  0.631153E-06  0.128E-02    4.68       1.4  T
   4    -35.4788823 -0.117768E-05  0.363E-03    4.68       5.0  T
   5    -35.4788825 -0.241112E-06  0.165E-03    4.68      11.1  T
   6    -35.4788825 -0.957915E-08  0.339E-04    4.68      53.9  T
   7    -35.4788825 -0.601339E-09  0.945E-05    4.68     193.1  T
     SCC iter.                  ...        0 min,  0.072 sec
     gradient                   ...        0 min,  0.030 sec
 * total energy  :   -34.8847926 Eh     change       -0.1986380E-02 Eh
   gradient norm :     0.0118730 Eh/α   predicted    -0.1647216E-02 ( -17.07%)
   displ. norm   :     0.0869576 α      lambda       -0.3385012E-03
   maximum displ.:     0.0558771 α      in ANC's #1, #12, #15, ...

........................................................................
.............................. CYCLE    3 ..............................
........................................................................

 iter      E             dE          RMSdq      gap      omega  full diag
   1    -35.4868487 -0.354868E+02  0.411E-02    4.71       0.0  T
   2    -35.4868506 -0.181615E-05  0.239E-02    4.71       1.0  T
   3    -35.4868500  0.607555E-06  0.814E-03    4.71       2.2  T
   4    -35.4868507 -0.774186E-06  0.162E-03    4.71      11.3  T
   5    -35.4868508 -0.479196E-07  0.391E-04    4.71      46.7  T
   6    -35.4868508 -0.393896E-09  0.159E-04    4.71     114.8  T
     SCC iter.                  ...        0 min,  0.063 sec
     gradient                   ...        0 min,  0.032 sec
 * total energy  :   -34.8849844 Eh     change       -0.1918086E-03 Eh
   gradient norm :     0.0030359 Eh/α   predicted    -0.1709055E-03 ( -10.90%)
   displ. norm   :     0.0551933 α      lambda       -0.3815652E-04
   maximum displ.:     0.0532145 α      in ANC's #1, #12, #15, ...

........................................................................
.............................. CYCLE    4 ..............................
........................................................................

 iter      E             dE          RMSdq      gap      omega  full diag
   1    -35.4874314 -0.354874E+02  0.114E-02    4.71       0.0  T
   2    -35.4874315 -0.965890E-07  0.653E-03    4.71       2.8  T
   3    -35.4874314  0.653897E-07  0.251E-03    4.71       7.3  T
   4    -35.4874315 -0.867593E-07  0.423E-04    4.71      43.2  T
   5    -35.4874315 -0.204222E-08  0.112E-04    4.71     163.6  T
     SCC iter.                  ...        0 min,  0.071 sec
     gradient                   ...        0 min,  0.039 sec
 * total energy  :   -34.8850148 Eh     change       -0.3043301E-04 Eh
   gradient norm :     0.0010186 Eh/α   predicted    -0.1914166E-04 ( -37.10%)
   displ. norm   :     0.0791776 α      lambda       -0.2471978E-04
   maximum displ.:     0.0781642 α      in ANC's #1, #12, #19, ...

........................................................................
.............................. CYCLE    5 ..............................
........................................................................

 iter      E             dE          RMSdq      gap      omega  full diag
   1    -35.4867353 -0.354867E+02  0.135E-02    4.70       0.0  T
   2    -35.4867354 -0.479691E-07  0.797E-03    4.70       2.3  T
   3    -35.4867353  0.636966E-07  0.211E-03    4.70       8.7  T
   4    -35.4867354 -0.795412E-07  0.366E-04    4.70      49.8  T
   5    -35.4867354 -0.997787E-09  0.114E-04    4.70     160.7  T
     SCC iter.                  ...        0 min,  0.072 sec
     gradient                   ...        0 min,  0.043 sec
 * total energy  :   -34.8850436 Eh     change       -0.2882094E-04 Eh
   gradient norm :     0.0017881 Eh/α   predicted    -0.1242079E-04 ( -56.90%)
   displ. norm   :     0.0519034 α      lambda       -0.1281937E-04
   maximum displ.:     0.0518248 α      in ANC's #1, #19, #31, ...

........................................................................
.............................. CYCLE    6 ..............................
........................................................................

 iter      E             dE          RMSdq      gap      omega  full diag
   1    -35.4866009 -0.354866E+02  0.750E-03    4.70       0.0  T
   2    -35.4866009 -0.501936E-08  0.444E-03    4.70       4.1  T
   3    -35.4866009 -0.560682E-09  0.250E-04    4.70      72.9  T
   4    -35.4866009 -0.844722E-09  0.113E-04    4.70     162.0  T
     SCC iter.                  ...        0 min,  0.059 sec
     gradient                   ...        0 min,  0.043 sec
 * total energy  :   -34.8850615 Eh     change       -0.1782896E-04 Eh
   gradient norm :     0.0014499 Eh/α   predicted    -0.6452883E-05 ( -63.81%)
   displ. norm   :     0.0465610 α      lambda       -0.1097807E-04
   maximum displ.:     0.0464791 α      in ANC's #1, #15, #75, ...

........................................................................
.............................. CYCLE    7 ..............................
........................................................................

 iter      E             dE          RMSdq      gap      omega  full diag
   1    -35.4867402 -0.354867E+02  0.592E-03    4.70       0.0  T
   2    -35.4867402 -0.942785E-08  0.351E-03    4.70       5.2  T
   3    -35.4867402 -0.425473E-10  0.276E-04    4.70      66.2  T
   4    -35.4867402 -0.849624E-09  0.103E-04    4.70     177.2  T
     SCC iter.                  ...        0 min,  0.135 sec
     gradient                   ...        0 min,  0.044 sec
 * total energy  :   -34.8850761 Eh     change       -0.1460339E-04 Eh
   gradient norm :     0.0004895 Eh/α   predicted    -0.5497907E-05 ( -62.35%)
   displ. norm   :     0.0418991 α      lambda       -0.7545726E-05
   maximum displ.:     0.0418415 α      in ANC's #1, #12, #52, ...

........................................................................
.............................. CYCLE    8 ..............................
........................................................................

 iter      E             dE          RMSdq      gap      omega  full diag
   1    -35.4868879 -0.354869E+02  0.587E-03    4.70       0.0  T
   2    -35.4868879 -0.333642E-08  0.348E-03    4.70       5.2  T
   3    -35.4868879 -0.546905E-09  0.170E-04    4.70     107.6  T
   4    -35.4868879 -0.251177E-09  0.838E-05    4.70     218.0  T
     SCC iter.                  ...        0 min,  0.069 sec
     gradient                   ...        0 min,  0.044 sec
 * total energy  :   -34.8850862 Eh     change       -0.1017755E-04 Eh
   gradient norm :     0.0003194 Eh/α   predicted    -0.3777456E-05 ( -62.88%)
   displ. norm   :     0.0344410 α      lambda       -0.5060001E-05
   maximum displ.:     0.0343405 α      in ANC's #1, #12, #15, ...

........................................................................
.............................. CYCLE    9 ..............................
........................................................................

 iter      E             dE          RMSdq      gap      omega  full diag
   1    -35.4869065 -0.354869E+02  0.403E-03    4.70       0.0  T
   2    -35.4869065 -0.206372E-08  0.239E-03    4.70       7.6  T
   3    -35.4869065  0.316222E-08  0.463E-04    4.70      39.4  T
   4    -35.4869065 -0.402824E-08  0.707E-05    4.70     258.2  T
     SCC iter.                  ...        0 min,  0.173 sec
     gradient                   ...        0 min,  0.050 sec
 * total energy  :   -34.8850933 Eh     change       -0.7025726E-05 Eh
   gradient norm :     0.0004400 Eh/α   predicted    -0.2534227E-05 ( -63.93%)
   displ. norm   :     0.0291659 α      lambda       -0.3785058E-05
   maximum displ.:     0.0290904 α      in ANC's #1, #12, #19, ...

........................................................................
.............................. CYCLE   10 ..............................
........................................................................

 iter      E             dE          RMSdq      gap      omega  full diag
   1    -35.4869563 -0.354870E+02  0.453E-03    4.70       0.0  T
   2    -35.4869563 -0.167422E-08  0.268E-03    4.70       6.8  T
   3    -35.4869563  0.166280E-08  0.356E-04    4.70      51.4  T
   4    -35.4869563 -0.239443E-08  0.702E-05    4.70     260.0  T
     SCC iter.                  ...        0 min,  0.065 sec
     gradient                   ...        0 min,  0.050 sec
 * total energy  :   -34.8850985 Eh     change       -0.5261151E-05 Eh
   gradient norm :     0.0003313 Eh/α   predicted    -0.1895130E-05 ( -63.98%)
   displ. norm   :     0.0259914 α      lambda       -0.2917208E-05
   maximum displ.:     0.0258607 α      in ANC's #1, #12, #15, ...

........................................................................
.............................. CYCLE   11 ..............................
........................................................................

 iter      E             dE          RMSdq      gap      omega  full diag
   1    -35.4869317 -0.354869E+02  0.301E-03    4.70       0.0  T
   2    -35.4869317 -0.168257E-08  0.178E-03    4.70      10.3  T
   3    -35.4869317  0.393499E-08  0.518E-04    4.70      35.2  T
   4    -35.4869317 -0.483868E-08  0.612E-05    4.70     298.2  T
     SCC iter.                  ...        0 min,  0.063 sec
     gradient                   ...        0 min,  0.042 sec
 * total energy  :   -34.8851026 Eh     change       -0.4051734E-05 Eh
   gradient norm :     0.0001686 Eh/α   predicted    -0.1471060E-05 ( -63.69%)
   displ. norm   :     0.0224089 α      lambda       -0.2135913E-05
   maximum displ.:     0.0223538 α      in ANC's #1, #12, #19, ...

........................................................................
.............................. CYCLE   12 ..............................
........................................................................

 iter      E             dE          RMSdq      gap      omega  full diag
   1    -35.4869569 -0.354870E+02  0.352E-03    4.70       0.0  T
   2    -35.4869569 -0.108079E-08  0.208E-03    4.70       8.8  T
   3    -35.4869569  0.106882E-08  0.283E-04    4.70      64.5  T
   4    -35.4869569 -0.151949E-08  0.564E-05    4.70     323.7  T
     SCC iter.                  ...        0 min,  0.057 sec
     gradient                   ...        0 min,  0.042 sec
 * total energy  :   -34.8851056 Eh     change       -0.2976757E-05 Eh
   gradient norm :     0.0001337 Eh/α   predicted    -0.1076529E-05 ( -63.84%)
   displ. norm   :     0.0191163 α      lambda       -0.1552928E-05
   maximum displ.:     0.0190560 α      in ANC's #1, #12, #15, ...

........................................................................
.............................. CYCLE   13 ..............................
........................................................................

 iter      E             dE          RMSdq      gap      omega  full diag
   1    -35.4869779 -0.354870E+02  0.231E-03    4.70       0.0  T
   2    -35.4869779 -0.646452E-09  0.136E-03    4.70      13.4  T
   3    -35.4869779  0.132309E-08  0.297E-04    4.70      61.5  T
   4    -35.4869779 -0.165961E-08  0.408E-05    4.70     447.7  T
     SCC iter.                  ...        0 min,  0.045 sec
     gradient                   ...        0 min,  0.033 sec
 * total energy  :   -34.8851077 Eh     change       -0.2177039E-05 Eh
   gradient norm :     0.0001423 Eh/α   predicted    -0.7809189E-06 ( -64.13%)
   displ. norm   :     0.0163583 α      lambda       -0.1149108E-05
   maximum displ.:     0.0163226 α      in ANC's #1, #12, #15, ...

........................................................................
.............................. CYCLE   14 ..............................
........................................................................

 iter      E             dE          RMSdq      gap      omega  full diag
   1    -35.4869882 -0.354870E+02  0.228E-03    4.70       0.0  T
   2    -35.4869882 -0.373795E-09  0.135E-03    4.70      13.5  T
   3    -35.4869882  0.346049E-09  0.167E-04    4.70     109.2  T
   4    -35.4869882 -0.524288E-09  0.348E-05    4.70     524.5  T
     SCC iter.                  ...        0 min,  0.048 sec
     gradient                   ...        0 min,  0.034 sec
 * total energy  :   -34.8851093 Eh     change       -0.1613079E-05 Eh
   gradient norm :     0.0001093 Eh/α   predicted    -0.5770713E-06 ( -64.23%)
   displ. norm   :     0.0141333 α      lambda       -0.8600662E-06
   maximum displ.:     0.0140953 α      in ANC's #1, #12, #15, ...

........................................................................
.............................. CYCLE   15 ..............................
........................................................................

 iter      E             dE          RMSdq      gap      omega  full diag
   1    -35.4870051 -0.354870E+02  0.173E-03    4.70       0.0  T
   2    -35.4870051 -0.319211E-09  0.102E-03    4.70      17.8  T
   3    -35.4870051  0.497899E-09  0.185E-04    4.70      98.8  T
   4    -35.4870051 -0.647695E-09  0.295E-05    4.70     618.1  T
     SCC iter.                  ...        0 min,  0.049 sec
     gradient                   ...        0 min,  0.035 sec
 * total energy  :   -34.8851105 Eh     change       -0.1202433E-05 Eh
   gradient norm :     0.0000830 Eh/α   predicted    -0.4310151E-06 ( -64.15%)
   displ. norm   :     0.0122049 α      lambda       -0.6397038E-06
   maximum displ.:     0.0121734 α      in ANC's #1, #12, #15, ...

........................................................................
.............................. CYCLE   16 ..............................
........................................................................

 iter      E             dE          RMSdq      gap      omega  full diag
   1    -35.4870107 -0.354870E+02  0.168E-03    4.70       0.0  T
   2    -35.4870107 -0.211131E-09  0.994E-04    4.70      18.4  T
   3    -35.4870107  0.201794E-09  0.127E-04    4.70     144.1  T
     SCC iter.                  ...        0 min,  0.037 sec
     gradient                   ...        0 min,  0.035 sec
 * total energy  :   -34.8851114 Eh     change       -0.8936334E-06 Eh
   gradient norm :     0.0000700 Eh/α   predicted    -0.3206182E-06 ( -64.12%)
   displ. norm   :     0.0105244 α      lambda       -0.4746859E-06
   maximum displ.:     0.0104965 α      in ANC's #1, #12, #15, ...

   *** GEOMETRY OPTIMIZATION CONVERGED AFTER 16 ITERATIONS ***

------------------------------------------------------------------------
 total energy gain   :        -0.0023053 Eh       -1.4466 kcal/mol
 total RMSD          :         0.1064514 a0        0.0563 Å
 total power (kW/mol):        -0.3782777 (step)   -2.6470 (real)
------------------------------------------------------------------------

 ANCopt (total)                0 d,  0 h,  0 min,  2.287 sec
 optimizer setup                ...        0 min,  0.001 sec (  0.027%)
 model hessian                  ...        0 min,  0.012 sec (  0.530%)
 ANC generation                 ...        0 min,  0.001 sec (  0.058%)
 coordinate transformation      ...        0 min,  0.000 sec (  0.011%)
 single point calculation       ...        0 min,  2.205 sec ( 96.426%)
 optimization log               ...        0 min,  0.002 sec (  0.103%)
 hessian update                 ...        0 min,  0.061 sec (  2.659%)
 rational function              ...        0 min,  0.001 sec (  0.053%)

================
 final structure:
================
30
 xtb: 6.7.1 (edcfbbe)
C           -2.49290790965214        2.24731036040817       -0.90005907880537
C           -2.06218715606811        2.06857959003001        0.55690170477205
C           -0.97652853303171        1.03458482072607        0.66273388023876
C            0.35754571100071        1.39909976706965        0.55239765531900
C            1.36771201336075        0.45020188913457        0.61529626502185
C            2.80668369515990        0.85484552750302        0.45837469629670
C            3.21505819146248        0.82441110323203       -1.01556689428805
C            1.02469542959938       -0.88342188932992        0.78437192180440
C           -0.30180168905086       -1.27386053896091        0.89734277767728
C           -0.66081314871396       -2.72594590237438        1.04417310739650
C           -0.85002501734746       -3.37348505758416       -0.32881330965172
C           -1.29321943855446       -0.30560153378789        0.83127698627019
H           -1.64836872998673        2.56562172948673       -1.50726162681412
H           -3.27873079910562        2.99559011886532       -0.97756424230614
H           -2.86637566982246        1.30781853935910       -1.30148206768073
H           -1.70284981199736        3.02392054674937        0.94525241205365
H           -2.92510049041202        1.76173505049026        1.15174875712366
H            0.61485686218090        2.44172581308483        0.42394017848040
H            3.44667895658017        0.17334582168026        1.02280373398723
H            2.95271134880043        1.86335917205134        0.85104768996620
H            2.59618348530494        1.50753239189685       -1.59315054479113
H            3.08843600316702       -0.17661330871227       -1.42199083481599
H            4.25651298217725        1.11717911894640       -1.13004908023362
H            1.80507496410058       -1.63037146351029        0.83779060001676
H           -1.58512150118493       -2.82274150640604        1.61767175176387
H            0.13109711503621       -3.25056948525051        1.58293482884413
H           -1.10991515193202       -4.42458075325208       -0.22344644502550
H           -1.64469822041523       -2.87190370370156       -0.87669478719967
H            0.06556159014415       -3.29824642758444       -0.91131120177190
H           -2.33016508079890       -0.59951979026027        0.92147307931833

 Bond Distances (Angstroems)
 ---------------------------
C1-C2=1.5298         C1-H13=1.0878        C1-H14=1.0879        C1-H15=1.0878        C2-C1=1.5298         C2-C3=1.5030         
C2-H16=1.0921        C2-H17=1.0921        C3-C2=1.5030         C3-C4=1.3874         C3-C12=1.3874        C4-C3=1.3874         
C4-C5=1.3874         C4-H18=1.0816        C5-C4=1.3874         C5-C6=1.5030         C5-C8=1.3874         C6-C5=1.5030         
C6-C7=1.5298         C6-H19=1.0921        C6-H20=1.0921        C7-C6=1.5298         C7-H21=1.0878        C7-H22=1.0878        
C7-H23=1.0879        C8-C5=1.3874         C8-C9=1.3874         C8-H24=1.0816        C9-C8=1.3874         C9-C10=1.5030        
C9-C12=1.3874        C10-C9=1.5030        C10-C11=1.5298       C10-H25=1.0921       C10-H26=1.0921       C11-C10=1.5298       
C11-H27=1.0879       C11-H28=1.0878       C11-H29=1.0878       C12-C3=1.3874        C12-C9=1.3874        C12-H30=1.0816       
H13-C1=1.0878        H14-C1=1.0879        H15-C1=1.0878        H16-C2=1.0921        H17-C2=1.0921        H18-C4=1.0816        
H19-C6=1.0921        H20-C6=1.0921        H21-C7=1.0878        H22-C7=1.0878        H23-C7=1.0879        H24-C8=1.0816        
H25-C10=1.0921       H26-C10=1.0921       H27-C11=1.0879       H28-C11=1.0878       H29-C11=1.0878       H30-C12=1.0816       
 C  H  Rav=1.0882 sigma=0.0035  Rmin=1.0816  Rmax=1.0921    18
 C  C  Rav=1.4519 sigma=0.0652  Rmin=1.3874  Rmax=1.5298    12

 selected bond angles (degree)
 --------------------
H13-C1-C2=110.32               H14-C1-C2=110.59               H14-C1-H13=108.65              H15-C1-C2=110.32               
H15-C1-H13=108.26              H15-C1-H14=108.65              C3-C2-C1=110.54                H16-C2-C1=109.22               
H16-C2-C3=109.82               H17-C2-C1=109.22               H17-C2-C3=109.82               H17-C2-H16=108.19              
C4-C3-C2=120.55                C12-C3-C2=120.55               C12-C3-C4=118.88               C5-C4-C3=121.12                
H18-C4-C3=119.44               H18-C4-C5=119.44               C6-C5-C4=120.55                C8-C5-C4=118.88                
C8-C5-C6=120.55                C7-C6-C5=110.54                H19-C6-C5=109.82               H19-C6-C7=109.22               
H20-C6-C5=109.82               H20-C6-C7=109.22               H20-C6-H19=108.19              H21-C7-C6=110.32               
H22-C7-C6=110.32               H22-C7-H21=108.26              H23-C7-C6=110.59               H23-C7-H21=108.65              
H23-C7-H22=108.65              C9-C8-C5=121.12                H24-C8-C5=119.44               H24-C8-C9=119.44               
C10-C9-C8=120.55               C12-C9-C8=118.88               C12-C9-C10=120.55              C11-C10-C9=110.54              
H25-C10-C9=109.82              H25-C10-C11=109.22             H26-C10-C9=109.82              H26-C10-C11=109.22             
H26-C10-H25=108.19             

 selected dihedral angles (degree)
 ---------------------------------
C3-C2-C1-H13=300.22           C3-C2-C1-H14=180.00           C3-C2-C1-H15= 59.78           H16-C2-C1-H13= 61.15          
H16-C2-C1-H14=300.93          H16-C2-C1-H15=180.71          H17-C2-C1-H13=179.29          H17-C2-C1-H14= 59.07          
H17-C2-C1-H15=298.85          C4-C3-C2-C1= 89.01            C4-C3-C2-H16=328.43           C4-C3-C2-H17=209.58           
C12-C3-C2-C1=270.99           C12-C3-C2-H16=150.42          C12-C3-C2-H17= 31.57          C5-C4-C3-C2=181.60            
C5-C4-C3-C12=359.65           H18-C4-C3-C2=  2.15           H18-C4-C3-C12=180.19          C6-C5-C4-C3=178.40            
C6-C5-C4-H18=357.85           C8-C5-C4-C3=  0.35            C8-C5-C4-H18=179.81           C7-C6-C5-C4=270.99            
C7-C6-C5-C8= 89.01            H19-C6-C5-C4=150.42           H19-C6-C5-C8=328.43           H20-C6-C5-C4= 31.57           
H20-C6-C5-C8=209.58           H21-C7-C6-C5= 59.78           H21-C7-C6-H19=180.71          H21-C7-C6-H20=298.85          
H22-C7-C6-C5=300.22           H22-C7-C6-H19= 61.15          H22-C7-C6-H20=179.29          H23-C7-C6-C5=180.00           
H23-C7-C6-H19=300.93          H23-C7-C6-H20= 59.07          C9-C8-C5-C4=359.65            C9-C8-C5-C6=181.60            
H24-C8-C5-C4=180.19           H24-C8-C5-C6=  2.15           C10-C9-C8-C5=178.40           C10-C9-C8-H24=357.85          
C12-C9-C8-C5=  0.35           C12-C9-C8-H24=179.81          C11-C10-C9-C8=270.99          C11-C10-C9-C12= 89.01         
H25-C10-C9-C8=150.42          H25-C10-C9-C12=328.43         H26-C10-C9-C8= 31.57          H26-C10-C9-C12=209.58         
           -------------------------------------------------
          |                Final Singlepoint                |
           -------------------------------------------------

          ...................................................
          :                      SETUP                      :
          :.................................................:
          :  # basis functions                  66          :
          :  # atomic orbitals                  66          :
          :  # shells                           42          :
          :  # electrons                        66          :
          :  max. iterations                   250          :
          :  Hamiltonian                  GFN2-xTB          :
          :  restarted?                      false          :
          :  GBSA solvation                  false          :
          :  PC potential                    false          :
          :  electronic temp.          300.0000000     K    :
          :  accuracy                    1.0000000          :
          :  -> integral cutoff          0.2500000E+02      :
          :  -> integral neglect         0.1000000E-07      :
          :  -> SCF convergence          0.1000000E-05 Eh   :
          :  -> wf. convergence          0.1000000E-03 e    :
          :  Broyden damping             0.4000000          :
          :  net charge                          0          :
          :  unpaired electrons                  0          :
          ...................................................

 iter      E             dE          RMSdq      gap      omega  full diag
   1    -35.4870107 -0.354870E+02  0.257E-05    4.70       0.0  T
   2    -35.4870107 -0.994760E-12  0.143E-05    4.70    1273.4  T
   3    -35.4870107  0.106581E-12  0.848E-06    4.70    2152.7  T

   *** convergence criteria satisfied after 3 iterations ***

         #    Occupation            Energy/Eh            Energy/eV
      -------------------------------------------------------------
         1        2.0000           -0.6360006             -17.3065
       ...           ...                  ...                  ...
        27        2.0000           -0.4357512             -11.8574
        28        2.0000           -0.4357512             -11.8574
        29        2.0000           -0.4240962             -11.5402
        30        2.0000           -0.4069396             -11.0734
        31        2.0000           -0.4069396             -11.0734
        32        2.0000           -0.3814148             -10.3788
        33        2.0000           -0.3814147             -10.3788 (HOMO)
        34                         -0.2085765              -5.6757 (LUMO)
        35                         -0.2085764              -5.6757
        36                         -0.0853003              -2.3211
        37                          0.0867944               2.3618
        38                          0.1204790               3.2784
       ...                                ...                  ...
        66                          0.6589145              17.9300
      -------------------------------------------------------------
                  HL-Gap            0.1728383 Eh            4.7032 eV
             Fermi-level           -0.2949956 Eh           -8.0272 eV

 SCC (total)                   0 d,  0 h,  0 min,  0.169 sec
 SCC setup                      ...        0 min,  0.002 sec (  1.183%)
 Dispersion                     ...        0 min,  0.007 sec (  4.357%)
 classical contributions        ...        0 min,  0.004 sec (  2.143%)
 integral evaluation            ...        0 min,  0.011 sec (  6.690%)
 iterations                     ...        0 min,  0.095 sec ( 56.148%)
 molecular gradient             ...        0 min,  0.050 sec ( 29.370%)
 printout                       ...        0 min,  0.000 sec (  0.090%)

         :::::::::::::::::::::::::::::::::::::::::::::::::::::
         ::                     SUMMARY                     ::
         :::::::::::::::::::::::::::::::::::::::::::::::::::::
         :: total energy             -34.885111439996 Eh    ::
         :: gradient norm              0.000069893404 Eh/a0 ::
         :: HOMO-LUMO gap              4.703168361743 eV    ::
         ::.................................................::
         :: SCC energy               -35.486754597791 Eh    ::
         :: -> isotropic ES            0.004873702044 Eh    ::
         :: -> anisotropic ES          0.008802064510 Eh    ::
         :: -> anisotropic XC          0.021254300463 Eh    ::
         :: -> dispersion             -0.024369692902 Eh    ::
         :: repulsion energy           0.601643157795 Eh    ::
         :: add. restraining           0.000000000000 Eh    ::
         :: total charge               0.000000000000 e     ::
         :::::::::::::::::::::::::::::::::::::::::::::::::::::

           -------------------------------------------------
          |                Property Printout                |
           -------------------------------------------------

    * Orbital Energies and Occupations

         #    Occupation            Energy/Eh            Energy/eV
      -------------------------------------------------------------
         1        2.0000           -0.6360006             -17.3065
       ...           ...                  ...                  ...
        21        2.0000           -0.4666201             -12.6974
        22        2.0000           -0.4666200             -12.6974
        23        2.0000           -0.4476845             -12.1821
        24        2.0000           -0.4451047             -12.1119
        25        2.0000           -0.4451047             -12.1119
        26        2.0000           -0.4376424             -11.9089
        27        2.0000           -0.4357512             -11.8574
        28        2.0000           -0.4357512             -11.8574
        29        2.0000           -0.4240962             -11.5402
        30        2.0000           -0.4069396             -11.0734
        31        2.0000           -0.4069396             -11.0734
        32        2.0000           -0.3814148             -10.3788
        33        2.0000           -0.3814147             -10.3788 (HOMO)
        34                         -0.2085765              -5.6757 (LUMO)
        35                         -0.2085764              -5.6757
        36                         -0.0853003              -2.3211
        37                          0.0867944               2.3618
        38                          0.1204790               3.2784
        39                          0.1235543               3.3621
        40                          0.1235544               3.3621
        41                          0.1378388               3.7508
        42                          0.1378389               3.7508
        43                          0.1452594               3.9527
        44                          0.1644098               4.4738
       ...                                ...                  ...
        66                          0.6589145              17.9300
      -------------------------------------------------------------
                  HL-Gap            0.1728383 Eh            4.7032 eV
             Fermi-level           -0.2949956 Eh           -8.0272 eV

     #   Z          covCN         q      C6AA      α(0)
     1   6 C        3.753    -0.096    22.394     6.748
     2   6 C        3.807    -0.056    21.583     6.613
     3   6 C        2.968     0.009    27.807     8.650
     4   6 C        2.931    -0.051    29.268     8.872
     5   6 C        2.968     0.009    27.807     8.650
     6   6 C        3.807    -0.056    21.583     6.613
     7   6 C        3.753    -0.096    22.394     6.748
     8   6 C        2.931    -0.051    29.268     8.872
     9   6 C        2.968     0.009    27.807     8.650
    10   6 C        3.807    -0.056    21.583     6.613
    11   6 C        3.753    -0.096    22.394     6.748
    12   6 C        2.931    -0.051    29.268     8.872
    13   1 H        0.925     0.035     2.521     2.483
    14   1 H        0.925     0.033     2.541     2.493
    15   1 H        0.925     0.035     2.521     2.483
    16   1 H        0.924     0.033     2.542     2.493
    17   1 H        0.924     0.033     2.542     2.493
    18   1 H        0.925     0.025     2.652     2.546
    19   1 H        0.924     0.033     2.542     2.493
    20   1 H        0.924     0.033     2.542     2.493
    21   1 H        0.925     0.035     2.521     2.483
    22   1 H        0.925     0.035     2.521     2.483
    23   1 H        0.925     0.033     2.541     2.493
    24   1 H        0.925     0.025     2.652     2.546
    25   1 H        0.924     0.033     2.542     2.493
    26   1 H        0.924     0.033     2.542     2.493
    27   1 H        0.925     0.033     2.541     2.493
    28   1 H        0.925     0.035     2.521     2.483
    29   1 H        0.925     0.035     2.521     2.483
    30   1 H        0.925     0.025     2.652     2.546

 Mol. C6AA /au·bohr⁶  :       7888.787378
 Mol. C8AA /au·bohr⁸  :     178970.050338
 Mol. α(0) /au        :        137.626386


Wiberg/Mayer (AO) data.
largest (>0.10) Wiberg bond orders for each atom

 ---------------------------------------------------------------------------
     #   Z sym  total        # sym  WBO       # sym  WBO       # sym  WBO
 ---------------------------------------------------------------------------
     1   6 C    3.997 --     2 C    1.002    13 H    0.989    15 H    0.989
                            14 H    0.987
     2   6 C    3.997 --     3 C    1.011     1 C    1.002    16 H    0.975
                            17 H    0.975
     3   6 C    3.988 --     4 C    1.415    12 C    1.415     2 C    1.011
                             8 C    0.105
     4   6 C    3.990 --     3 C    1.415     5 C    1.415    18 H    0.968
                             9 C    0.105
     5   6 C    3.988 --     8 C    1.415     4 C    1.415     6 C    1.011
                            12 C    0.105
     6   6 C    3.997 --     5 C    1.011     7 C    1.002    19 H    0.975
                            20 H    0.975
     7   6 C    3.997 --     6 C    1.002    22 H    0.989    21 H    0.989
                            23 H    0.987
     8   6 C    3.990 --     5 C    1.415     9 C    1.415    24 H    0.968
                             3 C    0.105
     9   6 C    3.988 --    12 C    1.415     8 C    1.415    10 C    1.011
                             4 C    0.105
    10   6 C    3.997 --     9 C    1.011    11 C    1.002    26 H    0.975
                            25 H    0.975
    11   6 C    3.997 --    10 C    1.002    29 H    0.989    28 H    0.989
                            27 H    0.987
    12   6 C    3.990 --     9 C    1.415     3 C    1.415    30 H    0.968
                             5 C    0.105
    13   1 H    0.999 --     1 C    0.989
    14   1 H    0.998 --     1 C    0.987
    15   1 H    0.999 --     1 C    0.989
    16   1 H    0.999 --     2 C    0.975
    17   1 H    0.999 --     2 C    0.975
    18   1 H    0.999 --     4 C    0.968
    19   1 H    0.999 --     6 C    0.975
    20   1 H    0.999 --     6 C    0.975
    21   1 H    0.999 --     7 C    0.989
    22   1 H    0.999 --     7 C    0.989
    23   1 H    0.998 --     7 C    0.987
    24   1 H    0.999 --     8 C    0.968
    25   1 H    0.999 --    10 C    0.975
    26   1 H    0.999 --    10 C    0.975
    27   1 H    0.998 --    11 C    0.987
    28   1 H    0.999 --    11 C    0.989
    29   1 H    0.999 --    11 C    0.989
    30   1 H    0.999 --    12 C    0.968
 ---------------------------------------------------------------------------

Topologies differ in total number of bonds
Writing topology from bond orders to xtbtopo.mol

molecular dipole:
                 x           y           z       tot (Debye)
 q only:       -0.004      -0.008      -0.073
   full:       -0.005      -0.012      -0.101       0.260
molecular quadrupole (traceless):
                xx          xy          yy          xz          yz          zz
 q only:        0.901      -0.015       0.872      -0.131      -0.308      -1.773
  q+dip:        3.402      -0.057       3.291      -0.496      -1.170      -6.693
   full:        1.886      -0.032       1.825      -0.274      -0.647      -3.710

           -------------------------------------------------
          |                Geometry Summary                 |
           -------------------------------------------------

      molecular mass/u    :      162.2717643
   center of mass at/Å    :        0.0091002       0.0214750       0.3041370
  moments of inertia/u·Å² :        0.6162054E+03   0.6162068E+03   0.1066412E+04
rotational constants/cm⁻¹ :        0.2735716E-01   0.2735710E-01   0.1580780E-01

 * 27 selected distances

     #   Z          #   Z                                           value/Å
     1   6 C        2   6 C                                       1.5297713
     3   6 C        4   6 C                                       1.3873715
     4   6 C        5   6 C                                       1.3873715
     6   6 C        7   6 C                                       1.5297713 (max)
     5   6 C        8   6 C                                       1.3873715
     8   6 C        9   6 C                                       1.3873715
    10   6 C       11   6 C                                       1.5297713
     3   6 C       12   6 C                                       1.3873715
     9   6 C       12   6 C                                       1.3873715
     1   6 C       13   1 H                                       1.0877793
     1   6 C       14   1 H                                       1.0878637
     1   6 C       15   1 H                                       1.0877792
     2   6 C       16   1 H                                       1.0920697
     2   6 C       17   1 H                                       1.0920697
     4   6 C       18   1 H                                       1.0815635 (min)
     6   6 C       19   1 H                                       1.0920697
     6   6 C       20   1 H                                       1.0920697
     7   6 C       21   1 H                                       1.0877792
     7   6 C       22   1 H                                       1.0877792
     7   6 C       23   1 H                                       1.0878638
     8   6 C       24   1 H                                       1.0815635
    10   6 C       25   1 H                                       1.0920697
    10   6 C       26   1 H                                       1.0920697
    11   6 C       27   1 H                                       1.0878637
    11   6 C       28   1 H                                       1.0877792
    11   6 C       29   1 H                                       1.0877793
    12   6 C       30   1 H                                       1.0815636

 * 2 distinct bonds (by element types)

   Z      Z             #   av. dist./Å        max./Å        min./Å
   1 H    6 C          18     1.0881875     1.0920697     1.0815635
   6 C    6 C           9     1.4348381     1.5297713     1.3873715


optimized geometry written to: xtbopt.xyz


           -------------------------------------------------
          | TOTAL ENERGY              -34.885111439996 Eh   |
          | GRADIENT NORM               0.000069893404 Eh/α |
          | HOMO-LUMO GAP               4.703168361743 eV   |
           -------------------------------------------------

------------------------------------------------------------------------
 * finished run on 2026/07/09 at 14:19:27.581     
------------------------------------------------------------------------
 total:
 * wall-time:     0 d,  0 h,  0 min,  2.739 sec
 *  cpu-time:     0 d,  0 h,  0 min, 43.337 sec
 * ratio c/w:    15.825 speedup
 SCF:
 * wall-time:     0 d,  0 h,  0 min,  0.220 sec
 *  cpu-time:     0 d,  0 h,  0 min,  3.422 sec
 * ratio c/w:    15.538 speedup
 ANC optimizer:
 * wall-time:     0 d,  0 h,  0 min,  2.463 sec
 *  cpu-time:     0 d,  0 h,  0 min, 39.182 sec
 * ratio c/w:    15.910 speedup

