      -----------------------------------------------------------      
     |                   =====================                   |     
     |                           x T B                           |     
     |                   =====================                   |     
     |                         S. Grimme                         |     
     |          Mulliken Center for Theoretical Chemistry        |     
     |                    University of Bonn                     |     
      -----------------------------------------------------------      

   * xtb version 6.7.1 (edcfbbe) compiled by 'conda@5dfe00f5fb80' on 2026-06-10

   xtb is free software: you can redistribute it and/or modify it under
   the terms of the GNU Lesser General Public License as published by
   the Free Software Foundation, either version 3 of the License, or
   (at your option) any later version.
   
   xtb is distributed in the hope that it will be useful,
   but WITHOUT ANY WARRANTY; without even the implied warranty of
   MERCHANTABILITY or FITNESS FOR A PARTICULAR PURPOSE.  See the
   GNU Lesser General Public License for more details.
   
   Cite this work as:
   * C. Bannwarth, E. Caldeweyher, S. Ehlert, A. Hansen, P. Pracht,
     J. Seibert, S. Spicher, S. Grimme, WIREs Comput. Mol. Sci., 2020, 11,
     e01493. DOI: 10.1002/wcms.1493
   
   for GFN2-xTB:
   * C. Bannwarth, S. Ehlert and S. Grimme., J. Chem. Theory Comput., 2019,
     15, 1652-1671. DOI: 10.1021/acs.jctc.8b01176
   for GFN1-xTB:
   * S. Grimme, C. Bannwarth, P. Shushkov, J. Chem. Theory Comput., 2017,
     13, 1989-2009. DOI: 10.1021/acs.jctc.7b00118
   for GFN0-xTB:
   * P. Pracht, E. Caldeweyher, S. Ehlert, S. Grimme, ChemRxiv, 2019, preprint.
     DOI: 10.26434/chemrxiv.8326202.v1
   for GFN-FF:
   * S. Spicher and S. Grimme, Angew. Chem. Int. Ed., 2020, 59, 15665-15673.
     DOI: 10.1002/anie.202004239
   
   for ALPB and GBSA implicit solvation:
   * S. Ehlert, M. Stahn, S. Spicher, S. Grimme, J. Chem. Theory Comput.,
     2021, 17, 4250-4261. DOI: 10.1021/acs.jctc.1c00471
   
   for ddCOSMO and CPCM-X implicit solvation:
   * M. Stahn, S. Ehlert, S. Grimme, J. Phys. Chem. A,
     2023, XX, XXXX-XXXX. DOI: 10.1021/acs.jpca.3c04382
   
   for DFT-D4:
   * E. Caldeweyher, C. Bannwarth and S. Grimme, J. Chem. Phys., 2017,
     147, 034112. DOI: 10.1063/1.4993215
   * E. Caldeweyher, S. Ehlert, A. Hansen, H. Neugebauer, S. Spicher,
     C. Bannwarth and S. Grimme, J. Chem. Phys., 2019, 150, 154122.
     DOI: 10.1063/1.5090222
   * E. Caldeweyher, J.-M. Mewes, S. Ehlert and S. Grimme, Phys. Chem. Chem. Phys.
     2020, 22, 8499-8512. DOI: 10.1039/D0CP00502A
   
   for sTDA-xTB:
   * S. Grimme and C. Bannwarth, J. Chem. Phys., 2016, 145, 054103.
     DOI: 10.1063/1.4959605
   
   in the mass-spec context:
   * V. Asgeirsson, C. Bauer and S. Grimme, Chem. Sci., 2017, 8, 4879.
     DOI: 10.1039/c7sc00601b
   * J. Koopman and S. Grimme, ACS Omega 2019, 4, 12, 15120-15133.
     DOI: 10.1021/acsomega.9b02011
   
   for metadynamics refer to:
   * S. Grimme, J. Chem. Theory Comput., 2019, 155, 2847-2862
     DOI: 10.1021/acs.jctc.9b00143
   
   for SPH calculations refer to:
   * S. Spicher and S. Grimme, J. Chem. Theory Comput., 2021, 17, 1701-1714
     DOI: 10.1021/acs.jctc.0c01306
   
   for ONIOM refer to:
   * C. Plett, A. Katbashev, S. Ehlert, S. Grimme, M. Bursch,
     Phys. Chem. Chem. Phys., 2023, 25, 17860-17868. DOI: 10.1039/D3CP02178E
   
   for DIPRO refer to:
   * J. Kohn, N. Gildemeister, S. Grimme, D. Fazzi, A. Hansen,
     J. Chem. Phys., 2023, just accepted.
   
   for PTB refer to:
   * S. Grimme, M. Mueller, A. Hansen, J. Chem. Phys., 2023, 158, 124111.
     DOI: 10.1063/5.0137838
   
   with help from (in alphabetical order)
   P. Atkinson, C. Bannwarth, F. Bohle, G. Brandenburg, E. Caldeweyher
   M. Checinski, S. Dohm, S. Ehlert, S. Ehrlich, I. Gerasimov, C. Hölzer
   A. Katbashev, J. Kohn, J. Koopman, C. Lavigne, S. Lehtola, F. März, M. Müller,
   F. Musil, H. Neugebauer, J. Pisarek, C. Plett, P. Pracht, F. Pultar,
   J. Seibert, P. Shushkov, S. Spicher, M. Stahn, M. Steiner, T. Strunk,
   J. Stückrath, T. Rose, and J. Unsleber
   
 * started run on 2026/07/08 at 03:12:50.746     
   ID    Z sym.   atoms
    1    6 C      1, 2, 4-6, 8-14
    2    7 N      3
    3    8 O      7
    4    1 H      15-31

           -------------------------------------------------
          |                Calculation Setup                |
           -------------------------------------------------

          program call               : /home/ws/xd2484/miniforge3/envs/p3z_dft/bin/xtb xtb_input.xyz --gfn 2 --opt tight --cycles 500 --chrg 0 --uhf 0
          hostname                   : gpu10
          coordinate file            : xtb_input.xyz
          omp threads                :                    16


           -------------------------------------------------
          |                 G F N 2 - x T B                 |
           -------------------------------------------------

        Reference                      10.1021/acs.jctc.8b01176
      * Hamiltonian:
        H0-scaling (s, p, d)           1.850000    2.230000    2.230000
        zeta-weighting                 0.500000
      * Dispersion:
        s8                             2.700000
        a1                             0.520000
        a2                             5.000000
        s9                             5.000000
      * Repulsion:
        kExp                           1.500000    1.000000
        rExp                           1.000000
      * Coulomb:
        alpha                          2.000000
        third order                    shell-resolved
        anisotropic                    true
        a3                             3.000000
        a5                             4.000000
        cn-shift                       1.200000
        cn-exp                         4.000000
        max-rad                        5.000000


          ...................................................
          :                      SETUP                      :
          :.................................................:
          :  # basis functions                  73          :
          :  # atomic orbitals                  73          :
          :  # shells                           45          :
          :  # electrons                        76          :
          :  max. iterations                   250          :
          :  Hamiltonian                  GFN2-xTB          :
          :  restarted?                      false          :
          :  GBSA solvation                  false          :
          :  PC potential                    false          :
          :  electronic temp.          300.0000000     K    :
          :  accuracy                    1.0000000          :
          :  -> integral cutoff          0.2500000E+02      :
          :  -> integral neglect         0.1000000E-07      :
          :  -> SCF convergence          0.1000000E-05 Eh   :
          :  -> wf. convergence          0.1000000E-03 e    :
          :  Broyden damping             0.4000000          :
          :  net charge                          0          :
          :  unpaired electrons                  0          :
          ...................................................

 iter      E             dE          RMSdq      gap      omega  full diag
   1    -41.8895690 -0.418896E+02  0.357E+00    3.68       0.0  T
   2    -41.9627572 -0.731882E-01  0.201E+00    3.62       1.0  T
   3    -41.9650774 -0.232022E-02  0.973E-01    3.84       1.0  T
   4    -41.9673508 -0.227342E-02  0.241E-01    3.81       1.0  T
   5    -41.9685835 -0.123268E-02  0.936E-02    3.83       1.0  T
   6    -41.9687601 -0.176616E-03  0.397E-02    3.83       1.0  T
   7    -41.9687648 -0.470760E-05  0.158E-02    3.83       1.1  T
   8    -41.9687668 -0.200198E-05  0.531E-03    3.83       3.4  T
   9    -41.9687670 -0.141667E-06  0.153E-03    3.83      11.7  T
  10    -41.9687670 -0.506657E-08  0.789E-04    3.83      22.7  T
  11    -41.9687670 -0.218098E-08  0.355E-04    3.83      50.6  T

   *** convergence criteria satisfied after 11 iterations ***

         #    Occupation            Energy/Eh            Energy/eV
      -------------------------------------------------------------
         1        2.0000           -0.6816208             -18.5478
       ...           ...                  ...                  ...
        32        2.0000           -0.4389314             -11.9439
        33        2.0000           -0.4352267             -11.8431
        34        2.0000           -0.4257009             -11.5839
        35        2.0000           -0.4032228             -10.9723
        36        2.0000           -0.3959719             -10.7749
        37        2.0000           -0.3831834             -10.4270
        38        2.0000           -0.3762666             -10.2387 (HOMO)
        39                         -0.2355259              -6.4090 (LUMO)
        40                         -0.2252086              -6.1282
        41                         -0.1985202              -5.4020
        42                         -0.1017944              -2.7700
        43                         -0.0246478              -0.6707
       ...                                ...                  ...
        73                          0.6287784              17.1099
      -------------------------------------------------------------
                  HL-Gap            0.1407408 Eh            3.8298 eV
             Fermi-level           -0.3058962 Eh           -8.3239 eV

 SCC (total)                   0 d,  0 h,  0 min,  0.246 sec
 SCC setup                      ...        0 min,  0.006 sec (  2.321%)
 Dispersion                     ...        0 min,  0.010 sec (  3.891%)
 classical contributions        ...        0 min,  0.006 sec (  2.539%)
 integral evaluation            ...        0 min,  0.019 sec (  7.781%)
 iterations                     ...        0 min,  0.175 sec ( 71.313%)
 molecular gradient             ...        0 min,  0.030 sec ( 12.059%)
 printout                       ...        0 min,  0.000 sec (  0.085%)

         :::::::::::::::::::::::::::::::::::::::::::::::::::::
         ::                     SUMMARY                     ::
         :::::::::::::::::::::::::::::::::::::::::::::::::::::
         :: total energy             -41.364376999639 Eh    ::
         :: gradient norm              0.054457135867 Eh/a0 ::
         :: HOMO-LUMO gap              3.829751301435 eV    ::
         ::.................................................::
         :: SCC energy               -41.968502242596 Eh    ::
         :: -> isotropic ES            0.040978666459 Eh    ::
         :: -> anisotropic ES          0.007101553246 Eh    ::
         :: -> anisotropic XC          0.021816209101 Eh    ::
         :: -> dispersion             -0.027637979215 Eh    ::
         :: repulsion energy           0.604125242957 Eh    ::
         :: add. restraining           0.000000000000 Eh    ::
         :: total charge              -0.000000000000 e     ::
         :::::::::::::::::::::::::::::::::::::::::::::::::::::

      ----------------------------------------------------------- 
     |                   =====================                   |
     |                        A N C O P T                        |
     |                   =====================                   |
     |               Approximate Normal Coordinate               |
     |                Rational Function Optimizer                |
      ----------------------------------------------------------- 
      ----------------------------------------------------------- 
     |                   =====================                   |
     |                        A N C O P T                        |
     |                   =====================                   |
     |               Approximate Normal Coordinate               |
     |                Rational Function Optimizer                |
      ----------------------------------------------------------- 

          ...................................................
          :                      SETUP                      :
          :.................................................:
          :   optimization level             tight          :
          :   max. optcycles                   500          :
          :   ANC micro-cycles                  20          :
          :   degrees of freedom                87          :
          :.................................................:
          :   RF solver                   davidson          :
          :   write xtbopt.log                true          :
          :   linear?                        false          :
          :   energy convergence         0.1000000E-05 Eh   :
          :   grad. convergence          0.8000000E-03 Eh/α :
          :   maxmium RF displ.          1.0000000          :
          :   Hlow (freq-cutoff)         0.1000000E-01      :
          :   Hmax (freq-cutoff)         5.0000000          :
          :   S6 in model hess.         20.0000000          :
          ...................................................

generating ANC from exact Hessian ...
Using Lindh-Hessian (1995)
 Shifting diagonal of input Hessian by    9.4383856365155838E-003
 Lowest  eigenvalues of input Hessian
    0.000000    0.000000    0.000000    0.000000    0.000000    0.000000
    0.010000    0.010351    0.010936    0.012054    0.013229    0.014789
    0.015659    0.015858    0.016697    0.018996    0.020467    0.021857
 Highest eigenvalues
    1.552537    1.742225    1.826838    1.927738    1.964309    2.204476


........................................................................
.............................. CYCLE    1 ..............................
........................................................................

 iter      E             dE          RMSdq      gap      omega  full diag
   1    -41.9687670 -0.419688E+02  0.864E-05    3.83       0.0  T
   2    -41.9687670 -0.627622E-10  0.533E-05    3.83     336.8  T
   3    -41.9687670 -0.472511E-10  0.324E-05    3.83     553.5  T
     SCC iter.                  ...        0 min,  0.038 sec
     gradient                   ...        0 min,  0.028 sec
 * total energy  :   -41.3643770 Eh     change       -0.2073037E-08 Eh
   gradient norm :     0.0544597 Eh/α   predicted     0.0000000E+00 (-100.00%)
   displ. norm   :     0.2394176 α      lambda       -0.7546533E-02
   maximum displ.:     0.1179501 α      in ANC's #31, #26, #52, ...

........................................................................
.............................. CYCLE    2 ..............................
........................................................................

 iter      E             dE          RMSdq      gap      omega  full diag
   1    -41.9990428 -0.419990E+02  0.175E-01    3.92       0.0  T
   2    -41.9991936 -0.150820E-03  0.111E-01    3.91       1.0  T
   3    -41.9992006 -0.702589E-05  0.525E-02    3.93       1.0  T
   4    -41.9992101 -0.946598E-05  0.129E-02    3.92       1.4  T
   5    -41.9992163 -0.620210E-05  0.297E-03    3.92       6.1  T
   6    -41.9992164 -0.871472E-07  0.155E-03    3.92      11.6  T
   7    -41.9992164 -0.802437E-08  0.560E-04    3.92      32.1  T
   8    -41.9992164 -0.252205E-08  0.202E-04    3.92      88.8  T
     SCC iter.                  ...        0 min,  0.083 sec
     gradient                   ...        0 min,  0.028 sec
 * total energy  :   -41.3692865 Eh     change       -0.4909448E-02 Eh
   gradient norm :     0.0187130 Eh/α   predicted    -0.3989598E-02 ( -18.74%)
   displ. norm   :     0.1637077 α      lambda       -0.1278109E-02
   maximum displ.:     0.0729022 α      in ANC's #11, #31, #8, ...

........................................................................
.............................. CYCLE    3 ..............................
........................................................................

 iter      E             dE          RMSdq      gap      omega  full diag
   1    -42.0099157 -0.420099E+02  0.901E-02    3.96       0.0  T
   2    -42.0099738 -0.581551E-04  0.565E-02    3.95       1.0  T
   3    -42.0099784 -0.453300E-05  0.288E-02    3.96       1.0  T
   4    -42.0099787 -0.372940E-06  0.672E-03    3.95       2.7  T
   5    -42.0099804 -0.169762E-05  0.142E-03    3.95      12.7  T
   6    -42.0099804 -0.246018E-07  0.742E-04    3.95      24.2  T
   7    -42.0099804 -0.182141E-08  0.275E-04    3.95      65.3  T
     SCC iter.                  ...        0 min,  0.078 sec
     gradient                   ...        0 min,  0.027 sec
 * total energy  :   -41.3699701 Eh     change       -0.6836406E-03 Eh
   gradient norm :     0.0035679 Eh/α   predicted    -0.6562393E-03 (  -4.01%)
   displ. norm   :     0.0641303 α      lambda       -0.8619877E-04
   maximum displ.:     0.0326113 α      in ANC's #11, #9, #3, ...

........................................................................
.............................. CYCLE    4 ..............................
........................................................................

 iter      E             dE          RMSdq      gap      omega  full diag
   1    -42.0096117 -0.420096E+02  0.316E-02    3.96       0.0  T
   2    -42.0096125 -0.796949E-06  0.186E-02    3.96       1.0  T
   3    -42.0096121  0.385930E-06  0.480E-03    3.96       3.7  T
   4    -42.0096126 -0.496742E-06  0.109E-03    3.96      16.5  T
   5    -42.0096127 -0.377147E-07  0.368E-04    3.96      48.9  T
   6    -42.0096127 -0.522384E-09  0.167E-04    3.96     107.6  T
     SCC iter.                  ...        0 min,  0.130 sec
     gradient                   ...        0 min,  0.042 sec
 * total energy  :   -41.3700358 Eh     change       -0.6567970E-04 Eh
   gradient norm :     0.0020588 Eh/α   predicted    -0.4327875E-04 ( -34.11%)
   displ. norm   :     0.1071039 α      lambda       -0.8615180E-04
   maximum displ.:     0.0607982 α      in ANC's #3, #11, #9, ...

........................................................................
.............................. CYCLE    5 ..............................
........................................................................

 iter      E             dE          RMSdq      gap      omega  full diag
   1    -42.0089387 -0.420089E+02  0.483E-02    3.97       0.0  T
   2    -42.0089393 -0.533971E-06  0.284E-02    3.97       1.0  T
   3    -42.0089382  0.107827E-05  0.661E-03    3.98       2.7  T
   4    -42.0089395 -0.134271E-05  0.104E-03    3.98      17.3  T
   5    -42.0089395 -0.699372E-08  0.560E-04    3.98      32.1  T
   6    -42.0089395 -0.127108E-08  0.227E-04    3.98      79.0  T
     SCC iter.                  ...        0 min,  0.090 sec
     gradient                   ...        0 min,  0.030 sec
 * total energy  :   -41.3700905 Eh     change       -0.5471599E-04 Eh
   gradient norm :     0.0020687 Eh/α   predicted    -0.4357069E-04 ( -20.37%)
   displ. norm   :     0.0748625 α      lambda       -0.3424716E-04
   maximum displ.:     0.0521166 α      in ANC's #3, #6, #13, ...

........................................................................
.............................. CYCLE    6 ..............................
........................................................................

 iter      E             dE          RMSdq      gap      omega  full diag
   1    -42.0088804 -0.420089E+02  0.318E-02    3.99       0.0  T
   2    -42.0088806 -0.227056E-06  0.187E-02    3.99       1.0  T
   3    -42.0088799  0.683495E-06  0.512E-03    3.99       3.5  T
   4    -42.0088808 -0.834913E-06  0.646E-04    3.99      27.8  T
   5    -42.0088808 -0.113279E-08  0.365E-04    3.99      49.3  T
     SCC iter.                  ...        0 min,  0.096 sec
     gradient                   ...        0 min,  0.036 sec
 * total energy  :   -41.3701195 Eh     change       -0.2904371E-04 Eh
   gradient norm :     0.0021912 Eh/α   predicted    -0.1722004E-04 ( -40.71%)
   displ. norm   :     0.1527593 α      lambda       -0.7109042E-04
   maximum displ.:     0.1056616 α      in ANC's #3, #13, #6, ...

........................................................................
.............................. CYCLE    7 ..............................
........................................................................

 iter      E             dE          RMSdq      gap      omega  full diag
   1    -42.0089465 -0.420089E+02  0.647E-02    4.01       0.0  T
   2    -42.0089474 -0.881758E-06  0.380E-02    4.01       1.0  T
   3    -42.0089444  0.292298E-05  0.103E-02    4.01       1.7  T
   4    -42.0089480 -0.354354E-05  0.124E-03    4.01      14.5  T
   5    -42.0089480 -0.350242E-08  0.710E-04    4.01      25.3  T
   6    -42.0089480 -0.435182E-08  0.213E-04    4.01      84.1  T
     SCC iter.                  ...        0 min,  0.074 sec
     gradient                   ...        0 min,  0.035 sec
 * total energy  :   -41.3701775 Eh     change       -0.5793533E-04 Eh
   gradient norm :     0.0020940 Eh/α   predicted    -0.3637496E-04 ( -37.21%)
   displ. norm   :     0.2210866 α      lambda       -0.8544850E-04
   maximum displ.:     0.1542008 α      in ANC's #3, #6, #13, ...

........................................................................
.............................. CYCLE    8 ..............................
........................................................................

 iter      E             dE          RMSdq      gap      omega  full diag
   1    -42.0088890 -0.420089E+02  0.908E-02    4.04       0.0  T
   2    -42.0088905 -0.153046E-05  0.534E-02    4.04       1.0  T
   3    -42.0088852  0.531177E-05  0.134E-02    4.04       1.3  T
   4    -42.0088916 -0.639902E-05  0.161E-03    4.04      11.1  T
   5    -42.0088916 -0.538617E-08  0.923E-04    4.04      19.5  T
   6    -42.0088916 -0.743092E-08  0.265E-04    4.04      67.9  T
     SCC iter.                  ...        0 min,  0.069 sec
     gradient                   ...        0 min,  0.035 sec
 * total energy  :   -41.3702429 Eh     change       -0.6547149E-04 Eh
   gradient norm :     0.0024469 Eh/α   predicted    -0.4481290E-04 ( -31.55%)
   displ. norm   :     0.2100399 α      lambda       -0.6879627E-04
   maximum displ.:     0.1479834 α      in ANC's #3, #6, #8, ...

........................................................................
.............................. CYCLE    9 ..............................
........................................................................

 iter      E             dE          RMSdq      gap      omega  full diag
   1    -42.0090865 -0.420091E+02  0.809E-02    4.06       0.0  T
   2    -42.0090877 -0.114485E-05  0.475E-02    4.06       1.0  T
   3    -42.0090838  0.390129E-05  0.112E-02    4.06       1.6  T
   4    -42.0090885 -0.467498E-05  0.134E-03    4.06      13.4  T
   5    -42.0090885 -0.585803E-08  0.780E-04    4.06      23.0  T
   6    -42.0090885 -0.428712E-08  0.240E-04    4.06      74.8  T
     SCC iter.                  ...        0 min,  0.066 sec
     gradient                   ...        0 min,  0.030 sec
 * total energy  :   -41.3702983 Eh     change       -0.5540685E-04 Eh
   gradient norm :     0.0020770 Eh/α   predicted    -0.3591575E-04 ( -35.18%)
   displ. norm   :     0.2316129 α      lambda       -0.7039616E-04
   maximum displ.:     0.1605537 α      in ANC's #3, #6, #5, ...

........................................................................
.............................. CYCLE   10 ..............................
........................................................................

 iter      E             dE          RMSdq      gap      omega  full diag
   1    -42.0093490 -0.420093E+02  0.822E-02    4.08       0.0  T
   2    -42.0093503 -0.125280E-05  0.482E-02    4.08       1.0  T
   3    -42.0093463  0.395361E-05  0.112E-02    4.09       1.6  T
   4    -42.0093511 -0.471817E-05  0.132E-03    4.09      13.6  T
   5    -42.0093511 -0.127093E-07  0.774E-04    4.09      23.2  T
   6    -42.0093511 -0.227271E-08  0.267E-04    4.09      67.3  T
     SCC iter.                  ...        0 min,  0.066 sec
     gradient                   ...        0 min,  0.030 sec
 * total energy  :   -41.3703578 Eh     change       -0.5942607E-04 Eh
   gradient norm :     0.0014583 Eh/α   predicted    -0.3708961E-04 ( -37.59%)
   displ. norm   :     0.4549140 α      lambda       -0.8483415E-04
   maximum displ.:     0.3077420 α      in ANC's #3, #5, #6, ...

........................................................................
.............................. CYCLE   11 ..............................
........................................................................

 iter      E             dE          RMSdq      gap      omega  full diag
   1    -42.0087645 -0.420088E+02  0.148E-01    4.12       0.0  T
   2    -42.0087678 -0.330720E-05  0.866E-02    4.12       1.0  T
   3    -42.0087562  0.115377E-04  0.187E-02    4.12       1.0  T
   4    -42.0087700 -0.137398E-04  0.221E-03    4.12       8.1  T
   5    -42.0087700 -0.169859E-07  0.129E-03    4.12      13.9  T
   6    -42.0087700 -0.100548E-07  0.431E-04    4.12      41.7  T
   7    -42.0087700 -0.127499E-08  0.167E-04    4.12     107.9  T
     SCC iter.                  ...        0 min,  0.079 sec
     gradient                   ...        0 min,  0.036 sec
 * total energy  :   -41.3704569 Eh     change       -0.9917102E-04 Eh
   gradient norm :     0.0016762 Eh/α   predicted    -0.4632205E-04 ( -53.29%)
   displ. norm   :     0.4250662 α      lambda       -0.7687472E-04
   maximum displ.:     0.2767799 α      in ANC's #3, #5, #1, ...

........................................................................
.............................. CYCLE   12 ..............................
........................................................................

 iter      E             dE          RMSdq      gap      omega  full diag
   1    -42.0093294 -0.420093E+02  0.123E-01    4.14       0.0  T
   2    -42.0093316 -0.226814E-05  0.720E-02    4.14       1.0  T
   3    -42.0093242  0.743824E-05  0.150E-02    4.14       1.2  T
   4    -42.0093331 -0.885461E-05  0.180E-03    4.14      10.0  T
   5    -42.0093331 -0.162169E-07  0.105E-03    4.14      17.1  T
   6    -42.0093331 -0.614167E-08  0.352E-04    4.14      51.0  T
   7    -42.0093331 -0.693120E-09  0.135E-04    4.14     133.2  T
     SCC iter.                  ...        0 min,  0.101 sec
     gradient                   ...        0 min,  0.043 sec
 * total energy  :   -41.3705442 Eh     change       -0.8729222E-04 Eh
   gradient norm :     0.0023016 Eh/α   predicted    -0.4152708E-04 ( -52.43%)
   displ. norm   :     0.3537764 α      lambda       -0.7140113E-04
   maximum displ.:     0.2298617 α      in ANC's #3, #5, #1, ...

........................................................................
.............................. CYCLE   13 ..............................
........................................................................

 iter      E             dE          RMSdq      gap      omega  full diag
   1    -42.0074330 -0.420074E+02  0.109E-01    4.16       0.0  T
   2    -42.0074361 -0.307375E-05  0.642E-02    4.15       1.0  T
   3    -42.0074295  0.662150E-05  0.147E-02    4.15       1.2  T
   4    -42.0074375 -0.799041E-05  0.214E-03    4.15       8.4  T
   5    -42.0074375 -0.663190E-07  0.115E-03    4.15      15.6  T
   6    -42.0074376 -0.564676E-08  0.447E-04    4.15      40.2  T
   7    -42.0074376 -0.124603E-08  0.179E-04    4.15     100.1  T
     SCC iter.                  ...        0 min,  0.130 sec
     gradient                   ...        0 min,  0.031 sec
 * total energy  :   -41.3705793 Eh     change       -0.3506280E-04 Eh
   gradient norm :     0.0058500 Eh/α   predicted    -0.4016893E-04 (  14.56%)
   displ. norm   :     0.2065977 α      lambda       -0.9013746E-04
   maximum displ.:     0.1104251 α      in ANC's #3, #1, #5, ...

........................................................................
.............................. CYCLE   14 ..............................
........................................................................

 iter      E             dE          RMSdq      gap      omega  full diag
   1    -42.0098012 -0.420098E+02  0.504E-02    4.15       0.0  T
   2    -42.0098023 -0.112898E-05  0.296E-02    4.15       1.0  T
   3    -42.0098011  0.119566E-05  0.716E-03    4.16       2.5  T
   4    -42.0098027 -0.150321E-05  0.117E-03    4.16      15.4  T
   5    -42.0098027 -0.225082E-07  0.565E-04    4.16      31.8  T
   6    -42.0098027 -0.250928E-08  0.226E-04    4.16      79.4  T
     SCC iter.                  ...        0 min,  0.072 sec
     gradient                   ...        0 min,  0.024 sec
 * total energy  :   -41.3706392 Eh     change       -0.5986856E-04 Eh
   gradient norm :     0.0015460 Eh/α   predicted    -0.4699495E-04 ( -21.50%)
   displ. norm   :     0.3029866 α      lambda       -0.3844455E-04
   maximum displ.:     0.1693139 α      in ANC's #3, #1, #5, ...

........................................................................
.............................. CYCLE   15 ..............................
........................................................................

 iter      E             dE          RMSdq      gap      omega  full diag
   1    -42.0101106 -0.420101E+02  0.825E-02    4.16       0.0  T
   2    -42.0101117 -0.110389E-05  0.484E-02    4.15       1.0  T
   3    -42.0101089  0.281382E-05  0.945E-03    4.16       1.9  T
   4    -42.0101122 -0.337387E-05  0.132E-03    4.16      13.6  T
   5    -42.0101123 -0.203825E-07  0.724E-04    4.16      24.8  T
   6    -42.0101123 -0.114965E-08  0.222E-04    4.16      80.9  T
     SCC iter.                  ...        0 min,  0.056 sec
     gradient                   ...        0 min,  0.030 sec
 * total energy  :   -41.3706831 Eh     change       -0.4390916E-04 Eh
   gradient norm :     0.0016287 Eh/α   predicted    -0.2000800E-04 ( -54.43%)
   displ. norm   :     0.1940239 α      lambda       -0.3311520E-04
   maximum displ.:     0.1238385 α      in ANC's #1, #3, #5, ...

........................................................................
.............................. CYCLE   16 ..............................
........................................................................

 iter      E             dE          RMSdq      gap      omega  full diag
   1    -42.0104575 -0.420105E+02  0.573E-02    4.15       0.0  T
   2    -42.0104580 -0.466626E-06  0.336E-02    4.15       1.0  T
   3    -42.0104562  0.181380E-05  0.710E-03    4.16       2.5  T
   4    -42.0104583 -0.213713E-05  0.795E-04    4.15      22.6  T
   5    -42.0104583 -0.292437E-08  0.456E-04    4.15      39.4  T
   6    -42.0104583 -0.974580E-09  0.125E-04    4.15     143.4  T
     SCC iter.                  ...        0 min,  0.066 sec
     gradient                   ...        0 min,  0.037 sec
 * total energy  :   -41.3707242 Eh     change       -0.4114115E-04 Eh
   gradient norm :     0.0012427 Eh/α   predicted    -0.1683799E-04 ( -59.07%)
   displ. norm   :     0.2054625 α      lambda       -0.4114274E-04
   maximum displ.:     0.1554735 α      in ANC's #1, #4, #2, ...

........................................................................
.............................. CYCLE   17 ..............................
........................................................................

 iter      E             dE          RMSdq      gap      omega  full diag
   1    -42.0107140 -0.420107E+02  0.602E-02    4.16       0.0  T
   2    -42.0107146 -0.569748E-06  0.355E-02    4.15       1.0  T
   3    -42.0107133  0.129590E-05  0.613E-03    4.16       2.9  T
   4    -42.0107148 -0.154996E-05  0.981E-04    4.15      18.3  T
   5    -42.0107149 -0.133362E-07  0.524E-04    4.15      34.3  T
   6    -42.0107149 -0.858357E-09  0.157E-04    4.15     114.5  T
     SCC iter.                  ...        0 min,  0.078 sec
     gradient                   ...        0 min,  0.041 sec
 * total energy  :   -41.3707684 Eh     change       -0.4422309E-04 Eh
   gradient norm :     0.0019481 Eh/α   predicted    -0.2096074E-04 ( -52.60%)
   displ. norm   :     0.1720887 α      lambda       -0.2758296E-04
   maximum displ.:     0.1258212 α      in ANC's #1, #3, #2, ...

........................................................................
.............................. CYCLE   18 ..............................
........................................................................

 iter      E             dE          RMSdq      gap      omega  full diag
   1    -42.0089858 -0.420090E+02  0.544E-02    4.15       0.0  T
   2    -42.0089872 -0.146242E-05  0.318E-02    4.15       1.0  T
   3    -42.0089859  0.126941E-05  0.748E-03    4.15       2.4  T
   4    -42.0089875 -0.155912E-05  0.142E-03    4.15      12.6  T
   5    -42.0089876 -0.684234E-07  0.505E-04    4.15      35.6  T
   6    -42.0089876 -0.631275E-09  0.205E-04    4.15      87.6  T
     SCC iter.                  ...        0 min,  0.123 sec
     gradient                   ...        0 min,  0.045 sec
 * total energy  :   -41.3707946 Eh     change       -0.2613349E-04 Eh
   gradient norm :     0.0018095 Eh/α   predicted    -0.1397380E-04 ( -46.53%)
   displ. norm   :     0.0984438 α      lambda       -0.2001808E-04
   maximum displ.:     0.0721670 α      in ANC's #1, #3, #5, ...

........................................................................
.............................. CYCLE   19 ..............................
........................................................................

 iter      E             dE          RMSdq      gap      omega  full diag
   1    -42.0107418 -0.420107E+02  0.237E-02    4.15       0.0  T
   2    -42.0107421 -0.244723E-06  0.140E-02    4.15       1.3  T
   3    -42.0107419  0.150171E-06  0.270E-03    4.15       6.7  T
   4    -42.0107421 -0.187782E-06  0.593E-04    4.15      30.3  T
   5    -42.0107421 -0.998229E-08  0.247E-04    4.15      72.6  T
     SCC iter.                  ...        0 min,  0.079 sec
     gradient                   ...        0 min,  0.043 sec
 * total energy  :   -41.3708123 Eh     change       -0.1768765E-04 Eh
   gradient norm :     0.0018420 Eh/α   predicted    -0.1005244E-04 ( -43.17%)
   displ. norm   :     0.0861514 α      lambda       -0.1758767E-04
   maximum displ.:     0.0710947 α      in ANC's #1, #2, #8, ...

........................................................................
.............................. CYCLE   20 ..............................
........................................................................

 iter      E             dE          RMSdq      gap      omega  full diag
   1    -42.0108732 -0.420109E+02  0.236E-02    4.15       0.0  T
   2    -42.0108734 -0.169396E-06  0.139E-02    4.16       1.3  T
   3    -42.0108732  0.129897E-06  0.231E-03    4.16       7.8  T
   4    -42.0108734 -0.164574E-06  0.612E-04    4.16      29.4  T
   5    -42.0108734 -0.899247E-08  0.272E-04    4.16      65.9  T
     SCC iter.                  ...        0 min,  0.054 sec
     gradient                   ...        0 min,  0.033 sec
 * total energy  :   -41.3708318 Eh     change       -0.1950723E-04 Eh
   gradient norm :     0.0017382 Eh/α   predicted    -0.8827653E-05 ( -54.75%)
   displ. norm   :     0.0863802 α      lambda       -0.1697208E-04
   maximum displ.:     0.0692115 α      in ANC's #1, #6, #8, ...
 * RMSD in coord.:     0.5665791 α      energy gain  -0.6454767E-02 Eh

generating ANC from exact Hessian ...
Using Lindh-Hessian (1995)
 Shifting diagonal of input Hessian by    9.3590527484189862E-003
 Lowest  eigenvalues of input Hessian
    0.000000    0.000000    0.000000    0.000000    0.000000    0.000000
    0.010000    0.010194    0.011046    0.012309    0.013260    0.015091
    0.016020    0.016251    0.017192    0.019432    0.020819    0.022455
 Highest eigenvalues
    1.597909    1.848981    1.891421    1.993478    2.037164    2.313041


........................................................................
.............................. CYCLE   21 ..............................
........................................................................

 iter      E             dE          RMSdq      gap      omega  full diag
   1    -42.0103967 -0.420104E+02  0.201E-02    4.16       0.0  T
   2    -42.0103970 -0.295200E-06  0.118E-02    4.15       1.5  T
   3    -42.0103969  0.448346E-07  0.244E-03    4.15       7.4  T
   4    -42.0103970 -0.768187E-07  0.463E-04    4.15      38.8  T
   5    -42.0103970 -0.348418E-08  0.223E-04    4.15      80.7  T
     SCC iter.                  ...        0 min,  0.064 sec
     gradient                   ...        0 min,  0.037 sec
 * total energy  :   -41.3708512 Eh     change       -0.1943355E-04 Eh
   gradient norm :     0.0012292 Eh/α   predicted     0.0000000E+00 (-100.00%)
   displ. norm   :     0.0321244 α      lambda       -0.8519630E-05
   maximum displ.:     0.0274271 α      in ANC's #1, #2, #11, ...

........................................................................
.............................. CYCLE   22 ..............................
........................................................................

 iter      E             dE          RMSdq      gap      omega  full diag
   1    -42.0103047 -0.420103E+02  0.107E-02    4.15       0.0  T
   2    -42.0103047 -0.330969E-07  0.624E-03    4.15       2.9  T
   3    -42.0103047  0.124489E-07  0.956E-04    4.15      18.8  T
   4    -42.0103047 -0.185858E-07  0.190E-04    4.15      94.4  T
     SCC iter.                  ...        0 min,  0.057 sec
     gradient                   ...        0 min,  0.039 sec
 * total energy  :   -41.3708601 Eh     change       -0.8866982E-05 Eh
   gradient norm :     0.0004732 Eh/α   predicted    -0.4266199E-05 ( -51.89%)
   displ. norm   :     0.0460152 α      lambda       -0.6790056E-05
   maximum displ.:     0.0393013 α      in ANC's #1, #2, #11, ...

........................................................................
.............................. CYCLE   23 ..............................
........................................................................

 iter      E             dE          RMSdq      gap      omega  full diag
   1    -42.0102461 -0.420102E+02  0.109E-02    4.15       0.0  T
   2    -42.0102461 -0.275346E-07  0.633E-03    4.15       2.8  T
   3    -42.0102461  0.520275E-08  0.740E-04    4.15      24.3  T
   4    -42.0102461 -0.103474E-07  0.171E-04    4.15     105.0  T
     SCC iter.                  ...        0 min,  0.046 sec
     gradient                   ...        0 min,  0.036 sec
 * total energy  :   -41.3708690 Eh     change       -0.8946842E-05 Eh
   gradient norm :     0.0007966 Eh/α   predicted    -0.3491722E-05 ( -60.97%)
   displ. norm   :     0.0542414 α      lambda       -0.6953823E-05
   maximum displ.:     0.0446267 α      in ANC's #1, #2, #9, ...

........................................................................
.............................. CYCLE   24 ..............................
........................................................................

 iter      E             dE          RMSdq      gap      omega  full diag
   1    -42.0102573 -0.420103E+02  0.118E-02    4.15       0.0  T
   2    -42.0102573 -0.114847E-07  0.696E-03    4.15       2.6  T
   3    -42.0102573  0.127104E-08  0.445E-04    4.15      40.4  T
   4    -42.0102573 -0.474918E-08  0.182E-04    4.15      98.7  T
     SCC iter.                  ...        0 min,  0.044 sec
     gradient                   ...        0 min,  0.038 sec
 * total energy  :   -41.3708781 Eh     change       -0.9100924E-05 Eh
   gradient norm :     0.0005854 Eh/α   predicted    -0.3485666E-05 ( -61.70%)
   displ. norm   :     0.0578916 α      lambda       -0.6174111E-05
   maximum displ.:     0.0472362 α      in ANC's #1, #2, #9, ...

........................................................................
.............................. CYCLE   25 ..............................
........................................................................

 iter      E             dE          RMSdq      gap      omega  full diag
   1    -42.0102725 -0.420103E+02  0.121E-02    4.15       0.0  T
   2    -42.0102726 -0.866232E-08  0.714E-03    4.15       2.5  T
   3    -42.0102725  0.101416E-07  0.605E-04    4.15      29.7  T
   4    -42.0102726 -0.145725E-07  0.184E-04    4.15      97.9  T
     SCC iter.                  ...        0 min,  0.060 sec
     gradient                   ...        0 min,  0.043 sec
 * total energy  :   -41.3708862 Eh     change       -0.8057106E-05 Eh
   gradient norm :     0.0003307 Eh/α   predicted    -0.3092450E-05 ( -61.62%)
   displ. norm   :     0.0543704 α      lambda       -0.4915735E-05
   maximum displ.:     0.0445563 α      in ANC's #1, #2, #9, ...

........................................................................
.............................. CYCLE   26 ..............................
........................................................................

 iter      E             dE          RMSdq      gap      omega  full diag
   1    -42.0102931 -0.420103E+02  0.126E-02    4.15       0.0  T
   2    -42.0102931 -0.127247E-07  0.744E-03    4.15       2.4  T
   3    -42.0102931  0.274332E-07  0.881E-04    4.15      20.4  T
   4    -42.0102932 -0.335555E-07  0.174E-04    4.15     103.1  T
     SCC iter.                  ...        0 min,  0.057 sec
     gradient                   ...        0 min,  0.036 sec
 * total energy  :   -41.3708927 Eh     change       -0.6517902E-05 Eh
   gradient norm :     0.0002382 Eh/α   predicted    -0.2462719E-05 ( -62.22%)
   displ. norm   :     0.0490605 α      lambda       -0.4005351E-05
   maximum displ.:     0.0404766 α      in ANC's #1, #2, #5, ...

........................................................................
.............................. CYCLE   27 ..............................
........................................................................

 iter      E             dE          RMSdq      gap      omega  full diag
   1    -42.0103269 -0.420103E+02  0.125E-02    4.15       0.0  T
   2    -42.0103269 -0.131964E-07  0.737E-03    4.15       2.4  T
   3    -42.0103268  0.310128E-07  0.934E-04    4.15      19.2  T
   4    -42.0103269 -0.375655E-07  0.167E-04    4.15     107.5  T
     SCC iter.                  ...        0 min,  0.047 sec
     gradient                   ...        0 min,  0.030 sec
 * total energy  :   -41.3708981 Eh     change       -0.5447684E-05 Eh
   gradient norm :     0.0002407 Eh/α   predicted    -0.2005901E-05 ( -63.18%)
   displ. norm   :     0.0458224 α      lambda       -0.3586003E-05
   maximum displ.:     0.0377419 α      in ANC's #1, #2, #5, ...

........................................................................
.............................. CYCLE   28 ..............................
........................................................................

 iter      E             dE          RMSdq      gap      omega  full diag
   1    -42.0103474 -0.420103E+02  0.126E-02    4.15       0.0  T
   2    -42.0103474 -0.153282E-07  0.742E-03    4.15       2.4  T
   3    -42.0103474  0.455422E-07  0.111E-03    4.15      16.2  T
   4    -42.0103474 -0.540468E-07  0.157E-04    4.15     114.5  T
   5    -42.0103474 -0.213660E-09  0.835E-05    4.15     215.2  T
     SCC iter.                  ...        0 min,  0.056 sec
     gradient                   ...        0 min,  0.034 sec
 * total energy  :   -41.3709031 Eh     change       -0.4990734E-05 Eh
   gradient norm :     0.0002344 Eh/α   predicted    -0.1796006E-05 ( -64.01%)
   displ. norm   :     0.0487307 α      lambda       -0.3720505E-05
   maximum displ.:     0.0392152 α      in ANC's #1, #2, #5, ...

........................................................................
.............................. CYCLE   29 ..............................
........................................................................

 iter      E             dE          RMSdq      gap      omega  full diag
   1    -42.0103613 -0.420104E+02  0.139E-02    4.15       0.0  T
   2    -42.0103613 -0.176880E-07  0.819E-03    4.15       2.2  T
   3    -42.0103613  0.473239E-07  0.115E-03    4.15      15.7  T
   4    -42.0103613 -0.567880E-07  0.177E-04    4.15     101.4  T
   5    -42.0103613 -0.237115E-09  0.932E-05    4.15     192.7  T
     SCC iter.                  ...        0 min,  0.064 sec
     gradient                   ...        0 min,  0.034 sec
 * total energy  :   -41.3709084 Eh     change       -0.5232131E-05 Eh
   gradient norm :     0.0002172 Eh/α   predicted    -0.1863241E-05 ( -64.39%)
   displ. norm   :     0.0577483 α      lambda       -0.4247117E-05
   maximum displ.:     0.0450692 α      in ANC's #1, #2, #4, ...

........................................................................
.............................. CYCLE   30 ..............................
........................................................................

 iter      E             dE          RMSdq      gap      omega  full diag
   1    -42.0103652 -0.420104E+02  0.163E-02    4.15       0.0  T
   2    -42.0103652 -0.227087E-07  0.956E-03    4.15       1.9  T
   3    -42.0103651  0.647306E-07  0.135E-03    4.15      13.3  T
   4    -42.0103652 -0.777679E-07  0.201E-04    4.15      89.4  T
   5    -42.0103652 -0.158771E-09  0.102E-04    4.15     176.5  T
     SCC iter.                  ...        0 min,  0.048 sec
     gradient                   ...        0 min,  0.032 sec
 * total energy  :   -41.3709143 Eh     change       -0.5930202E-05 Eh
   gradient norm :     0.0002015 Eh/α   predicted    -0.2128471E-05 ( -64.11%)
   displ. norm   :     0.0704527 α      lambda       -0.4792669E-05
   maximum displ.:     0.0536008 α      in ANC's #1, #2, #3, ...

........................................................................
.............................. CYCLE   31 ..............................
........................................................................

 iter      E             dE          RMSdq      gap      omega  full diag
   1    -42.0103477 -0.420103E+02  0.197E-02    4.15       0.0  T
   2    -42.0103477 -0.314548E-07  0.116E-02    4.15       1.5  T
   3    -42.0103476  0.832973E-07  0.153E-03    4.15      11.7  T
   4    -42.0103477 -0.100584E-06  0.243E-04    4.15      73.9  T
   5    -42.0103477 -0.291919E-09  0.124E-04    4.15     145.4  T
     SCC iter.                  ...        0 min,  0.054 sec
     gradient                   ...        0 min,  0.029 sec
 * total energy  :   -41.3709209 Eh     change       -0.6560556E-05 Eh
   gradient norm :     0.0001875 Eh/α   predicted    -0.2403941E-05 ( -63.36%)
   displ. norm   :     0.0794689 α      lambda       -0.4756731E-05
   maximum displ.:     0.0596742 α      in ANC's #1, #2, #3, ...

........................................................................
.............................. CYCLE   32 ..............................
........................................................................

 iter      E             dE          RMSdq      gap      omega  full diag
   1    -42.0103370 -0.420103E+02  0.217E-02    4.15       0.0  T
   2    -42.0103371 -0.354892E-07  0.128E-02    4.15       1.4  T
   3    -42.0103370  0.960757E-07  0.166E-03    4.15      10.8  T
   4    -42.0103371 -0.116368E-06  0.259E-04    4.15      69.4  T
   5    -42.0103371 -0.194760E-09  0.127E-04    4.15     141.1  T
     SCC iter.                  ...        0 min,  0.059 sec
     gradient                   ...        0 min,  0.023 sec
 * total energy  :   -41.3709272 Eh     change       -0.6383899E-05 Eh
   gradient norm :     0.0001561 Eh/α   predicted    -0.2386826E-05 ( -62.61%)
   displ. norm   :     0.0782635 α      lambda       -0.4005866E-05
   maximum displ.:     0.0585854 α      in ANC's #1, #2, #3, ...

........................................................................
.............................. CYCLE   33 ..............................
........................................................................

 iter      E             dE          RMSdq      gap      omega  full diag
   1    -42.0103235 -0.420103E+02  0.213E-02    4.14       0.0  T
   2    -42.0103235 -0.338195E-07  0.125E-02    4.14       1.4  T
   3    -42.0103234  0.939186E-07  0.163E-03    4.14      11.0  T
   4    -42.0103235 -0.113435E-06  0.251E-04    4.14      71.6  T
   5    -42.0103235 -0.233271E-09  0.128E-04    4.14     140.7  T
     SCC iter.                  ...        0 min,  0.043 sec
     gradient                   ...        0 min,  0.021 sec
 * total energy  :   -41.3709326 Eh     change       -0.5350447E-05 Eh
   gradient norm :     0.0001446 Eh/α   predicted    -0.2009066E-05 ( -62.45%)
   displ. norm   :     0.0701837 α      lambda       -0.3146560E-05
   maximum displ.:     0.0525553 α      in ANC's #1, #2, #3, ...

........................................................................
.............................. CYCLE   34 ..............................
........................................................................

 iter      E             dE          RMSdq      gap      omega  full diag
   1    -42.0103266 -0.420103E+02  0.189E-02    4.14       0.0  T
   2    -42.0103266 -0.266601E-07  0.111E-02    4.14       1.6  T
   3    -42.0103266  0.763909E-07  0.147E-03    4.14      12.2  T
   4    -42.0103267 -0.920592E-07  0.217E-04    4.14      82.7  T
   5    -42.0103267 -0.163048E-09  0.112E-04    4.14     159.9  T
     SCC iter.                  ...        0 min,  0.043 sec
     gradient                   ...        0 min,  0.021 sec
 * total energy  :   -41.3709368 Eh     change       -0.4247085E-05 Eh
   gradient norm :     0.0001342 Eh/α   predicted    -0.1577360E-05 ( -62.86%)
   displ. norm   :     0.0649148 α      lambda       -0.2690065E-05
   maximum displ.:     0.0485616 α      in ANC's #1, #2, #3, ...

........................................................................
.............................. CYCLE   35 ..............................
........................................................................

 iter      E             dE          RMSdq      gap      omega  full diag
   1    -42.0103323 -0.420103E+02  0.175E-02    4.14       0.0  T
   2    -42.0103323 -0.248673E-07  0.103E-02    4.14       1.7  T
   3    -42.0103322  0.756415E-07  0.146E-03    4.14      12.3  T
   4    -42.0103323 -0.907267E-07  0.207E-04    4.14      86.7  T
   5    -42.0103323 -0.148241E-09  0.109E-04    4.14     164.2  T
     SCC iter.                  ...        0 min,  0.043 sec
     gradient                   ...        0 min,  0.022 sec
 * total energy  :   -41.3709405 Eh     change       -0.3679074E-05 Eh
   gradient norm :     0.0001299 Eh/α   predicted    -0.1348058E-05 ( -63.36%)
   displ. norm   :     0.0668853 α      lambda       -0.2650097E-05
   maximum displ.:     0.0499343 α      in ANC's #1, #2, #3, ...

........................................................................
.............................. CYCLE   36 ..............................
........................................................................

 iter      E             dE          RMSdq      gap      omega  full diag
   1    -42.0103275 -0.420103E+02  0.180E-02    4.14       0.0  T
   2    -42.0103276 -0.292769E-07  0.106E-02    4.14       1.7  T
   3    -42.0103275  0.902300E-07  0.160E-03    4.14      11.3  T
   4    -42.0103276 -0.107837E-06  0.220E-04    4.14      81.8  T
   5    -42.0103276 -0.212999E-09  0.119E-04    4.14     151.3  T
     SCC iter.                  ...        0 min,  0.043 sec
     gradient                   ...        0 min,  0.022 sec
 * total energy  :   -41.3709441 Eh     change       -0.3616786E-05 Eh
   gradient norm :     0.0001287 Eh/α   predicted    -0.1327934E-05 ( -63.28%)
   displ. norm   :     0.0752986 α      lambda       -0.2782749E-05
   maximum displ.:     0.0560753 α      in ANC's #1, #2, #3, ...

........................................................................
.............................. CYCLE   37 ..............................
........................................................................

 iter      E             dE          RMSdq      gap      omega  full diag
   1    -42.0103175 -0.420103E+02  0.207E-02    4.14       0.0  T
   2    -42.0103176 -0.414857E-07  0.121E-02    4.14       1.5  T
   3    -42.0103174  0.132049E-06  0.193E-03    4.14       9.3  T
   4    -42.0103176 -0.157599E-06  0.260E-04    4.14      69.0  T
   5    -42.0103176 -0.262560E-09  0.142E-04    4.14     126.6  T
     SCC iter.                  ...        0 min,  0.043 sec
     gradient                   ...        0 min,  0.022 sec
 * total energy  :   -41.3709478 Eh     change       -0.3710193E-05 Eh
   gradient norm :     0.0001330 Eh/α   predicted    -0.1395113E-05 ( -62.40%)
   displ. norm   :     0.0825253 α      lambda       -0.2675567E-05
   maximum displ.:     0.0616926 α      in ANC's #1, #2, #3, ...

........................................................................
.............................. CYCLE   38 ..............................
........................................................................

 iter      E             dE          RMSdq      gap      omega  full diag
   1    -42.0103072 -0.420103E+02  0.230E-02    4.13       0.0  T
   2    -42.0103073 -0.561779E-07  0.135E-02    4.13       1.3  T
   3    -42.0103071  0.178782E-06  0.225E-03    4.13       8.0  T
   4    -42.0103073 -0.213162E-06  0.301E-04    4.13      59.7  T
   5    -42.0103073 -0.381462E-09  0.166E-04    4.13     108.4  T
     SCC iter.                  ...        0 min,  0.042 sec
     gradient                   ...        0 min,  0.022 sec
 * total energy  :   -41.3709513 Eh     change       -0.3433974E-05 Eh
   gradient norm :     0.0001273 Eh/α   predicted    -0.1342162E-05 ( -60.92%)
   displ. norm   :     0.0790524 α      lambda       -0.2080526E-05
   maximum displ.:     0.0594788 α      in ANC's #1, #2, #3, ...

........................................................................
.............................. CYCLE   39 ..............................
........................................................................

 iter      E             dE          RMSdq      gap      omega  full diag
   1    -42.0102958 -0.420103E+02  0.226E-02    4.13       0.0  T
   2    -42.0102958 -0.568212E-07  0.133E-02    4.13       1.4  T
   3    -42.0102956  0.184191E-06  0.228E-03    4.13       7.9  T
   4    -42.0102959 -0.219571E-06  0.301E-04    4.13      59.7  T
   5    -42.0102959 -0.343995E-09  0.167E-04    4.13     107.8  T
     SCC iter.                  ...        0 min,  0.042 sec
     gradient                   ...        0 min,  0.022 sec
 * total energy  :   -41.3709539 Eh     change       -0.2578146E-05 Eh
   gradient norm :     0.0001355 Eh/α   predicted    -0.1043647E-05 ( -59.52%)
   displ. norm   :     0.0634353 α      lambda       -0.1323322E-05
   maximum displ.:     0.0483129 α      in ANC's #1, #2, #3, ...

........................................................................
.............................. CYCLE   40 ..............................
........................................................................

 iter      E             dE          RMSdq      gap      omega  full diag
   1    -42.0103184 -0.420103E+02  0.185E-02    4.13       0.0  T
   2    -42.0103185 -0.412669E-07  0.109E-02    4.13       1.7  T
   3    -42.0103184  0.129275E-06  0.193E-03    4.13       9.3  T
   4    -42.0103185 -0.154642E-06  0.260E-04    4.13      69.0  T
   5    -42.0103185 -0.227907E-09  0.144E-04    4.13     124.6  T
     SCC iter.                  ...        0 min,  0.050 sec
     gradient                   ...        0 min,  0.022 sec
 * total energy  :   -41.3709555 Eh     change       -0.1617473E-05 Eh
   gradient norm :     0.0001122 Eh/α   predicted    -0.6642408E-06 ( -58.93%)
   displ. norm   :     0.0463480 α      lambda       -0.8106102E-06
   maximum displ.:     0.0356620 α      in ANC's #1, #5, #3, ...

........................................................................
.............................. CYCLE   41 ..............................
........................................................................

 iter      E             dE          RMSdq      gap      omega  full diag
   1    -42.0103196 -0.420103E+02  0.140E-02    4.13       0.0  T
   2    -42.0103197 -0.252603E-07  0.825E-03    4.13       2.2  T
   3    -42.0103196  0.802385E-07  0.151E-03    4.13      11.9  T
   4    -42.0103197 -0.959734E-07  0.203E-04    4.13      88.5  T
   5    -42.0103197 -0.133177E-09  0.111E-04    4.13     161.7  T
     SCC iter.                  ...        0 min,  0.043 sec
     gradient                   ...        0 min,  0.022 sec
 * total energy  :   -41.3709565 Eh     change       -0.1003233E-05 Eh
   gradient norm :     0.0001026 Eh/α   predicted    -0.4088412E-06 ( -59.25%)
   displ. norm   :     0.0347956 α      lambda       -0.5645032E-06
   maximum displ.:     0.0267779 α      in ANC's #1, #5, #6, ...

........................................................................
.............................. CYCLE   42 ..............................
........................................................................

 iter      E             dE          RMSdq      gap      omega  full diag
   1    -42.0103288 -0.420103E+02  0.105E-02    4.12       0.0  T
   2    -42.0103288 -0.155935E-07  0.619E-03    4.12       2.9  T
   3    -42.0103288  0.418977E-07  0.112E-03    4.12      16.0  T
   4    -42.0103288 -0.509640E-07  0.171E-04    4.12     105.3  T
   5    -42.0103288 -0.782734E-10  0.913E-05    4.12     196.8  T
     SCC iter.                  ...        0 min,  0.043 sec
     gradient                   ...        0 min,  0.022 sec
 * total energy  :   -41.3709572 Eh     change       -0.6957868E-06 Eh
   gradient norm :     0.0000839 Eh/α   predicted    -0.2846952E-06 ( -59.08%)
   displ. norm   :     0.0270885 α      lambda       -0.4094397E-06
   maximum displ.:     0.0204179 α      in ANC's #1, #4, #5, ...

   *** GEOMETRY OPTIMIZATION CONVERGED AFTER 42 ITERATIONS ***

------------------------------------------------------------------------
 total energy gain   :        -0.0065802 Eh       -4.1291 kcal/mol
 total RMSD          :         0.7309299 a0        0.3868 Å
 total power (kW/mol):        -0.4113387 (step)   -3.2719 (real)
------------------------------------------------------------------------

 ANCopt (total)                0 d,  0 h,  0 min,  5.280 sec
 optimizer setup                ...        0 min,  0.001 sec (  0.014%)
 model hessian                  ...        0 min,  0.032 sec (  0.611%)
 ANC generation                 ...        0 min,  0.003 sec (  0.053%)
 coordinate transformation      ...        0 min,  0.001 sec (  0.011%)
 single point calculation       ...        0 min,  5.089 sec ( 96.371%)
 optimization log               ...        0 min,  0.006 sec (  0.117%)
 hessian update                 ...        0 min,  0.137 sec (  2.603%)
 rational function              ...        0 min,  0.004 sec (  0.079%)

================
 final structure:
================
31
 xtb: 6.7.1 (edcfbbe)
C           -1.30997555123591        1.95800856368707        0.65131166592958
C           -1.62940500044973        0.46600178277814        0.74349772311422
N           -1.57481484383233       -0.18284051563714       -0.54841911143965
C           -2.79399166067591       -0.21510508048070       -1.33493519729861
C           -3.66944457682312       -1.41000700202229       -0.96772709769713
C           -0.43929447335142       -0.68198431037087       -1.09222365945325
O           -0.40090843799782       -1.15486246288822       -2.21358820610681
C            0.78505373386052       -0.62931770371683       -0.22786546328429
C            0.99710204578348       -1.59397915071055        0.75030551060637
C            2.16004350819323       -1.56677596192573        1.49823986406385
C            3.11072631435451       -0.58589394317401        1.27416251288766
C            2.91969658954155        0.37503963613197        0.29022926215594
C            3.95967738206678        1.41877837227914        0.01781667158886
C            1.75048731338228        0.33871667470131       -0.45981127046120
H           -1.98128142598929        2.45263352484917       -0.04672658511383
H           -1.41978809816473        2.42223257227434        1.62779317143986
H           -0.28793146444146        2.10114073575736        0.31038376723032
H           -2.63584373092123        0.32841151864867        1.14704514887850
H           -0.92144880177124       -0.01386886712105        1.42255014501893
H           -2.49871404335259       -0.29055487394437       -2.38410390905769
H           -3.33910936650863        0.72020728707736       -1.18255270915549
H           -3.12764997493262       -2.33301421103582       -1.15657252012128
H           -3.95193764655688       -1.37983158901431        0.08280392173232
H           -4.57357789030218       -1.40671293851184       -1.57041277492912
H            0.25591451929197       -2.36238830417002        0.91732685610879
H            2.32725880552687       -2.31437581742132        2.25993683547227
H            4.01537665307302       -0.57121014078386        1.86520372479462
H            4.56036457358021        1.12637665356389       -0.84376754012849
H            4.62412030807975        1.53887317906050        0.87009390923606
H            3.49732535509657        2.37733675674921       -0.20875933332597
H            1.59196988547568        1.06896561536731       -1.24123916254096

 Bond Distances (Angstroems)
 ---------------------------
C1-C2=1.5286         C1-H15=1.0875        C1-H16=1.0868        C1-H17=1.0869        C2-C1=1.5286         C2-N3=1.4467         
C2-H18=1.0930        C2-H19=1.0921        N3-C2=1.4467         N3-C4=1.4512         N3-C6=1.3544         C4-N3=1.4512         
C4-C5=1.5261         C4-H20=1.0925        C4-H21=1.0932        C5-C4=1.5261         C5-H22=1.0868        C5-H23=1.0883        
C5-H24=1.0866        C6-N3=1.3544         C6-O7=1.2176         C6-C8=1.4996         O7-C6=1.2176         C8-C6=1.4996         
C8-C9=1.3901         C8-C14=1.3867        C9-C8=1.3901         C9-C10=1.3830        C9-H25=1.0806        C10-C9=1.3830        
C10-C11=1.3842       C10-H26=1.0803       C11-C10=1.3842       C11-C12=1.3885       C11-H27=1.0807       C12-C11=1.3885       
C12-C13=1.4984       C12-C14=1.3896       C13-C12=1.4984       C13-H28=1.0903       C13-H29=1.0873       C13-H30=1.0881       
C14-C8=1.3867        C14-C12=1.3896       C14-H31=1.0812       H15-C1=1.0875        H16-C1=1.0868        H17-C1=1.0869        
H18-C2=1.0930        H19-C2=1.0921        H20-C4=1.0925        H21-C4=1.0932        H22-C5=1.0868        H23-C5=1.0883        
H24-C5=1.0866        H25-C9=1.0806        H26-C10=1.0803       H27-C11=1.0807       H28-C13=1.0903       H29-C13=1.0873       
H30-C13=1.0881       H31-C14=1.0812       
 C  H  Rav=1.0872 sigma=0.0042  Rmin=1.0803  Rmax=1.0932    17
 C  C  Rav=1.4375 sigma=0.0625  Rmin=1.3830  Rmax=1.5286    10
 N  C  Rav=1.4174 sigma=0.0446  Rmin=1.3544  Rmax=1.4512     3
 O  C  Rav=1.2176 sigma=0.0000  Rmin=1.2176  Rmax=1.2176     1

 selected bond angles (degree)
 --------------------
H15-C1-C2=110.71               H16-C1-C2=109.98               H16-C1-H15=108.67              H17-C1-C2=110.12               
H17-C1-H15=108.62              H17-C1-H16=108.70              N3-C2-C1=112.09                H18-C2-C1=109.73               
H18-C2-N3=107.94               H19-C2-C1=109.33               H19-C2-N3=109.50               H19-C2-H18=108.18              
C4-N3-C2=117.53                C6-N3-C2=123.74                C6-N3-C4=118.59                C5-C4-N3=111.65                
H20-C4-N3=107.15               H20-C4-C5=109.39               H21-C4-N3=108.93               H21-C4-C5=110.50               
H21-C4-H20=109.13              H22-C5-C4=109.70               H23-C5-C4=111.07               H23-C5-H22=108.70              
H24-C5-C4=109.97               H24-C5-H22=108.72              H24-C5-H23=108.62              O7-C6-N3=122.64                
C8-C6-N3=116.11                C8-C6-O7=121.25                C9-C8-C6=120.38                C14-C8-C6=119.77               
C14-C8-C9=119.73               C10-C9-C8=119.68               H25-C9-C8=119.84               H25-C9-C10=120.48              
C11-C10-C9=120.26              H26-C10-C9=119.86              H26-C10-C11=119.88             

 selected dihedral angles (degree)
 ---------------------------------
N3-C2-C1-H15= 56.46           N3-C2-C1-H16=176.56           N3-C2-C1-H17=296.33           H18-C2-C1-H15=296.55          
H18-C2-C1-H16= 56.65          H18-C2-C1-H17=176.42          H19-C2-C1-H15=178.06          H19-C2-C1-H16=298.16          
H19-C2-C1-H17= 57.93          C4-N3-C2-C1=270.64            C4-N3-C2-H18= 31.59           C4-N3-C2-H19=149.14           
C6-N3-C2-C1= 86.39            C6-N3-C2-H18=207.33           C6-N3-C2-H19=324.88           C5-C4-N3-C2=273.89            
C5-C4-N3-C6= 97.92            H20-C4-N3-C2=154.13           H20-C4-N3-C6=338.16           H21-C4-N3-C2= 36.20           
H21-C4-N3-C6=220.23           H22-C5-C4-N3=299.44           H22-C5-C4-H20= 57.88          H22-C5-C4-H21=178.05          
H23-C5-C4-N3= 59.64           H23-C5-C4-H20=178.08          H23-C5-C4-H21=298.24          H24-C5-C4-N3=179.91           
H24-C5-C4-H20=298.35          H24-C5-C4-H21= 58.51          O7-C6-N3-C2=184.37            O7-C6-N3-C4=  0.07            
C8-C6-N3-C2=  4.71            C8-C6-N3-C4=180.41            C9-C8-C6-N3= 80.98            C9-C8-C6-O7=261.31            
C14-C8-C6-N3=257.02           C14-C8-C6-O7= 77.36           C10-C9-C8-C6=177.07           C10-C9-C8-C14=  1.03          
H25-C9-C8-C6=357.42           H25-C9-C8-C14=181.37          C11-C10-C9-C8=359.90          C11-C10-C9-H25=179.55         
H26-C10-C9-C8=179.93          H26-C10-C9-H25=359.58         
           -------------------------------------------------
          |                Final Singlepoint                |
           -------------------------------------------------

          ...................................................
          :                      SETUP                      :
          :.................................................:
          :  # basis functions                  73          :
          :  # atomic orbitals                  73          :
          :  # shells                           45          :
          :  # electrons                        76          :
          :  max. iterations                   250          :
          :  Hamiltonian                  GFN2-xTB          :
          :  restarted?                      false          :
          :  GBSA solvation                  false          :
          :  PC potential                    false          :
          :  electronic temp.          300.0000000     K    :
          :  accuracy                    1.0000000          :
          :  -> integral cutoff          0.2500000E+02      :
          :  -> integral neglect         0.1000000E-07      :
          :  -> SCF convergence          0.1000000E-05 Eh   :
          :  -> wf. convergence          0.1000000E-03 e    :
          :  Broyden damping             0.4000000          :
          :  net charge                          0          :
          :  unpaired electrons                  0          :
          ...................................................

 iter      E             dE          RMSdq      gap      omega  full diag
   1    -42.0103288 -0.420103E+02  0.298E-05    4.12       0.0  T
   2    -42.0103288 -0.540012E-11  0.190E-05    4.12     945.2  T
   3    -42.0103288 -0.239453E-11  0.123E-05    4.12    1458.6  T

   *** convergence criteria satisfied after 3 iterations ***

         #    Occupation            Energy/Eh            Energy/eV
      -------------------------------------------------------------
         1        2.0000           -0.6851520             -18.6439
       ...           ...                  ...                  ...
        32        2.0000           -0.4421241             -12.0308
        33        2.0000           -0.4359137             -11.8618
        34        2.0000           -0.4252786             -11.5724
        35        2.0000           -0.4040737             -10.9954
        36        2.0000           -0.3961920             -10.7809
        37        2.0000           -0.3843746             -10.4594
        38        2.0000           -0.3775566             -10.2738 (HOMO)
        39                         -0.2260165              -6.1502 (LUMO)
        40                         -0.2230132              -6.0685
        41                         -0.1967380              -5.3535
        42                         -0.0962533              -2.6192
        43                         -0.0015520              -0.0422
       ...                                ...                  ...
        73                          0.6599834              17.9591
      -------------------------------------------------------------
                  HL-Gap            0.1515402 Eh            4.1236 eV
             Fermi-level           -0.3017865 Eh           -8.2120 eV

 SCC (total)                   0 d,  0 h,  0 min,  0.067 sec
 SCC setup                      ...        0 min,  0.002 sec (  3.492%)
 Dispersion                     ...        0 min,  0.004 sec (  6.384%)
 classical contributions        ...        0 min,  0.002 sec (  3.344%)
 integral evaluation            ...        0 min,  0.008 sec ( 11.502%)
 iterations                     ...        0 min,  0.027 sec ( 40.159%)
 molecular gradient             ...        0 min,  0.023 sec ( 34.846%)
 printout                       ...        0 min,  0.000 sec (  0.232%)

         :::::::::::::::::::::::::::::::::::::::::::::::::::::
         ::                     SUMMARY                     ::
         :::::::::::::::::::::::::::::::::::::::::::::::::::::
         :: total energy             -41.370957167005 Eh    ::
         :: gradient norm              0.000084009852 Eh/a0 ::
         :: HOMO-LUMO gap              4.123618021295 eV    ::
         ::.................................................::
         :: SCC energy               -42.010057109901 Eh    ::
         :: -> isotropic ES            0.041519439691 Eh    ::
         :: -> anisotropic ES          0.006072148738 Eh    ::
         :: -> anisotropic XC          0.020874156398 Eh    ::
         :: -> dispersion             -0.028120477465 Eh    ::
         :: repulsion energy           0.639099942895 Eh    ::
         :: add. restraining           0.000000000000 Eh    ::
         :: total charge               0.000000000000 e     ::
         :::::::::::::::::::::::::::::::::::::::::::::::::::::

           -------------------------------------------------
          |                Property Printout                |
           -------------------------------------------------

    * Orbital Energies and Occupations

         #    Occupation            Energy/Eh            Energy/eV
      -------------------------------------------------------------
         1        2.0000           -0.6851520             -18.6439
       ...           ...                  ...                  ...
        26        2.0000           -0.4760107             -12.9529
        27        2.0000           -0.4737603             -12.8917
        28        2.0000           -0.4630956             -12.6015
        29        2.0000           -0.4619367             -12.5699
        30        2.0000           -0.4601235             -12.5206
        31        2.0000           -0.4533565             -12.3365
        32        2.0000           -0.4421241             -12.0308
        33        2.0000           -0.4359137             -11.8618
        34        2.0000           -0.4252786             -11.5724
        35        2.0000           -0.4040737             -10.9954
        36        2.0000           -0.3961920             -10.7809
        37        2.0000           -0.3843746             -10.4594
        38        2.0000           -0.3775566             -10.2738 (HOMO)
        39                         -0.2260165              -6.1502 (LUMO)
        40                         -0.2230132              -6.0685
        41                         -0.1967380              -5.3535
        42                         -0.0962533              -2.6192
        43                         -0.0015520              -0.0422
        44                          0.0718144               1.9542
        45                          0.1036346               2.8200
        46                          0.1093963               2.9768
        47                          0.1168965               3.1809
        48                          0.1179969               3.2109
        49                          0.1209219               3.2905
       ...                                ...                  ...
        73                          0.6599834              17.9591
      -------------------------------------------------------------
                  HL-Gap            0.1515402 Eh            4.1236 eV
             Fermi-level           -0.3017865 Eh           -8.2120 eV

     #   Z          covCN         q      C6AA      α(0)
     1   6 C        3.751    -0.112    22.711     6.796
     2   6 C        3.742     0.000    20.648     6.483
     3   7 N        2.736    -0.104    23.286     7.167
     4   6 C        3.750     0.003    20.582     6.470
     5   6 C        3.752    -0.109    22.651     6.787
     6   6 C        2.770     0.266    22.515     7.771
     7   8 O        0.859    -0.444    22.570     6.370
     8   6 C        2.973    -0.013    28.327     8.730
     9   6 C        2.923    -0.034    28.852     8.809
    10   6 C        2.918    -0.030    28.759     8.794
    11   6 C        2.925    -0.040    28.994     8.830
    12   6 C        2.966     0.020    27.565     8.612
    13   6 C        3.758    -0.110    22.648     6.785
    14   6 C        2.929    -0.036    28.888     8.814
    15   1 H        0.925     0.045     2.386     2.416
    16   1 H        0.925     0.045     2.389     2.417
    17   1 H        0.925     0.046     2.375     2.410
    18   1 H        0.924     0.049     2.333     2.389
    19   1 H        0.924     0.048     2.345     2.395
    20   1 H        0.924     0.074     2.043     2.235
    21   1 H        0.924     0.038     2.476     2.461
    22   1 H        0.925     0.052     2.300     2.372
    23   1 H        0.925     0.036     2.497     2.471
    24   1 H        0.925     0.045     2.386     2.415
    25   1 H        0.926     0.029     2.596     2.520
    26   1 H        0.926     0.032     2.551     2.498
    27   1 H        0.926     0.032     2.560     2.502
    28   1 H        0.924     0.052     2.299     2.371
    29   1 H        0.925     0.043     2.410     2.428
    30   1 H        0.925     0.044     2.397     2.421
    31   1 H        0.925     0.034     2.530     2.487

 Mol. C6AA /au·bohr⁶  :       9202.018400
 Mol. C8AA /au·bohr⁸  :     210154.761357
 Mol. α(0) /au        :        148.425620


Wiberg/Mayer (AO) data.
largest (>0.10) Wiberg bond orders for each atom

 ---------------------------------------------------------------------------
     #   Z sym  total        # sym  WBO       # sym  WBO       # sym  WBO
 ---------------------------------------------------------------------------
     1   6 C    3.995 --     2 C    1.006    15 H    0.986    16 H    0.985
                            17 H    0.985
     2   6 C    3.976 --     1 C    1.006     3 N    0.992    18 H    0.971
                            19 H    0.966
     3   7 N    3.494 --     6 C    1.243     2 C    0.992     4 C    0.982
                             7 O    0.198
     4   6 C    3.970 --     5 C    1.009     3 N    0.982    21 H    0.972
                            20 H    0.966
     5   6 C    3.995 --     4 C    1.009    22 H    0.987    23 H    0.986
                            24 H    0.985
     6   6 C    3.951 --     7 O    1.668     3 N    1.243     8 C    0.955
     7   8 O    2.000 --     6 C    1.668     3 N    0.198
     8   6 C    3.988 --    14 C    1.419     9 C    1.398     6 C    0.955
                            11 C    0.108
     9   6 C    3.992 --    10 C    1.444     8 C    1.398    25 H    0.970
                            12 C    0.108
    10   6 C    3.992 --     9 C    1.444    11 C    1.440    26 H    0.970
                            14 C    0.109
    11   6 C    3.991 --    10 C    1.440    12 C    1.414    27 H    0.969
                             8 C    0.108
    12   6 C    3.989 --    11 C    1.414    14 C    1.407    13 C    1.025
                             9 C    0.108
    13   6 C    3.995 --    12 C    1.025    29 H    0.984    30 H    0.979
                            28 H    0.967
    14   6 C    3.991 --     8 C    1.419    12 C    1.407    31 H    0.968
                            10 C    0.109
    15   1 H    0.998 --     1 C    0.986
    16   1 H    0.997 --     1 C    0.985
    17   1 H    0.998 --     1 C    0.985
    18   1 H    0.998 --     2 C    0.971
    19   1 H    0.998 --     2 C    0.966
    20   1 H    0.994 --     4 C    0.966
    21   1 H    0.998 --     4 C    0.972
    22   1 H    0.997 --     5 C    0.987
    23   1 H    0.999 --     5 C    0.986
    24   1 H    0.997 --     5 C    0.985
    25   1 H    0.999 --     9 C    0.970
    26   1 H    0.998 --    10 C    0.970
    27   1 H    0.999 --    11 C    0.969
    28   1 H    0.997 --    13 C    0.967
    29   1 H    0.998 --    13 C    0.984
    30   1 H    0.998 --    13 C    0.979
    31   1 H    0.999 --    14 C    0.968
 ---------------------------------------------------------------------------

Topologies differ in total number of bonds
Writing topology from bond orders to xtbtopo.mol

molecular dipole:
                 x           y           z       tot (Debye)
 q only:       -0.410       0.871       1.211
   full:       -0.394       0.933       1.375       4.340
molecular quadrupole (traceless):
                xx          xy          yy          xz          yz          zz
 q only:       10.288       1.624      -1.633       0.993      -5.076      -8.655
  q+dip:       12.015       1.602      -1.834       1.815      -8.635     -10.180
   full:       11.209       1.285      -1.134       0.757      -7.280     -10.074

           -------------------------------------------------
          |                Geometry Summary                 |
           -------------------------------------------------

      molecular mass/u    :      191.2699317
   center of mass at/Å    :        0.1975371      -0.2252703      -0.1437002
  moments of inertia/u·Å² :        0.3953811E+03   0.1245731E+04   0.1311610E+04
rotational constants/cm⁻¹ :        0.4263641E-01   0.1353233E-01   0.1285263E-01

 * 29 selected distances

     #   Z          #   Z                                           value/Å
     1   6 C        2   6 C                                       1.5286000 (max)
     2   6 C        3   7 N                                       1.4467294
     3   7 N        4   6 C                                       1.4512205
     4   6 C        5   6 C                                       1.5261227
     3   7 N        6   6 C                                       1.3543540
     6   6 C        7   8 O                                       1.2175984
     8   6 C        9   6 C                                       1.3900917
     9   6 C       10   6 C                                       1.3829602
    10   6 C       11   6 C                                       1.3842465
    11   6 C       12   6 C                                       1.3885282
     8   6 C       14   6 C                                       1.3867054
    12   6 C       14   6 C                                       1.3895794
     1   6 C       15   1 H                                       1.0874571
     1   6 C       16   1 H                                       1.0867746
     1   6 C       17   1 H                                       1.0868730
     2   6 C       18   1 H                                       1.0930237
     2   6 C       19   1 H                                       1.0920578
     4   6 C       20   1 H                                       1.0925368
     4   6 C       21   1 H                                       1.0932443
     5   6 C       22   1 H                                       1.0868056
     5   6 C       23   1 H                                       1.0882686
     5   6 C       24   1 H                                       1.0865993
     9   6 C       25   1 H                                       1.0806054
    10   6 C       26   1 H                                       1.0803004 (min)
    11   6 C       27   1 H                                       1.0807117
    13   6 C       28   1 H                                       1.0902529
    13   6 C       29   1 H                                       1.0873288
    13   6 C       30   1 H                                       1.0880903
    14   6 C       31   1 H                                       1.0812128

 * 4 distinct bonds (by element types)

   Z      Z             #   av. dist./Å        max./Å        min./Å
   1 H    6 C          17     1.0871849     1.0932443     1.0803004
   6 C    6 C           8     1.4221043     1.5286000     1.3829602
   6 C    7 N           3     1.4174346     1.4512205     1.3543540
   6 C    8 O           1     1.2175984     1.2175984     1.2175984


optimized geometry written to: xtbopt.xyz


           -------------------------------------------------
          | TOTAL ENERGY              -41.370957167005 Eh   |
          | GRADIENT NORM               0.000084009852 Eh/α |
          | HOMO-LUMO GAP               4.123618021295 eV   |
           -------------------------------------------------

------------------------------------------------------------------------
 * finished run on 2026/07/08 at 03:12:56.409     
------------------------------------------------------------------------
 total:
 * wall-time:     0 d,  0 h,  0 min,  5.662 sec
 *  cpu-time:     0 d,  0 h,  1 min, 30.306 sec
 * ratio c/w:    15.948 speedup
 SCF:
 * wall-time:     0 d,  0 h,  0 min,  0.246 sec
 *  cpu-time:     0 d,  0 h,  0 min,  3.932 sec
 * ratio c/w:    15.992 speedup
 ANC optimizer:
 * wall-time:     0 d,  0 h,  0 min,  5.353 sec
 *  cpu-time:     0 d,  0 h,  1 min, 25.409 sec
 * ratio c/w:    15.956 speedup

