20
 energy: -30.341201296815 gnorm: 0.000239497128 xtb: 6.7.1 (edcfbbe)
C            2.57387669579889       -0.13002679149932        0.89352069855626
O            1.48508623909580        0.53256468796287        0.29884115771556
C            0.31405508943967       -0.15714285905088        0.11351414038010
C            0.10969723311658       -1.47034132272268        0.51269478094808
C           -1.11015532112385       -2.08454051820160        0.27972112764434
C           -2.13070785598534       -1.39734223005321       -0.34716530423490
C           -1.92846133757990       -0.08433285050714       -0.74078100867804
C           -0.71807090812545        0.54936745326426       -0.52386296080269
C           -0.48647944818631        1.97645007981286       -0.95738560506719
O           -0.11333080833898        2.82816526799486        0.09895411198927
H            3.38690305221239        0.59462093272244        0.90818866682865
H            2.34583444675199       -0.43771036486264        1.91899504945407
H            2.87983137255117       -1.00327248317291        0.30943637958531
H            0.89189196514962       -2.02555035608363        1.00584730397591
H           -1.25478721364651       -3.10699945386531        0.59542641500311
H           -3.08067570204335       -1.87660097107760       -0.52712859464561
H           -2.72332244958754        0.46020464211840       -1.22855754069930
H            0.28752943821592        1.98752588250219       -1.74279854343694
H           -1.40590296818795        2.39642714252321       -1.37104864292958
H            0.67718848047320        2.44853411219695        0.50358836841671
