24
DEC_00142 MMFF geometry for GFN2-xTB preoptimization
C   3.506084171521  0.622231718477 -0.454151517485
O   2.450155188898 -0.152285817976  0.115469491599
C   1.303900345216  0.552835126104  0.342499425624
O   1.163447918665  1.744295848616  0.105385295777
C   0.246889065817 -0.358088778869  0.955169144476
C  -0.955860859650  0.430779760787  1.493542954863
C  -1.906887920973  0.916975225589  0.399446124889
C  -2.322930559446 -0.210100356353 -0.538124046872
C  -1.110937463958 -0.924066641222 -1.124783960496
C  -0.188086374933 -1.451133269383 -0.028190295176
H   3.798652290795  1.429235365898  0.224831242183
H   3.206089624097  1.022455801960 -1.427699009732
H   4.367145795283 -0.035550195992 -0.601167191559
H   0.732726308406 -0.830914403741  1.819849079961
H  -1.519023524991 -0.218348789256  2.176799048459
H  -0.618118527674  1.288917423141  2.087001279069
H  -2.798313033903  1.357081205323  0.861176921529
H  -1.431376284086  1.715014424312 -0.182149812593
H  -2.943192365408 -0.930738398509  0.008941833176
H  -2.941568019978  0.193304362013 -1.347677269499
H  -1.445755851557 -1.757642988698 -1.752641330655
H  -0.558042112570 -0.237186402551 -1.776929806355
H  -0.716293491334 -2.235676712461  0.528989802503
H   0.681295681762 -1.931393507208 -0.491869703637
