      -----------------------------------------------------------      
     |                   =====================                   |     
     |                           x T B                           |     
     |                   =====================                   |     
     |                         S. Grimme                         |     
     |          Mulliken Center for Theoretical Chemistry        |     
     |                    University of Bonn                     |     
      -----------------------------------------------------------      

   * xtb version 6.7.1 (edcfbbe) compiled by 'conda@5dfe00f5fb80' on 2026-06-10

   xtb is free software: you can redistribute it and/or modify it under
   the terms of the GNU Lesser General Public License as published by
   the Free Software Foundation, either version 3 of the License, or
   (at your option) any later version.
   
   xtb is distributed in the hope that it will be useful,
   but WITHOUT ANY WARRANTY; without even the implied warranty of
   MERCHANTABILITY or FITNESS FOR A PARTICULAR PURPOSE.  See the
   GNU Lesser General Public License for more details.
   
   Cite this work as:
   * C. Bannwarth, E. Caldeweyher, S. Ehlert, A. Hansen, P. Pracht,
     J. Seibert, S. Spicher, S. Grimme, WIREs Comput. Mol. Sci., 2020, 11,
     e01493. DOI: 10.1002/wcms.1493
   
   for GFN2-xTB:
   * C. Bannwarth, S. Ehlert and S. Grimme., J. Chem. Theory Comput., 2019,
     15, 1652-1671. DOI: 10.1021/acs.jctc.8b01176
   for GFN1-xTB:
   * S. Grimme, C. Bannwarth, P. Shushkov, J. Chem. Theory Comput., 2017,
     13, 1989-2009. DOI: 10.1021/acs.jctc.7b00118
   for GFN0-xTB:
   * P. Pracht, E. Caldeweyher, S. Ehlert, S. Grimme, ChemRxiv, 2019, preprint.
     DOI: 10.26434/chemrxiv.8326202.v1
   for GFN-FF:
   * S. Spicher and S. Grimme, Angew. Chem. Int. Ed., 2020, 59, 15665-15673.
     DOI: 10.1002/anie.202004239
   
   for ALPB and GBSA implicit solvation:
   * S. Ehlert, M. Stahn, S. Spicher, S. Grimme, J. Chem. Theory Comput.,
     2021, 17, 4250-4261. DOI: 10.1021/acs.jctc.1c00471
   
   for ddCOSMO and CPCM-X implicit solvation:
   * M. Stahn, S. Ehlert, S. Grimme, J. Phys. Chem. A,
     2023, XX, XXXX-XXXX. DOI: 10.1021/acs.jpca.3c04382
   
   for DFT-D4:
   * E. Caldeweyher, C. Bannwarth and S. Grimme, J. Chem. Phys., 2017,
     147, 034112. DOI: 10.1063/1.4993215
   * E. Caldeweyher, S. Ehlert, A. Hansen, H. Neugebauer, S. Spicher,
     C. Bannwarth and S. Grimme, J. Chem. Phys., 2019, 150, 154122.
     DOI: 10.1063/1.5090222
   * E. Caldeweyher, J.-M. Mewes, S. Ehlert and S. Grimme, Phys. Chem. Chem. Phys.
     2020, 22, 8499-8512. DOI: 10.1039/D0CP00502A
   
   for sTDA-xTB:
   * S. Grimme and C. Bannwarth, J. Chem. Phys., 2016, 145, 054103.
     DOI: 10.1063/1.4959605
   
   in the mass-spec context:
   * V. Asgeirsson, C. Bauer and S. Grimme, Chem. Sci., 2017, 8, 4879.
     DOI: 10.1039/c7sc00601b
   * J. Koopman and S. Grimme, ACS Omega 2019, 4, 12, 15120-15133.
     DOI: 10.1021/acsomega.9b02011
   
   for metadynamics refer to:
   * S. Grimme, J. Chem. Theory Comput., 2019, 155, 2847-2862
     DOI: 10.1021/acs.jctc.9b00143
   
   for SPH calculations refer to:
   * S. Spicher and S. Grimme, J. Chem. Theory Comput., 2021, 17, 1701-1714
     DOI: 10.1021/acs.jctc.0c01306
   
   for ONIOM refer to:
   * C. Plett, A. Katbashev, S. Ehlert, S. Grimme, M. Bursch,
     Phys. Chem. Chem. Phys., 2023, 25, 17860-17868. DOI: 10.1039/D3CP02178E
   
   for DIPRO refer to:
   * J. Kohn, N. Gildemeister, S. Grimme, D. Fazzi, A. Hansen,
     J. Chem. Phys., 2023, just accepted.
   
   for PTB refer to:
   * S. Grimme, M. Mueller, A. Hansen, J. Chem. Phys., 2023, 158, 124111.
     DOI: 10.1063/5.0137838
   
   with help from (in alphabetical order)
   P. Atkinson, C. Bannwarth, F. Bohle, G. Brandenburg, E. Caldeweyher
   M. Checinski, S. Dohm, S. Ehlert, S. Ehrlich, I. Gerasimov, C. Hölzer
   A. Katbashev, J. Kohn, J. Koopman, C. Lavigne, S. Lehtola, F. März, M. Müller,
   F. Musil, H. Neugebauer, J. Pisarek, C. Plett, P. Pracht, F. Pultar,
   J. Seibert, P. Shushkov, S. Spicher, M. Stahn, M. Steiner, T. Strunk,
   J. Stückrath, T. Rose, and J. Unsleber
   
 * started run on 2026/07/09 at 01:06:16.879     
   ID    Z sym.   atoms
    1    6 C      1, 2, 4, 6, 8, 9
    2    8 O      3, 5, 7, 10
    3    1 H      11-20

           -------------------------------------------------
          |                Calculation Setup                |
           -------------------------------------------------

          program call               : /home/ws/xd2484/miniforge3/envs/p3z_dft/bin/xtb xtb_input.xyz --gfn 2 --opt tight --cycles 500 --chrg 0 --uhf 0
          hostname                   : gpu10
          coordinate file            : xtb_input.xyz
          omp threads                :                    16


           -------------------------------------------------
          |                 G F N 2 - x T B                 |
           -------------------------------------------------

        Reference                      10.1021/acs.jctc.8b01176
      * Hamiltonian:
        H0-scaling (s, p, d)           1.850000    2.230000    2.230000
        zeta-weighting                 0.500000
      * Dispersion:
        s8                             2.700000
        a1                             0.520000
        a2                             5.000000
        s9                             5.000000
      * Repulsion:
        kExp                           1.500000    1.000000
        rExp                           1.000000
      * Coulomb:
        alpha                          2.000000
        third order                    shell-resolved
        anisotropic                    true
        a3                             3.000000
        a5                             4.000000
        cn-shift                       1.200000
        cn-exp                         4.000000
        max-rad                        5.000000


          ...................................................
          :                      SETUP                      :
          :.................................................:
          :  # basis functions                  50          :
          :  # atomic orbitals                  50          :
          :  # shells                           30          :
          :  # electrons                        58          :
          :  max. iterations                   250          :
          :  Hamiltonian                  GFN2-xTB          :
          :  restarted?                      false          :
          :  GBSA solvation                  false          :
          :  PC potential                    false          :
          :  electronic temp.          300.0000000     K    :
          :  accuracy                    1.0000000          :
          :  -> integral cutoff          0.2500000E+02      :
          :  -> integral neglect         0.1000000E-07      :
          :  -> SCF convergence          0.1000000E-05 Eh   :
          :  -> wf. convergence          0.1000000E-03 e    :
          :  Broyden damping             0.4000000          :
          :  net charge                          0          :
          :  unpaired electrons                  0          :
          ...................................................

 iter      E             dE          RMSdq      gap      omega  full diag
   1    -34.4145033 -0.344145E+02  0.482E+00    4.30       0.0  T
   2    -34.4851734 -0.706701E-01  0.243E+00    3.40       1.0  T
   3    -34.4903389 -0.516544E-02  0.158E+00    3.80       1.0  T
   4    -34.5003656 -0.100267E-01  0.189E-01    3.52       1.0  T
   5    -34.5006584 -0.292804E-03  0.917E-02    3.61       1.0  T
   6    -34.5006947 -0.363392E-04  0.467E-02    3.60       1.0  T
   7    -34.5007015 -0.677328E-05  0.155E-02    3.60       1.4  T
   8    -34.5007021 -0.626810E-06  0.444E-03    3.60       5.0  T
   9    -34.5007022 -0.500923E-07  0.225E-03    3.60      10.0  T
  10    -34.5007022 -0.845255E-08  0.474E-04    3.60      47.2  T
  11    -34.5007022 -0.976122E-09  0.223E-04    3.60     100.4  T

   *** convergence criteria satisfied after 11 iterations ***

         #    Occupation            Energy/Eh            Energy/eV
      -------------------------------------------------------------
         1        2.0000           -0.7558497             -20.5677
       ...           ...                  ...                  ...
        23        2.0000           -0.4855947             -13.2137
        24        2.0000           -0.4795046             -13.0480
        25        2.0000           -0.4769399             -12.9782
        26        2.0000           -0.4679557             -12.7337
        27        2.0000           -0.4506072             -12.2616
        28        2.0000           -0.4338732             -11.8063
        29        2.0000           -0.4134743             -11.2512 (HOMO)
        30                         -0.2810645              -7.6482 (LUMO)
        31                         -0.2666611              -7.2562
        32                         -0.0208308              -0.5668
        33                          0.0142967               0.3890
        34                          0.0564814               1.5369
       ...                                ...                  ...
        50                          0.5544631              15.0877
      -------------------------------------------------------------
                  HL-Gap            0.1324097 Eh            3.6031 eV
             Fermi-level           -0.3472694 Eh           -9.4497 eV

 SCC (total)                   0 d,  0 h,  0 min,  0.248 sec
 SCC setup                      ...        0 min,  0.006 sec (  2.242%)
 Dispersion                     ...        0 min,  0.012 sec (  4.754%)
 classical contributions        ...        0 min,  0.006 sec (  2.356%)
 integral evaluation            ...        0 min,  0.018 sec (  7.334%)
 iterations                     ...        0 min,  0.172 sec ( 69.309%)
 molecular gradient             ...        0 min,  0.035 sec ( 13.931%)
 printout                       ...        0 min,  0.000 sec (  0.063%)

         :::::::::::::::::::::::::::::::::::::::::::::::::::::
         ::                     SUMMARY                     ::
         :::::::::::::::::::::::::::::::::::::::::::::::::::::
         :: total energy             -34.196486218946 Eh    ::
         :: gradient norm              0.092494137572 Eh/a0 ::
         :: HOMO-LUMO gap              3.603052094734 eV    ::
         ::.................................................::
         :: SCC energy               -34.500698892519 Eh    ::
         :: -> isotropic ES            0.089594116499 Eh    ::
         :: -> anisotropic ES          0.001956691368 Eh    ::
         :: -> anisotropic XC          0.003243583710 Eh    ::
         :: -> dispersion             -0.012746028313 Eh    ::
         :: repulsion energy           0.304212673573 Eh    ::
         :: add. restraining           0.000000000000 Eh    ::
         :: total charge              -0.000000000000 e     ::
         :::::::::::::::::::::::::::::::::::::::::::::::::::::

      ----------------------------------------------------------- 
     |                   =====================                   |
     |                        A N C O P T                        |
     |                   =====================                   |
     |               Approximate Normal Coordinate               |
     |                Rational Function Optimizer                |
      ----------------------------------------------------------- 
      ----------------------------------------------------------- 
     |                   =====================                   |
     |                        A N C O P T                        |
     |                   =====================                   |
     |               Approximate Normal Coordinate               |
     |                Rational Function Optimizer                |
      ----------------------------------------------------------- 

          ...................................................
          :                      SETUP                      :
          :.................................................:
          :   optimization level             tight          :
          :   max. optcycles                   500          :
          :   ANC micro-cycles                  20          :
          :   degrees of freedom                54          :
          :.................................................:
          :   RF solver                   davidson          :
          :   write xtbopt.log                true          :
          :   linear?                        false          :
          :   energy convergence         0.1000000E-05 Eh   :
          :   grad. convergence          0.8000000E-03 Eh/α :
          :   maxmium RF displ.          1.0000000          :
          :   Hlow (freq-cutoff)         0.1000000E-01      :
          :   Hmax (freq-cutoff)         5.0000000          :
          :   S6 in model hess.         20.0000000          :
          ...................................................

generating ANC from exact Hessian ...
Using Lindh-Hessian (1995)
 Shifting diagonal of input Hessian by    8.7471329005467217E-003
 Lowest  eigenvalues of input Hessian
    0.000000    0.000000    0.000000    0.000000    0.000000    0.000000
    0.010000    0.010749    0.011533    0.014335    0.015696    0.018172
    0.020519    0.022298    0.030931    0.031348    0.035935    0.044254
 Highest eigenvalues
    1.264600    1.331609    1.457918    1.670331    2.022724    2.227036


........................................................................
.............................. CYCLE    1 ..............................
........................................................................

 iter      E             dE          RMSdq      gap      omega  full diag
   1    -34.5007022 -0.345007E+02  0.739E-05    3.60       0.0  T
   2    -34.5007022 -0.101537E-10  0.448E-05    3.60     499.4  T
   3    -34.5007022 -0.618172E-12  0.270E-05    3.60     826.9  T
     SCC iter.                  ...        0 min,  0.033 sec
     gradient                   ...        0 min,  0.030 sec
 * total energy  :   -34.1964862 Eh     change       -0.1604548E-09 Eh
   gradient norm :     0.0924942 Eh/α   predicted     0.0000000E+00 (-100.00%)
   displ. norm   :     0.1745561 α      lambda       -0.8261610E-02
   maximum displ.:     0.0610524 α      in ANC's #5, #37, #13, ...

........................................................................
.............................. CYCLE    2 ..............................
........................................................................

 iter      E             dE          RMSdq      gap      omega  full diag
   1    -34.5253762 -0.345254E+02  0.192E-01    3.77       0.0  T
   2    -34.5254879 -0.111741E-03  0.113E-01    3.73       1.0  T
   3    -34.5254956 -0.766440E-05  0.585E-02    3.73       1.0  T
   4    -34.5255056 -0.100082E-04  0.812E-03    3.73       2.8  T
   5    -34.5255059 -0.312564E-06  0.458E-03    3.73       4.9  T
   6    -34.5255060 -0.514131E-07  0.194E-03    3.73      11.5  T
   7    -34.5255060 -0.517615E-08  0.772E-04    3.73      29.0  T
   8    -34.5255060 -0.348260E-08  0.193E-04    3.73     115.8  T
     SCC iter.                  ...        0 min,  0.077 sec
     gradient                   ...        0 min,  0.029 sec
 * total energy  :   -34.2018223 Eh     change       -0.5336128E-02 Eh
   gradient norm :     0.0311963 Eh/α   predicted    -0.4257412E-02 ( -20.22%)
   displ. norm   :     0.2136595 α      lambda       -0.1918412E-02
   maximum displ.:     0.0910083 α      in ANC's #8, #5, #2, ...

........................................................................
.............................. CYCLE    3 ..............................
........................................................................

 iter      E             dE          RMSdq      gap      omega  full diag
   1    -34.5333131 -0.345333E+02  0.124E-01    3.76       0.0  T
   2    -34.5333662 -0.531007E-04  0.701E-02    3.76       1.0  T
   3    -34.5333687 -0.252000E-05  0.356E-02    3.75       1.0  T
   4    -34.5333708 -0.217001E-05  0.641E-03    3.76       3.5  T
   5    -34.5333712 -0.368028E-06  0.247E-03    3.75       9.1  T
   6    -34.5333712 -0.731991E-08  0.975E-04    3.76      22.9  T
   7    -34.5333712 -0.347420E-08  0.375E-04    3.76      59.6  T
     SCC iter.                  ...        0 min,  0.080 sec
     gradient                   ...        0 min,  0.038 sec
 * total energy  :   -34.2030998 Eh     change       -0.1277468E-02 Eh
   gradient norm :     0.0135146 Eh/α   predicted    -0.1005740E-02 ( -21.27%)
   displ. norm   :     0.2531191 α      lambda       -0.8685457E-03
   maximum displ.:     0.1121457 α      in ANC's #8, #2, #4, ...

........................................................................
.............................. CYCLE    4 ..............................
........................................................................

 iter      E             dE          RMSdq      gap      omega  full diag
   1    -34.5334846 -0.345335E+02  0.118E-01    3.74       0.0  T
   2    -34.5335170 -0.323968E-04  0.682E-02    3.75       1.0  T
   3    -34.5335175 -0.474475E-06  0.277E-02    3.75       1.0  T
   4    -34.5335188 -0.129876E-05  0.578E-03    3.75       3.9  T
   5    -34.5335192 -0.390914E-06  0.235E-03    3.75       9.5  T
   6    -34.5335192 -0.698221E-08  0.955E-04    3.75      23.4  T
   7    -34.5335192 -0.460298E-08  0.345E-04    3.75      64.8  T
     SCC iter.                  ...        0 min,  0.104 sec
     gradient                   ...        0 min,  0.039 sec
 * total energy  :   -34.2037386 Eh     change       -0.6387808E-03 Eh
   gradient norm :     0.0090313 Eh/α   predicted    -0.4620984E-03 ( -27.66%)
   displ. norm   :     0.3288381 α      lambda       -0.6709715E-03
   maximum displ.:     0.1322957 α      in ANC's #8, #2, #4, ...

........................................................................
.............................. CYCLE    5 ..............................
........................................................................

 iter      E             dE          RMSdq      gap      omega  full diag
   1    -34.5309806 -0.345310E+02  0.149E-01    3.74       0.0  T
   2    -34.5310034 -0.227966E-04  0.867E-02    3.75       1.0  T
   3    -34.5310040 -0.596348E-06  0.207E-02    3.75       1.1  T
   4    -34.5310055 -0.158545E-05  0.570E-03    3.76       3.9  T
   5    -34.5310058 -0.244005E-06  0.296E-03    3.75       7.5  T
   6    -34.5310058 -0.185114E-07  0.124E-03    3.75      18.0  T
   7    -34.5310058 -0.559493E-08  0.347E-04    3.75      64.4  T
   8    -34.5310058 -0.567532E-09  0.887E-05    3.75     252.1  T
     SCC iter.                  ...        0 min,  0.110 sec
     gradient                   ...        0 min,  0.038 sec
 * total energy  :   -34.2041771 Eh     change       -0.4385511E-03 Eh
   gradient norm :     0.0140095 Eh/α   predicted    -0.3717678E-03 ( -15.23%)
   displ. norm   :     0.2106830 α      lambda       -0.3471619E-03
   maximum displ.:     0.0875053 α      in ANC's #1, #2, #6, ...

........................................................................
.............................. CYCLE    6 ..............................
........................................................................

 iter      E             dE          RMSdq      gap      omega  full diag
   1    -34.5305779 -0.345306E+02  0.959E-02    3.75       0.0  T
   2    -34.5305823 -0.441483E-05  0.562E-02    3.76       1.0  T
   3    -34.5305827 -0.406678E-06  0.783E-03    3.76       2.9  T
   4    -34.5305831 -0.398719E-06  0.307E-03    3.76       7.3  T
   5    -34.5305832 -0.370718E-07  0.153E-03    3.76      14.6  T
   6    -34.5305832 -0.348652E-08  0.673E-04    3.76      33.2  T
   7    -34.5305832 -0.179127E-08  0.144E-04    3.76     155.0  T
     SCC iter.                  ...        0 min,  0.080 sec
     gradient                   ...        0 min,  0.050 sec
 * total energy  :   -34.2044454 Eh     change       -0.2682878E-03 Eh
   gradient norm :     0.0141713 Eh/α   predicted    -0.1813086E-03 ( -32.42%)
   displ. norm   :     0.2842556 α      lambda       -0.5802364E-03
   maximum displ.:     0.1250845 α      in ANC's #1, #2, #6, ...

........................................................................
.............................. CYCLE    7 ..............................
........................................................................

 iter      E             dE          RMSdq      gap      omega  full diag
   1    -34.5308808 -0.345309E+02  0.149E-01    3.77       0.0  T
   2    -34.5308889 -0.809704E-05  0.875E-02    3.78       1.0  T
   3    -34.5308897 -0.826082E-06  0.105E-02    3.78       2.1  T
   4    -34.5308906 -0.839946E-06  0.431E-03    3.78       5.2  T
   5    -34.5308906 -0.497949E-07  0.225E-03    3.78       9.9  T
   6    -34.5308906 -0.836537E-08  0.824E-04    3.78      27.1  T
   7    -34.5308906 -0.261710E-08  0.254E-04    3.78      87.9  T
     SCC iter.                  ...        0 min,  0.099 sec
     gradient                   ...        0 min,  0.034 sec
 * total energy  :   -34.2048751 Eh     change       -0.4296507E-03 Eh
   gradient norm :     0.0134353 Eh/α   predicted    -0.3135602E-03 ( -27.02%)
   displ. norm   :     0.2549250 α      lambda       -0.5332635E-03
   maximum displ.:     0.1160211 α      in ANC's #1, #2, #6, ...

........................................................................
.............................. CYCLE    8 ..............................
........................................................................

 iter      E             dE          RMSdq      gap      omega  full diag
   1    -34.5322202 -0.345322E+02  0.146E-01    3.79       0.0  T
   2    -34.5322260 -0.582653E-05  0.865E-02    3.80       1.0  T
   3    -34.5322257  0.296933E-06  0.124E-02    3.79       1.8  T
   4    -34.5322276 -0.195984E-05  0.425E-03    3.80       5.3  T
   5    -34.5322277 -0.293415E-07  0.205E-03    3.80      10.9  T
   6    -34.5322277 -0.697393E-08  0.625E-04    3.80      35.8  T
   7    -34.5322277 -0.956490E-09  0.241E-04    3.80      92.8  T
     SCC iter.                  ...        0 min,  0.081 sec
     gradient                   ...        0 min,  0.034 sec
 * total energy  :   -34.2052696 Eh     change       -0.3944994E-03 Eh
   gradient norm :     0.0111031 Eh/α   predicted    -0.2839601E-03 ( -28.02%)
   displ. norm   :     0.3541003 α      lambda       -0.4773632E-03
   maximum displ.:     0.1590382 α      in ANC's #2, #1, #6, ...

........................................................................
.............................. CYCLE    9 ..............................
........................................................................

 iter      E             dE          RMSdq      gap      omega  full diag
   1    -34.5293199 -0.345293E+02  0.209E-01    3.82       0.0  T
   2    -34.5293418 -0.219603E-04  0.123E-01    3.82       1.0  T
   3    -34.5293422 -0.324706E-06  0.198E-02    3.81       1.1  T
   4    -34.5293451 -0.294786E-05  0.600E-03    3.82       3.7  T
   5    -34.5293452 -0.111324E-06  0.333E-03    3.82       6.7  T
   6    -34.5293452 -0.194334E-07  0.118E-03    3.82      18.9  T
   7    -34.5293453 -0.698007E-08  0.435E-04    3.82      51.4  T
   8    -34.5293453 -0.741309E-09  0.778E-05    3.82     287.5  T
     SCC iter.                  ...        0 min,  0.078 sec
     gradient                   ...        0 min,  0.033 sec
 * total energy  :   -34.2054839 Eh     change       -0.2143593E-03 Eh
   gradient norm :     0.0228120 Eh/α   predicted    -0.2686155E-03 (  25.31%)
   displ. norm   :     0.2477439 α      lambda       -0.9251907E-03
   maximum displ.:     0.1174037 α      in ANC's #1, #2, #4, ...

........................................................................
.............................. CYCLE   10 ..............................
........................................................................

 iter      E             dE          RMSdq      gap      omega  full diag
   1    -34.5357655 -0.345358E+02  0.148E-01    3.84       0.0  T
   2    -34.5357994 -0.339493E-04  0.894E-02    3.83       1.0  T
   3    -34.5357972  0.220722E-05  0.336E-02    3.83       1.0  T
   4    -34.5358050 -0.775005E-05  0.486E-03    3.83       4.6  T
   5    -34.5358050 -0.534450E-07  0.289E-03    3.83       7.7  T
   6    -34.5358050 -0.868853E-08  0.875E-04    3.83      25.5  T
   7    -34.5358050 -0.206979E-08  0.269E-04    3.83      83.0  T
     SCC iter.                  ...        0 min,  0.082 sec
     gradient                   ...        0 min,  0.029 sec
 * total energy  :   -34.2057848 Eh     change       -0.3008488E-03 Eh
   gradient norm :     0.0118671 Eh/α   predicted    -0.4909893E-03 (  63.20%)
   displ. norm   :     0.2572317 α      lambda       -0.3869068E-03
   maximum displ.:     0.1312506 α      in ANC's #1, #2, #6, ...

........................................................................
.............................. CYCLE   11 ..............................
........................................................................

 iter      E             dE          RMSdq      gap      omega  full diag
   1    -34.5318920 -0.345319E+02  0.137E-01    3.83       0.0  T
   2    -34.5319034 -0.114371E-04  0.809E-02    3.82       1.0  T
   3    -34.5319003  0.313015E-05  0.238E-02    3.82       1.0  T
   4    -34.5319064 -0.612924E-05  0.432E-03    3.82       5.2  T
   5    -34.5319064 -0.164018E-07  0.216E-03    3.82      10.4  T
   6    -34.5319064 -0.632760E-08  0.586E-04    3.82      38.2  T
   7    -34.5319064 -0.179368E-08  0.216E-04    3.82     103.3  T
     SCC iter.                  ...        0 min,  0.151 sec
     gradient                   ...        0 min,  0.031 sec
 * total energy  :   -34.2059939 Eh     change       -0.2090831E-03 Eh
   gradient norm :     0.0123313 Eh/α   predicted    -0.2062552E-03 (  -1.35%)
   displ. norm   :     0.0857813 α      lambda       -0.2399580E-03
   maximum displ.:     0.0602373 α      in ANC's #5, #8, #1, ...

........................................................................
.............................. CYCLE   12 ..............................
........................................................................

 iter      E             dE          RMSdq      gap      omega  full diag
   1    -34.5331112 -0.345331E+02  0.497E-02    3.80       0.0  T
   2    -34.5331219 -0.106546E-04  0.283E-02    3.80       1.0  T
   3    -34.5331223 -0.425835E-06  0.142E-02    3.81       1.6  T
   4    -34.5331225 -0.223288E-06  0.293E-03    3.81       7.6  T
   5    -34.5331226 -0.874430E-07  0.900E-04    3.81      24.9  T
   6    -34.5331226 -0.206982E-08  0.359E-04    3.81      62.3  T
     SCC iter.                  ...        0 min,  0.064 sec
     gradient                   ...        0 min,  0.031 sec
 * total energy  :   -34.2061451 Eh     change       -0.1512158E-03 Eh
   gradient norm :     0.0084168 Eh/α   predicted    -0.1208635E-03 ( -20.07%)
   displ. norm   :     0.2037727 α      lambda       -0.2216104E-03
   maximum displ.:     0.1181713 α      in ANC's #1, #5, #6, ...

........................................................................
.............................. CYCLE   13 ..............................
........................................................................

 iter      E             dE          RMSdq      gap      omega  full diag
   1    -34.5338313 -0.345338E+02  0.899E-02    3.79       0.0  T
   2    -34.5338342 -0.284772E-05  0.529E-02    3.79       1.0  T
   3    -34.5338344 -0.271682E-06  0.638E-03    3.79       3.5  T
   4    -34.5338347 -0.293653E-06  0.274E-03    3.79       8.2  T
   5    -34.5338347 -0.157258E-07  0.140E-03    3.79      16.0  T
   6    -34.5338348 -0.473692E-08  0.435E-04    3.79      51.4  T
   7    -34.5338348 -0.891873E-09  0.158E-04    3.79     141.5  T
     SCC iter.                  ...        0 min,  0.079 sec
     gradient                   ...        0 min,  0.034 sec
 * total energy  :   -34.2063001 Eh     change       -0.1549868E-03 Eh
   gradient norm :     0.0081654 Eh/α   predicted    -0.1154091E-03 ( -25.54%)
   displ. norm   :     0.3324971 α      lambda       -0.2791304E-03
   maximum displ.:     0.1935348 α      in ANC's #1, #6, #5, ...

........................................................................
.............................. CYCLE   14 ..............................
........................................................................

 iter      E             dE          RMSdq      gap      omega  full diag
   1    -34.5325895 -0.345326E+02  0.158E-01    3.78       0.0  T
   2    -34.5325923 -0.279076E-05  0.927E-02    3.78       1.0  T
   3    -34.5325934 -0.110257E-05  0.683E-03    3.77       3.3  T
   4    -34.5325936 -0.203798E-06  0.410E-03    3.77       5.5  T
   5    -34.5325936 -0.185436E-07  0.158E-03    3.77      14.2  T
   6    -34.5325936 -0.134967E-07  0.365E-04    3.77      61.3  T
   7    -34.5325936 -0.577586E-09  0.153E-04    3.77     145.7  T
     SCC iter.                  ...        0 min,  0.072 sec
     gradient                   ...        0 min,  0.034 sec
 * total energy  :   -34.2065014 Eh     change       -0.2012737E-03 Eh
   gradient norm :     0.0100772 Eh/α   predicted    -0.1550018E-03 ( -22.99%)
   displ. norm   :     0.3552471 α      lambda       -0.4772775E-03
   maximum displ.:     0.2041787 α      in ANC's #1, #5, #4, ...

........................................................................
.............................. CYCLE   15 ..............................
........................................................................

 iter      E             dE          RMSdq      gap      omega  full diag
   1    -34.5362398 -0.345362E+02  0.159E-01    3.74       0.0  T
   2    -34.5362534 -0.136304E-04  0.945E-02    3.75       1.0  T
   3    -34.5362511  0.227431E-05  0.209E-02    3.75       1.1  T
   4    -34.5362562 -0.504982E-05  0.508E-03    3.75       4.4  T
   5    -34.5362562 -0.348932E-07  0.290E-03    3.75       7.7  T
   6    -34.5362562 -0.848735E-08  0.562E-04    3.75      39.8  T
   7    -34.5362562 -0.105507E-08  0.232E-04    3.75      96.3  T
     SCC iter.                  ...        0 min,  0.089 sec
     gradient                   ...        0 min,  0.033 sec
 * total energy  :   -34.2067514 Eh     change       -0.2500616E-03 Eh
   gradient norm :     0.0147989 Eh/α   predicted    -0.2687619E-03 (   7.48%)
   displ. norm   :     0.5023508 α      lambda       -0.5044357E-03
   maximum displ.:     0.3064444 α      in ANC's #1, #6, #9, ...

........................................................................
.............................. CYCLE   16 ..............................
........................................................................

 iter      E             dE          RMSdq      gap      omega  full diag
   1    -34.5307382 -0.345307E+02  0.259E-01    3.73       0.0  T
   2    -34.5307772 -0.390047E-04  0.153E-01    3.72       1.0  T
   3    -34.5307698  0.746466E-05  0.361E-02    3.72       1.0  T
   4    -34.5307853 -0.155456E-04  0.825E-03    3.72       2.7  T
   5    -34.5307854 -0.128157E-06  0.456E-03    3.72       4.9  T
   6    -34.5307855 -0.255211E-07  0.155E-03    3.72      14.4  T
   7    -34.5307855 -0.793359E-08  0.403E-04    3.72      55.4  T
   8    -34.5307855 -0.902332E-09  0.143E-04    3.72     156.4  T
     SCC iter.                  ...        0 min,  0.090 sec
     gradient                   ...        0 min,  0.027 sec
 * total energy  :   -34.2067805 Eh     change       -0.2904915E-04 Eh
   gradient norm :     0.0236131 Eh/α   predicted    -0.3158734E-03 ( 987.38%)
   displ. norm   :     0.1666082 α      lambda       -0.7361820E-03
   maximum displ.:     0.0807668 α      in ANC's #1, #4, #2, ...

........................................................................
.............................. CYCLE   17 ..............................
........................................................................

 iter      E             dE          RMSdq      gap      omega  full diag
   1    -34.5381547 -0.345382E+02  0.997E-02    3.73       0.0  T
   2    -34.5381729 -0.182441E-04  0.580E-02    3.74       1.0  T
   3    -34.5381724  0.501339E-06  0.216E-02    3.74       1.0  T
   4    -34.5381747 -0.231325E-05  0.365E-03    3.74       6.1  T
   5    -34.5381748 -0.777041E-07  0.201E-03    3.74      11.2  T
   6    -34.5381748 -0.379752E-08  0.661E-04    3.74      33.8  T
   7    -34.5381748 -0.122207E-08  0.205E-04    3.74     109.3  T
     SCC iter.                  ...        0 min,  0.082 sec
     gradient                   ...        0 min,  0.029 sec
 * total energy  :   -34.2070955 Eh     change       -0.3150357E-03 Eh
   gradient norm :     0.0065533 Eh/α   predicted    -0.3783095E-03 (  20.08%)
   displ. norm   :     0.2276082 α      lambda       -0.3126996E-03
   maximum displ.:     0.1428131 α      in ANC's #5, #1, #3, ...

........................................................................
.............................. CYCLE   18 ..............................
........................................................................

 iter      E             dE          RMSdq      gap      omega  full diag
   1    -34.5352050 -0.345352E+02  0.921E-02    3.70       0.0  T
   2    -34.5352167 -0.117093E-04  0.536E-02    3.71       1.0  T
   3    -34.5352169 -0.231523E-06  0.144E-02    3.71       1.6  T
   4    -34.5352174 -0.497618E-06  0.312E-03    3.71       7.2  T
   5    -34.5352175 -0.631555E-07  0.172E-03    3.71      13.0  T
   6    -34.5352175 -0.834958E-08  0.542E-04    3.71      41.2  T
   7    -34.5352175 -0.791267E-09  0.242E-04    3.71      92.4  T
     SCC iter.                  ...        0 min,  0.132 sec
     gradient                   ...        0 min,  0.039 sec
 * total energy  :   -34.2072040 Eh     change       -0.1084848E-03 Eh
   gradient norm :     0.0119576 Eh/α   predicted    -0.1644567E-03 (  51.59%)
   displ. norm   :     0.2064543 α      lambda       -0.3000487E-03
   maximum displ.:     0.1293078 α      in ANC's #1, #5, #6, ...

........................................................................
.............................. CYCLE   19 ..............................
........................................................................

 iter      E             dE          RMSdq      gap      omega  full diag
   1    -34.5353106 -0.345353E+02  0.931E-02    3.69       0.0  T
   2    -34.5353193 -0.869330E-05  0.557E-02    3.68       1.0  T
   3    -34.5353195 -0.238845E-06  0.114E-02    3.68       2.0  T
   4    -34.5353201 -0.568466E-06  0.306E-03    3.68       7.3  T
   5    -34.5353201 -0.251454E-07  0.174E-03    3.68      12.9  T
   6    -34.5353201 -0.350882E-08  0.476E-04    3.68      47.0  T
   7    -34.5353201 -0.887539E-09  0.160E-04    3.68     139.5  T
     SCC iter.                  ...        0 min,  0.078 sec
     gradient                   ...        0 min,  0.027 sec
 * total energy  :   -34.2074221 Eh     change       -0.2181089E-03 Eh
   gradient norm :     0.0058988 Eh/α   predicted    -0.1564241E-03 ( -28.28%)
   displ. norm   :     0.3653811 α      lambda       -0.3131722E-03
   maximum displ.:     0.2330862 α      in ANC's #1, #3, #5, ...

........................................................................
.............................. CYCLE   20 ..............................
........................................................................

 iter      E             dE          RMSdq      gap      omega  full diag
   1    -34.5335642 -0.345336E+02  0.161E-01    3.63       0.0  T
   2    -34.5335935 -0.293148E-04  0.929E-02    3.63       1.0  T
   3    -34.5335912  0.234691E-05  0.329E-02    3.63       1.0  T
   4    -34.5335983 -0.709398E-05  0.561E-03    3.63       4.0  T
   5    -34.5335984 -0.128697E-06  0.312E-03    3.63       7.2  T
   6    -34.5335984 -0.910750E-08  0.860E-04    3.63      26.0  T
   7    -34.5335984 -0.197923E-08  0.315E-04    3.63      71.1  T
     SCC iter.                  ...        0 min,  0.081 sec
     gradient                   ...        0 min,  0.034 sec
 * total energy  :   -34.2075323 Eh     change       -0.1101725E-03 Eh
   gradient norm :     0.0133543 Eh/α   predicted    -0.1774962E-03 (  61.11%)
   displ. norm   :     0.1139070 α      lambda       -0.2791984E-03
   maximum displ.:     0.0468269 α      in ANC's #3, #8, #9, ...
 * RMSD in coord.:     0.8545414 α      energy gain  -0.1104605E-01 Eh

generating ANC from exact Hessian ...
Using Lindh-Hessian (1995)
 Shifting diagonal of input Hessian by    8.7302332851689115E-003
 Lowest  eigenvalues of input Hessian
    0.000000    0.000000    0.000000    0.000000    0.000000    0.000000
    0.010000    0.010489    0.011958    0.014277    0.016100    0.019631
    0.021452    0.023618    0.033155    0.035476    0.039408    0.049832
 Highest eigenvalues
    1.277714    1.364054    1.575228    1.809704    2.167800    2.390549


........................................................................
.............................. CYCLE   21 ..............................
........................................................................

 iter      E             dE          RMSdq      gap      omega  full diag
   1    -34.5381716 -0.345382E+02  0.693E-02    3.64       0.0  T
   2    -34.5381858 -0.141907E-04  0.404E-02    3.64       1.0  T
   3    -34.5381864 -0.526861E-06  0.193E-02    3.64       1.2  T
   4    -34.5381872 -0.843347E-06  0.303E-03    3.64       7.4  T
   5    -34.5381873 -0.854902E-07  0.137E-03    3.64      16.3  T
   6    -34.5381873 -0.123527E-08  0.491E-04    3.64      45.6  T
   7    -34.5381873 -0.592969E-09  0.162E-04    3.64     137.8  T
     SCC iter.                  ...        0 min,  0.078 sec
     gradient                   ...        0 min,  0.027 sec
 * total energy  :   -34.2076559 Eh     change       -0.1236520E-03 Eh
   gradient norm :     0.0076048 Eh/α   predicted     0.0000000E+00 (-100.00%)
   displ. norm   :     0.0605254 α      lambda       -0.8877667E-04
   maximum displ.:     0.0429629 α      in ANC's #3, #1, #5, ...

........................................................................
.............................. CYCLE   22 ..............................
........................................................................

 iter      E             dE          RMSdq      gap      omega  full diag
   1    -34.5374376 -0.345374E+02  0.331E-02    3.64       0.0  T
   2    -34.5374392 -0.160314E-05  0.195E-02    3.64       1.1  T
   3    -34.5374392  0.285065E-08  0.545E-03    3.64       4.1  T
   4    -34.5374393 -0.706066E-07  0.976E-04    3.63      22.9  T
   5    -34.5374393 -0.992378E-08  0.463E-04    3.64      48.3  T
     SCC iter.                  ...        0 min,  0.060 sec
     gradient                   ...        0 min,  0.033 sec
 * total energy  :   -34.2077324 Eh     change       -0.7648586E-04 Eh
   gradient norm :     0.0028559 Eh/α   predicted    -0.5322705E-04 ( -30.41%)
   displ. norm   :     0.1029029 α      lambda       -0.8009275E-04
   maximum displ.:     0.0792403 α      in ANC's #3, #1, #5, ...

........................................................................
.............................. CYCLE   23 ..............................
........................................................................

 iter      E             dE          RMSdq      gap      omega  full diag
   1    -34.5367542 -0.345368E+02  0.479E-02    3.63       0.0  T
   2    -34.5367559 -0.169616E-05  0.283E-02    3.63       1.0  T
   3    -34.5367559 -0.313919E-08  0.515E-03    3.63       4.3  T
   4    -34.5367560 -0.104830E-06  0.118E-03    3.63      18.9  T
   5    -34.5367560 -0.950093E-08  0.657E-04    3.63      34.0  T
   6    -34.5367560 -0.115304E-08  0.253E-04    3.63      88.5  T
     SCC iter.                  ...        0 min,  0.066 sec
     gradient                   ...        0 min,  0.033 sec
 * total energy  :   -34.2077867 Eh     change       -0.5431025E-04 Eh
   gradient norm :     0.0027797 Eh/α   predicted    -0.4050841E-04 ( -25.41%)
   displ. norm   :     0.0828363 α      lambda       -0.3873651E-04
   maximum displ.:     0.0610313 α      in ANC's #3, #1, #2, ...

........................................................................
.............................. CYCLE   24 ..............................
........................................................................

 iter      E             dE          RMSdq      gap      omega  full diag
   1    -34.5367256 -0.345367E+02  0.348E-02    3.62       0.0  T
   2    -34.5367258 -0.191679E-06  0.206E-02    3.62       1.1  T
   3    -34.5367258 -0.146963E-07  0.168E-03    3.62      13.3  T
   4    -34.5367259 -0.232501E-07  0.731E-04    3.62      30.6  T
   5    -34.5367259 -0.210945E-08  0.407E-04    3.62      55.0  T
     SCC iter.                  ...        0 min,  0.057 sec
     gradient                   ...        0 min,  0.028 sec
 * total energy  :   -34.2078211 Eh     change       -0.3437675E-04 Eh
   gradient norm :     0.0036312 Eh/α   predicted    -0.1952903E-04 ( -43.19%)
   displ. norm   :     0.1343010 α      lambda       -0.6665479E-04
   maximum displ.:     0.0947146 α      in ANC's #3, #1, #2, ...

........................................................................
.............................. CYCLE   25 ..............................
........................................................................

 iter      E             dE          RMSdq      gap      omega  full diag
   1    -34.5369585 -0.345370E+02  0.543E-02    3.60       0.0  T
   2    -34.5369587 -0.221839E-06  0.322E-02    3.60       1.0  T
   3    -34.5369588 -0.802479E-07  0.189E-03    3.60      11.8  T
   4    -34.5369588 -0.159502E-07  0.109E-03    3.60      20.5  T
   5    -34.5369588 -0.266741E-08  0.450E-04    3.60      49.7  T
   6    -34.5369588 -0.757446E-09  0.139E-04    3.60     161.3  T
     SCC iter.                  ...        0 min,  0.071 sec
     gradient                   ...        0 min,  0.030 sec
 * total energy  :   -34.2078782 Eh     change       -0.5709509E-04 Eh
   gradient norm :     0.0027856 Eh/α   predicted    -0.3392876E-04 ( -40.57%)
   displ. norm   :     0.2133668 α      lambda       -0.8416007E-04
   maximum displ.:     0.1502540 α      in ANC's #3, #1, #2, ...

........................................................................
.............................. CYCLE   26 ..............................
........................................................................

 iter      E             dE          RMSdq      gap      omega  full diag
   1    -34.5367397 -0.345367E+02  0.843E-02    3.58       0.0  T
   2    -34.5367402 -0.545218E-06  0.501E-02    3.58       1.0  T
   3    -34.5367404 -0.200263E-06  0.300E-03    3.58       7.5  T
   4    -34.5367405 -0.468722E-07  0.170E-03    3.58      13.2  T
   5    -34.5367405 -0.488593E-08  0.542E-04    3.58      41.2  T
   6    -34.5367405 -0.595016E-09  0.196E-04    3.58     114.0  T
     SCC iter.                  ...        0 min,  0.087 sec
     gradient                   ...        0 min,  0.042 sec
 * total energy  :   -34.2079405 Eh     change       -0.6231082E-04 Eh
   gradient norm :     0.0025905 Eh/α   predicted    -0.4399699E-04 ( -29.39%)
   displ. norm   :     0.1888270 α      lambda       -0.4928853E-04
   maximum displ.:     0.1343077 α      in ANC's #3, #1, #2, ...

........................................................................
.............................. CYCLE   27 ..............................
........................................................................

 iter      E             dE          RMSdq      gap      omega  full diag
   1    -34.5366310 -0.345366E+02  0.741E-02    3.56       0.0  T
   2    -34.5366314 -0.422718E-06  0.439E-02    3.56       1.0  T
   3    -34.5366316 -0.161167E-06  0.265E-03    3.56       8.5  T
   4    -34.5366316 -0.354033E-07  0.153E-03    3.56      14.6  T
   5    -34.5366316 -0.359758E-08  0.501E-04    3.56      44.6  T
   6    -34.5366316 -0.774634E-09  0.194E-04    3.56     115.0  T
     SCC iter.                  ...        0 min,  0.064 sec
     gradient                   ...        0 min,  0.033 sec
 * total energy  :   -34.2079747 Eh     change       -0.3423538E-04 Eh
   gradient norm :     0.0032859 Eh/α   predicted    -0.2552491E-04 ( -25.44%)
   displ. norm   :     0.1401678 α      lambda       -0.3625584E-04
   maximum displ.:     0.0993532 α      in ANC's #3, #1, #4, ...

........................................................................
.............................. CYCLE   28 ..............................
........................................................................

 iter      E             dE          RMSdq      gap      omega  full diag
   1    -34.5373150 -0.345373E+02  0.561E-02    3.55       0.0  T
   2    -34.5373153 -0.333305E-06  0.331E-02    3.55       1.0  T
   3    -34.5373154 -0.108690E-06  0.199E-03    3.55      11.2  T
   4    -34.5373154 -0.136535E-07  0.119E-03    3.55      18.8  T
   5    -34.5373154 -0.130773E-08  0.442E-04    3.55      50.5  T
   6    -34.5373154 -0.706102E-09  0.115E-04    3.55     194.2  T
     SCC iter.                  ...        0 min,  0.057 sec
     gradient                   ...        0 min,  0.026 sec
 * total energy  :   -34.2080018 Eh     change       -0.2706309E-04 Eh
   gradient norm :     0.0023469 Eh/α   predicted    -0.1848602E-04 ( -31.69%)
   displ. norm   :     0.1523583 α      lambda       -0.3203697E-04
   maximum displ.:     0.1038011 α      in ANC's #3, #1, #4, ...

........................................................................
.............................. CYCLE   29 ..............................
........................................................................

 iter      E             dE          RMSdq      gap      omega  full diag
   1    -34.5376972 -0.345377E+02  0.617E-02    3.54       0.0  T
   2    -34.5376978 -0.640759E-06  0.362E-02    3.54       1.0  T
   3    -34.5376979 -0.136977E-06  0.258E-03    3.54       8.7  T
   4    -34.5376980 -0.230659E-07  0.143E-03    3.54      15.6  T
   5    -34.5376980 -0.278554E-08  0.769E-04    3.54      29.1  T
   6    -34.5376980 -0.236019E-08  0.129E-04    3.54     173.9  T
     SCC iter.                  ...        0 min,  0.075 sec
     gradient                   ...        0 min,  0.027 sec
 * total energy  :   -34.2080250 Eh     change       -0.2315984E-04 Eh
   gradient norm :     0.0016080 Eh/α   predicted    -0.1639380E-04 ( -29.21%)
   displ. norm   :     0.1798324 α      lambda       -0.2371002E-04
   maximum displ.:     0.1091968 α      in ANC's #3, #4, #1, ...

........................................................................
.............................. CYCLE   30 ..............................
........................................................................

 iter      E             dE          RMSdq      gap      omega  full diag
   1    -34.5385088 -0.345385E+02  0.762E-02    3.53       0.0  T
   2    -34.5385108 -0.200629E-05  0.443E-02    3.53       1.0  T
   3    -34.5385110 -0.193835E-06  0.512E-03    3.53       4.4  T
   4    -34.5385111 -0.113093E-06  0.204E-03    3.53      10.9  T
   5    -34.5385112 -0.114210E-07  0.118E-03    3.53      19.0  T
   6    -34.5385112 -0.261150E-08  0.180E-04    3.53     124.4  T
   7    -34.5385112 -0.165237E-09  0.783E-05    3.53     285.4  T
     SCC iter.                  ...        0 min,  0.081 sec
     gradient                   ...        0 min,  0.033 sec
 * total energy  :   -34.2080443 Eh     change       -0.1934578E-04 Eh
   gradient norm :     0.0024066 Eh/α   predicted    -0.1202808E-04 ( -37.83%)
   displ. norm   :     0.0709988 α      lambda       -0.1098191E-04
   maximum displ.:     0.0410683 α      in ANC's #4, #3, #1, ...

........................................................................
.............................. CYCLE   31 ..............................
........................................................................

 iter      E             dE          RMSdq      gap      omega  full diag
   1    -34.5377621 -0.345378E+02  0.294E-02    3.52       0.0  T
   2    -34.5377625 -0.373799E-06  0.171E-02    3.52       1.3  T
   3    -34.5377625 -0.102825E-07  0.245E-03    3.52       9.1  T
   4    -34.5377625 -0.354302E-07  0.862E-04    3.52      25.9  T
   5    -34.5377625 -0.386297E-08  0.508E-04    3.52      44.0  T
     SCC iter.                  ...        0 min,  0.052 sec
     gradient                   ...        0 min,  0.026 sec
 * total energy  :   -34.2080502 Eh     change       -0.5899426E-05 Eh
   gradient norm :     0.0014720 Eh/α   predicted    -0.5519199E-05 (  -6.45%)
   displ. norm   :     0.0970371 α      lambda       -0.1751176E-04
   maximum displ.:     0.0580684 α      in ANC's #1, #4, #3, ...

........................................................................
.............................. CYCLE   32 ..............................
........................................................................

 iter      E             dE          RMSdq      gap      omega  full diag
   1    -34.5390854 -0.345391E+02  0.424E-02    3.53       0.0  T
   2    -34.5390861 -0.750146E-06  0.253E-02    3.53       1.0  T
   3    -34.5390860  0.138817E-06  0.470E-03    3.53       4.8  T
   4    -34.5390862 -0.272292E-06  0.110E-03    3.53      20.4  T
   5    -34.5390862 -0.298360E-08  0.614E-04    3.53      36.4  T
   6    -34.5390862 -0.365709E-09  0.203E-04    3.53     110.1  T
     SCC iter.                  ...        0 min,  0.060 sec
     gradient                   ...        0 min,  0.027 sec
 * total energy  :   -34.2080553 Eh     change       -0.5058687E-05 Eh
   gradient norm :     0.0031052 Eh/α   predicted    -0.8793558E-05 (  73.83%)
   displ. norm   :     0.0166332 α      lambda       -0.1001475E-04
   maximum displ.:     0.0098666 α      in ANC's #3, #2, #10, ...

........................................................................
.............................. CYCLE   33 ..............................
........................................................................

 iter      E             dE          RMSdq      gap      omega  full diag
   1    -34.5385636 -0.345386E+02  0.842E-03    3.53       0.0  T
   2    -34.5385638 -0.193745E-06  0.511E-03    3.53       4.4  T
   3    -34.5385638  0.173020E-08  0.211E-03    3.53      10.6  T
   4    -34.5385638 -0.218663E-07  0.387E-04    3.53      57.8  T
   5    -34.5385638 -0.877414E-09  0.167E-04    3.53     134.0  T
     SCC iter.                  ...        0 min,  0.045 sec
     gradient                   ...        0 min,  0.019 sec
 * total energy  :   -34.2080622 Eh     change       -0.6933901E-05 Eh
   gradient norm :     0.0012901 Eh/α   predicted    -0.5011380E-05 ( -27.73%)
   displ. norm   :     0.0245327 α      lambda       -0.5304309E-05
   maximum displ.:     0.0138510 α      in ANC's #2, #1, #5, ...

........................................................................
.............................. CYCLE   34 ..............................
........................................................................

 iter      E             dE          RMSdq      gap      omega  full diag
   1    -34.5378644 -0.345379E+02  0.100E-02    3.53       0.0  T
   2    -34.5378646 -0.205262E-06  0.597E-03    3.53       3.7  T
   3    -34.5378646  0.508557E-08  0.221E-03    3.53      10.1  T
   4    -34.5378646 -0.253547E-07  0.401E-04    3.53      55.8  T
   5    -34.5378646 -0.909665E-09  0.190E-04    3.53     117.4  T
     SCC iter.                  ...        0 min,  0.047 sec
     gradient                   ...        0 min,  0.027 sec
 * total energy  :   -34.2080661 Eh     change       -0.3865560E-05 Eh
   gradient norm :     0.0011681 Eh/α   predicted    -0.2653715E-05 ( -31.35%)
   displ. norm   :     0.0276046 α      lambda       -0.2166125E-05
   maximum displ.:     0.0193060 α      in ANC's #1, #3, #2, ...

........................................................................
.............................. CYCLE   35 ..............................
........................................................................

 iter      E             dE          RMSdq      gap      omega  full diag
   1    -34.5378338 -0.345378E+02  0.950E-03    3.53       0.0  T
   2    -34.5378338 -0.132221E-07  0.562E-03    3.53       4.0  T
   3    -34.5378338  0.313833E-09  0.610E-04    3.53      36.6  T
   4    -34.5378338 -0.459074E-08  0.224E-04    3.53      99.7  T
     SCC iter.                  ...        0 min,  0.034 sec
     gradient                   ...        0 min,  0.022 sec
 * total energy  :   -34.2080689 Eh     change       -0.2854709E-05 Eh
   gradient norm :     0.0008759 Eh/α   predicted    -0.1085292E-05 ( -61.98%)
   displ. norm   :     0.0797207 α      lambda       -0.5838206E-05
   maximum displ.:     0.0499729 α      in ANC's #1, #2, #6, ...

........................................................................
.............................. CYCLE   36 ..............................
........................................................................

 iter      E             dE          RMSdq      gap      omega  full diag
   1    -34.5379012 -0.345379E+02  0.274E-02    3.54       0.0  T
   2    -34.5379013 -0.971445E-07  0.163E-02    3.54       1.4  T
   3    -34.5379013  0.115754E-08  0.179E-03    3.54      12.5  T
   4    -34.5379013 -0.411355E-07  0.708E-04    3.54      31.6  T
   5    -34.5379013 -0.527109E-09  0.279E-04    3.54      80.3  T
     SCC iter.                  ...        0 min,  0.049 sec
     gradient                   ...        0 min,  0.028 sec
 * total energy  :   -34.2080750 Eh     change       -0.6094616E-05 Eh
   gradient norm :     0.0005695 Eh/α   predicted    -0.2928107E-05 ( -51.96%)
   displ. norm   :     0.0669246 α      lambda       -0.3531610E-05
   maximum displ.:     0.0444391 α      in ANC's #2, #1, #6, ...

........................................................................
.............................. CYCLE   37 ..............................
........................................................................

 iter      E             dE          RMSdq      gap      omega  full diag
   1    -34.5379129 -0.345379E+02  0.195E-02    3.54       0.0  T
   2    -34.5379129 -0.495566E-07  0.116E-02    3.54       1.9  T
   3    -34.5379129 -0.423807E-08  0.115E-03    3.54      19.4  T
   4    -34.5379129 -0.154488E-07  0.496E-04    3.54      45.1  T
   5    -34.5379129 -0.265835E-09  0.163E-04    3.54     137.5  T
     SCC iter.                  ...        0 min,  0.134 sec
     gradient                   ...        0 min,  0.035 sec
 * total energy  :   -34.2080789 Eh     change       -0.3871558E-05 Eh
   gradient norm :     0.0008199 Eh/α   predicted    -0.1771304E-05 ( -54.25%)
   displ. norm   :     0.0457186 α      lambda       -0.2601460E-05
   maximum displ.:     0.0312858 α      in ANC's #2, #6, #4, ...

........................................................................
.............................. CYCLE   38 ..............................
........................................................................

 iter      E             dE          RMSdq      gap      omega  full diag
   1    -34.5379577 -0.345380E+02  0.161E-02    3.54       0.0  T
   2    -34.5379578 -0.201635E-07  0.950E-03    3.54       2.4  T
   3    -34.5379578 -0.916508E-08  0.564E-04    3.54      39.6  T
   4    -34.5379578 -0.690207E-09  0.342E-04    3.54      65.4  T
     SCC iter.                  ...        0 min,  0.047 sec
     gradient                   ...        0 min,  0.026 sec
 * total energy  :   -34.2080823 Eh     change       -0.3436907E-05 Eh
   gradient norm :     0.0005468 Eh/α   predicted    -0.1303352E-05 ( -62.08%)
   displ. norm   :     0.0614248 α      lambda       -0.3689314E-05
   maximum displ.:     0.0392279 α      in ANC's #2, #3, #4, ...

........................................................................
.............................. CYCLE   39 ..............................
........................................................................

 iter      E             dE          RMSdq      gap      omega  full diag
   1    -34.5381015 -0.345381E+02  0.214E-02    3.54       0.0  T
   2    -34.5381016 -0.861926E-07  0.125E-02    3.54       1.8  T
   3    -34.5381016 -0.104310E-07  0.921E-04    3.54      24.3  T
   4    -34.5381016 -0.428403E-08  0.417E-04    3.54      53.6  T
     SCC iter.                  ...        0 min,  0.034 sec
     gradient                   ...        0 min,  0.027 sec
 * total energy  :   -34.2080869 Eh     change       -0.4577818E-05 Eh
   gradient norm :     0.0004230 Eh/α   predicted    -0.1848537E-05 ( -59.62%)
   displ. norm   :     0.0566927 α      lambda       -0.2852745E-05
   maximum displ.:     0.0397568 α      in ANC's #2, #3, #4, ...

........................................................................
.............................. CYCLE   40 ..............................
........................................................................

 iter      E             dE          RMSdq      gap      omega  full diag
   1    -34.5380310 -0.345380E+02  0.197E-02    3.54       0.0  T
   2    -34.5380311 -0.252148E-07  0.116E-02    3.54       1.9  T
   3    -34.5380311 -0.798794E-08  0.762E-04    3.54      29.4  T
   4    -34.5380311 -0.443823E-08  0.412E-04    3.54      54.2  T
     SCC iter.                  ...        0 min,  0.039 sec
     gradient                   ...        0 min,  0.029 sec
 * total energy  :   -34.2080906 Eh     change       -0.3753162E-05 Eh
   gradient norm :     0.0003868 Eh/α   predicted    -0.1428860E-05 ( -61.93%)
   displ. norm   :     0.0340423 α      lambda       -0.1944266E-05
   maximum displ.:     0.0276483 α      in ANC's #2, #3, #4, ...

........................................................................
.............................. CYCLE   41 ..............................
........................................................................

 iter      E             dE          RMSdq      gap      omega  full diag
   1    -34.5381084 -0.345381E+02  0.100E-02    3.54       0.0  T
   2    -34.5381085 -0.103326E-07  0.592E-03    3.54       3.8  T
   3    -34.5381085  0.668919E-09  0.577E-04    3.54      38.8  T
   4    -34.5381085 -0.443730E-08  0.214E-04    3.54     104.5  T
     SCC iter.                  ...        0 min,  0.039 sec
     gradient                   ...        0 min,  0.028 sec
 * total energy  :   -34.2080934 Eh     change       -0.2795341E-05 Eh
   gradient norm :     0.0003184 Eh/α   predicted    -0.9767227E-06 ( -65.06%)
   displ. norm   :     0.0304372 α      lambda       -0.2134110E-05
   maximum displ.:     0.0268307 α      in ANC's #2, #4, #3, ...

........................................................................
.............................. CYCLE   42 ..............................
........................................................................

 iter      E             dE          RMSdq      gap      omega  full diag
   1    -34.5381650 -0.345382E+02  0.765E-03    3.53       0.0  T
   2    -34.5381650 -0.817619E-08  0.453E-03    3.53       4.9  T
   3    -34.5381650  0.928146E-09  0.496E-04    3.53      45.1  T
   4    -34.5381650 -0.322626E-08  0.168E-04    3.54     132.9  T
     SCC iter.                  ...        0 min,  0.037 sec
     gradient                   ...        0 min,  0.028 sec
 * total energy  :   -34.2080965 Eh     change       -0.3106568E-05 Eh
   gradient norm :     0.0003373 Eh/α   predicted    -0.1071143E-05 ( -65.52%)
   displ. norm   :     0.0387924 α      lambda       -0.2821468E-05
   maximum displ.:     0.0328185 α      in ANC's #2, #1, #4, ...
 * RMSD in coord.:     0.3085664 α      energy gain  -0.5642831E-03 Eh

generating ANC from exact Hessian ...
Using Lindh-Hessian (1995)
 Shifting diagonal of input Hessian by    8.7782087306740447E-003
 Lowest  eigenvalues of input Hessian
    0.000000    0.000000    0.000000    0.000000    0.000000    0.000000
    0.010000    0.010496    0.012241    0.014187    0.016356    0.019381
    0.021760    0.022565    0.032674    0.033710    0.039007    0.050470
 Highest eigenvalues
    1.275728    1.366035    1.572469    1.798182    2.168559    2.396762


........................................................................
.............................. CYCLE   43 ..............................
........................................................................

 iter      E             dE          RMSdq      gap      omega  full diag
   1    -34.5381607 -0.345382E+02  0.939E-03    3.53       0.0  T
   2    -34.5381607 -0.760747E-08  0.557E-03    3.53       4.0  T
   3    -34.5381607 -0.198938E-09  0.471E-04    3.53      47.5  T
   4    -34.5381607 -0.267140E-08  0.197E-04    3.54     113.8  T
     SCC iter.                  ...        0 min,  0.047 sec
     gradient                   ...        0 min,  0.032 sec
 * total energy  :   -34.2081006 Eh     change       -0.4071523E-05 Eh
   gradient norm :     0.0003564 Eh/α   predicted     0.0000000E+00 (-100.00%)
   displ. norm   :     0.0160512 α      lambda       -0.1328260E-05
   maximum displ.:     0.0149522 α      in ANC's #2, #5, #1, ...

........................................................................
.............................. CYCLE   44 ..............................
........................................................................

 iter      E             dE          RMSdq      gap      omega  full diag
   1    -34.5380984 -0.345381E+02  0.393E-03    3.53       0.0  T
   2    -34.5380984 -0.456019E-08  0.234E-03    3.54       9.5  T
   3    -34.5380984  0.155187E-08  0.442E-04    3.53      50.6  T
   4    -34.5380984 -0.253919E-08  0.911E-05    3.54     245.3  T
     SCC iter.                  ...        0 min,  0.049 sec
     gradient                   ...        0 min,  0.031 sec
 * total energy  :   -34.2081025 Eh     change       -0.1904137E-05 Eh
   gradient norm :     0.0001857 Eh/α   predicted    -0.6842418E-06 ( -64.07%)
   displ. norm   :     0.0243304 α      lambda       -0.1778037E-05
   maximum displ.:     0.0208836 α      in ANC's #2, #5, #1, ...

........................................................................
.............................. CYCLE   45 ..............................
........................................................................

 iter      E             dE          RMSdq      gap      omega  full diag
   1    -34.5380750 -0.345381E+02  0.593E-03    3.54       0.0  T
   2    -34.5380750 -0.561131E-08  0.355E-03    3.54       6.3  T
   3    -34.5380750  0.910646E-09  0.405E-04    3.54      55.2  T
   4    -34.5380750 -0.224150E-08  0.122E-04    3.54     183.4  T
     SCC iter.                  ...        0 min,  0.047 sec
     gradient                   ...        0 min,  0.027 sec
 * total energy  :   -34.2081051 Eh     change       -0.2602085E-05 Eh
   gradient norm :     0.0002196 Eh/α   predicted    -0.9143140E-06 ( -64.86%)
   displ. norm   :     0.0348394 α      lambda       -0.2395347E-05
   maximum displ.:     0.0281713 α      in ANC's #2, #1, #5, ...

........................................................................
.............................. CYCLE   46 ..............................
........................................................................

 iter      E             dE          RMSdq      gap      omega  full diag
   1    -34.5380527 -0.345381E+02  0.819E-03    3.54       0.0  T
   2    -34.5380527 -0.728474E-08  0.489E-03    3.54       4.6  T
   3    -34.5380527 -0.278675E-09  0.381E-04    3.54      58.6  T
   4    -34.5380527 -0.156689E-08  0.159E-04    3.54     140.6  T
     SCC iter.                  ...        0 min,  0.039 sec
     gradient                   ...        0 min,  0.027 sec
 * total energy  :   -34.2081085 Eh     change       -0.3416522E-05 Eh
   gradient norm :     0.0003401 Eh/α   predicted    -0.1198975E-05 ( -64.91%)
   displ. norm   :     0.0481485 α      lambda       -0.3164901E-05
   maximum displ.:     0.0382522 α      in ANC's #2, #1, #5, ...

........................................................................
.............................. CYCLE   47 ..............................
........................................................................

 iter      E             dE          RMSdq      gap      omega  full diag
   1    -34.5380218 -0.345380E+02  0.112E-02    3.54       0.0  T
   2    -34.5380218 -0.979812E-08  0.666E-03    3.54       3.4  T
   3    -34.5380218 -0.274735E-08  0.374E-04    3.54      59.8  T
   4    -34.5380218 -0.569273E-09  0.204E-04    3.54     109.8  T
     SCC iter.                  ...        0 min,  0.040 sec
     gradient                   ...        0 min,  0.024 sec
 * total energy  :   -34.2081130 Eh     change       -0.4497096E-05 Eh
   gradient norm :     0.0004250 Eh/α   predicted    -0.1585803E-05 ( -64.74%)
   displ. norm   :     0.0619402 α      lambda       -0.3862371E-05
   maximum displ.:     0.0484972 α      in ANC's #2, #1, #5, ...

........................................................................
.............................. CYCLE   48 ..............................
........................................................................

 iter      E             dE          RMSdq      gap      omega  full diag
   1    -34.5380153 -0.345380E+02  0.144E-02    3.54       0.0  T
   2    -34.5380154 -0.172658E-07  0.859E-03    3.54       2.6  T
   3    -34.5380154 -0.414563E-08  0.505E-04    3.54      44.3  T
   4    -34.5380154 -0.128651E-08  0.267E-04    3.54      83.8  T
     SCC iter.                  ...        0 min,  0.040 sec
     gradient                   ...        0 min,  0.026 sec
 * total energy  :   -34.2081185 Eh     change       -0.5476995E-05 Eh
   gradient norm :     0.0003982 Eh/α   predicted    -0.1937589E-05 ( -64.62%)
   displ. norm   :     0.0719976 α      lambda       -0.4292007E-05
   maximum displ.:     0.0567065 α      in ANC's #2, #1, #5, ...

........................................................................
.............................. CYCLE   49 ..............................
........................................................................

 iter      E             dE          RMSdq      gap      omega  full diag
   1    -34.5380037 -0.345380E+02  0.165E-02    3.54       0.0  T
   2    -34.5380037 -0.254443E-07  0.983E-03    3.54       2.3  T
   3    -34.5380037 -0.435328E-08  0.662E-04    3.54      33.8  T
   4    -34.5380037 -0.320019E-08  0.324E-04    3.54      69.1  T
     SCC iter.                  ...        0 min,  0.038 sec
     gradient                   ...        0 min,  0.027 sec
 * total energy  :   -34.2081246 Eh     change       -0.6097170E-05 Eh
   gradient norm :     0.0003315 Eh/α   predicted    -0.2152278E-05 ( -64.70%)
   displ. norm   :     0.0732377 α      lambda       -0.4254398E-05
   maximum displ.:     0.0582073 α      in ANC's #2, #1, #5, ...

........................................................................
.............................. CYCLE   50 ..............................
........................................................................

 iter      E             dE          RMSdq      gap      omega  full diag
   1    -34.5380264 -0.345380E+02  0.171E-02    3.54       0.0  T
   2    -34.5380264 -0.262847E-07  0.102E-02    3.54       2.2  T
   3    -34.5380264 -0.322547E-08  0.715E-04    3.54      31.3  T
   4    -34.5380264 -0.458973E-08  0.329E-04    3.54      67.9  T
     SCC iter.                  ...        0 min,  0.040 sec
     gradient                   ...        0 min,  0.027 sec
 * total energy  :   -34.2081307 Eh     change       -0.6115385E-05 Eh
   gradient norm :     0.0002437 Eh/α   predicted    -0.2132853E-05 ( -65.12%)
   displ. norm   :     0.0715108 α      lambda       -0.4236179E-05
   maximum displ.:     0.0575362 α      in ANC's #2, #1, #5, ...

........................................................................
.............................. CYCLE   51 ..............................
........................................................................

 iter      E             dE          RMSdq      gap      omega  full diag
   1    -34.5380563 -0.345381E+02  0.164E-02    3.54       0.0  T
   2    -34.5380563 -0.212445E-07  0.976E-03    3.54       2.3  T
   3    -34.5380563 -0.415810E-08  0.612E-04    3.54      36.6  T
   4    -34.5380563 -0.268205E-08  0.306E-04    3.54      73.0  T
     SCC iter.                  ...        0 min,  0.030 sec
     gradient                   ...        0 min,  0.027 sec
 * total energy  :   -34.2081369 Eh     change       -0.6183339E-05 Eh
   gradient norm :     0.0002143 Eh/α   predicted    -0.2123210E-05 ( -65.66%)
   displ. norm   :     0.0710463 α      lambda       -0.4480556E-05
   maximum displ.:     0.0578142 α      in ANC's #2, #1, #6, ...

........................................................................
.............................. CYCLE   52 ..............................
........................................................................

 iter      E             dE          RMSdq      gap      omega  full diag
   1    -34.5380932 -0.345381E+02  0.167E-02    3.54       0.0  T
   2    -34.5380932 -0.182104E-07  0.990E-03    3.54       2.3  T
   3    -34.5380932 -0.446360E-08  0.567E-04    3.54      39.4  T
   4    -34.5380932 -0.207994E-08  0.294E-04    3.54      76.0  T
     SCC iter.                  ...        0 min,  0.039 sec
     gradient                   ...        0 min,  0.026 sec
 * total energy  :   -34.2081435 Eh     change       -0.6623100E-05 Eh
   gradient norm :     0.0002509 Eh/α   predicted    -0.2245782E-05 ( -66.09%)
   displ. norm   :     0.0816894 α      lambda       -0.5546241E-05
   maximum displ.:     0.0670802 α      in ANC's #2, #1, #6, ...

........................................................................
.............................. CYCLE   53 ..............................
........................................................................

 iter      E             dE          RMSdq      gap      omega  full diag
   1    -34.5381124 -0.345381E+02  0.190E-02    3.54       0.0  T
   2    -34.5381124 -0.211566E-07  0.113E-02    3.54       2.0  T
   3    -34.5381124 -0.727542E-08  0.585E-04    3.54      38.2  T
   4    -34.5381124 -0.125723E-08  0.315E-04    3.54      71.0  T
     SCC iter.                  ...        0 min,  0.040 sec
     gradient                   ...        0 min,  0.025 sec
 * total energy  :   -34.2081517 Eh     change       -0.8208695E-05 Eh
   gradient norm :     0.0003192 Eh/α   predicted    -0.2782424E-05 ( -66.10%)
   displ. norm   :     0.0949060 α      lambda       -0.6901223E-05
   maximum displ.:     0.0786790 α      in ANC's #2, #1, #6, ...

........................................................................
.............................. CYCLE   54 ..............................
........................................................................

 iter      E             dE          RMSdq      gap      omega  full diag
   1    -34.5381122 -0.345381E+02  0.226E-02    3.54       0.0  T
   2    -34.5381122 -0.294334E-07  0.134E-02    3.54       1.7  T
   3    -34.5381122 -0.107461E-07  0.679E-04    3.54      32.9  T
   4    -34.5381122 -0.132729E-08  0.361E-04    3.54      61.9  T
     SCC iter.                  ...        0 min,  0.037 sec
     gradient                   ...        0 min,  0.032 sec
 * total energy  :   -34.2081620 Eh     change       -0.1021019E-04 Eh
   gradient norm :     0.0003899 Eh/α   predicted    -0.3466063E-05 ( -66.05%)
   displ. norm   :     0.1119818 α      lambda       -0.8612175E-05
   maximum displ.:     0.0938503 α      in ANC's #2, #1, #6, ...

........................................................................
.............................. CYCLE   55 ..............................
........................................................................

 iter      E             dE          RMSdq      gap      omega  full diag
   1    -34.5381018 -0.345381E+02  0.267E-02    3.54       0.0  T
   2    -34.5381018 -0.450807E-07  0.158E-02    3.54       1.4  T
   3    -34.5381018 -0.154540E-07  0.847E-04    3.54      26.4  T
   4    -34.5381018 -0.260986E-08  0.464E-04    3.54      48.2  T
     SCC iter.                  ...        0 min,  0.041 sec
     gradient                   ...        0 min,  0.026 sec
 * total energy  :   -34.2081746 Eh     change       -0.1267297E-04 Eh
   gradient norm :     0.0004668 Eh/α   predicted    -0.4332020E-05 ( -65.82%)
   displ. norm   :     0.1292100 α      lambda       -0.1037523E-04
   maximum displ.:     0.1093886 α      in ANC's #2, #1, #6, ...

........................................................................
.............................. CYCLE   56 ..............................
........................................................................

 iter      E             dE          RMSdq      gap      omega  full diag
   1    -34.5380591 -0.345381E+02  0.316E-02    3.54       0.0  T
   2    -34.5380592 -0.665692E-07  0.187E-02    3.54       1.2  T
   3    -34.5380592 -0.197689E-07  0.110E-03    3.54      20.3  T
   4    -34.5380592 -0.676368E-08  0.602E-04    3.54      37.1  T
   5    -34.5380592 -0.956121E-09  0.213E-04    3.54     104.8  T
     SCC iter.                  ...        0 min,  0.049 sec
     gradient                   ...        0 min,  0.027 sec
 * total energy  :   -34.2081898 Eh     change       -0.1515849E-04 Eh
   gradient norm :     0.0005660 Eh/α   predicted    -0.5234497E-05 ( -65.47%)
   displ. norm   :     0.1566762 α      lambda       -0.1308694E-04
   maximum displ.:     0.1340567 α      in ANC's #2, #1, #6, ...

........................................................................
.............................. CYCLE   57 ..............................
........................................................................

 iter      E             dE          RMSdq      gap      omega  full diag
   1    -34.5379780 -0.345380E+02  0.386E-02    3.54       0.0  T
   2    -34.5379781 -0.107606E-06  0.228E-02    3.54       1.0  T
   3    -34.5379782 -0.329412E-07  0.132E-03    3.54      16.9  T
   4    -34.5379782 -0.832321E-08  0.731E-04    3.54      30.6  T
   5    -34.5379782 -0.117624E-08  0.273E-04    3.54      82.0  T
     SCC iter.                  ...        0 min,  0.049 sec
     gradient                   ...        0 min,  0.027 sec
 * total energy  :   -34.2082085 Eh     change       -0.1873492E-04 Eh
   gradient norm :     0.0007733 Eh/α   predicted    -0.6615209E-05 ( -64.69%)
   displ. norm   :     0.2402431 α      lambda       -0.2030974E-04
   maximum displ.:     0.2072576 α      in ANC's #2, #1, #6, ...

........................................................................
.............................. CYCLE   58 ..............................
........................................................................

 iter      E             dE          RMSdq      gap      omega  full diag
   1    -34.5376056 -0.345376E+02  0.607E-02    3.54       0.0  T
   2    -34.5376059 -0.275929E-06  0.359E-02    3.54       1.0  T
   3    -34.5376060 -0.715029E-07  0.229E-03    3.54       9.8  T
   4    -34.5376060 -0.342701E-07  0.123E-03    3.54      18.2  T
   5    -34.5376060 -0.381927E-08  0.477E-04    3.54      46.9  T
   6    -34.5376060 -0.691209E-09  0.154E-04    3.54     145.4  T
     SCC iter.                  ...        0 min,  0.046 sec
     gradient                   ...        0 min,  0.021 sec
 * total energy  :   -34.2082352 Eh     change       -0.2670898E-04 Eh
   gradient norm :     0.0015339 Eh/α   predicted    -0.1041629E-04 ( -61.00%)
   displ. norm   :     0.6020372 α      lambda       -0.4606053E-04
   maximum displ.:     0.5237132 α      in ANC's #2, #6, #4, ...

........................................................................
.............................. CYCLE   59 ..............................
........................................................................

 iter      E             dE          RMSdq      gap      omega  full diag
   1    -34.5343779 -0.345344E+02  0.153E-01    3.53       0.0  T
   2    -34.5343806 -0.266306E-05  0.904E-02    3.53       1.0  T
   3    -34.5343810 -0.378455E-06  0.693E-03    3.53       3.2  T
   4    -34.5343814 -0.389960E-06  0.336E-03    3.53       6.6  T
   5    -34.5343814 -0.319436E-07  0.156E-03    3.53      14.3  T
   6    -34.5343814 -0.518192E-08  0.419E-04    3.53      53.4  T
   7    -34.5343814 -0.673317E-09  0.211E-04    3.53     106.1  T
     SCC iter.                  ...        0 min,  0.067 sec
     gradient                   ...        0 min,  0.030 sec
 * total energy  :   -34.2081930 Eh     change        0.4227250E-04 Eh
   gradient norm :     0.0080042 Eh/α   predicted    -0.2674337E-04 (-163.26%)
   displ. norm   :     0.2098457 α      lambda       -0.1616041E-03
   maximum displ.:     0.1794492 α      in ANC's #2, #1, #6, ...

........................................................................
.............................. CYCLE   60 ..............................
........................................................................

 iter      E             dE          RMSdq      gap      omega  full diag
   1    -34.5373290 -0.345373E+02  0.590E-02    3.53       0.0  T
   2    -34.5373299 -0.841717E-06  0.345E-02    3.53       1.0  T
   3    -34.5373299 -0.230836E-07  0.389E-03    3.53       5.7  T
   4    -34.5373300 -0.117767E-06  0.146E-03    3.53      15.3  T
   5    -34.5373300 -0.847844E-08  0.757E-04    3.53      29.5  T
   6    -34.5373300 -0.609589E-09  0.176E-04    3.53     127.2  T
     SCC iter.                  ...        0 min,  0.058 sec
     gradient                   ...        0 min,  0.028 sec
 * total energy  :   -34.2082762 Eh     change       -0.8319343E-04 Eh
   gradient norm :     0.0025011 Eh/α   predicted    -0.8436876E-04 (   1.41%)
   displ. norm   :     0.0446456 α      lambda       -0.1872132E-04
   maximum displ.:     0.0385166 α      in ANC's #2, #4, #6, ...

........................................................................
.............................. CYCLE   61 ..............................
........................................................................

 iter      E             dE          RMSdq      gap      omega  full diag
   1    -34.5379359 -0.345379E+02  0.141E-02    3.53       0.0  T
   2    -34.5379360 -0.286136E-07  0.830E-03    3.53       2.7  T
   3    -34.5379360 -0.370996E-09  0.760E-04    3.53      29.4  T
   4    -34.5379360 -0.627566E-08  0.286E-04    3.53      78.3  T
     SCC iter.                  ...        0 min,  0.048 sec
     gradient                   ...        0 min,  0.034 sec
 * total energy  :   -34.2082915 Eh     change       -0.1532911E-04 Eh
   gradient norm :     0.0013505 Eh/α   predicted    -0.9380325E-05 ( -38.81%)
   displ. norm   :     0.2953351 α      lambda       -0.3887313E-04
   maximum displ.:     0.2630888 α      in ANC's #2, #4, #6, ...

........................................................................
.............................. CYCLE   62 ..............................
........................................................................

 iter      E             dE          RMSdq      gap      omega  full diag
   1    -34.5385664 -0.345386E+02  0.808E-02    3.53       0.0  T
   2    -34.5385668 -0.408957E-06  0.477E-02    3.53       1.0  T
   3    -34.5385669 -0.783001E-07  0.323E-03    3.53       6.9  T
   4    -34.5385670 -0.980244E-07  0.157E-03    3.53      14.2  T
   5    -34.5385670 -0.456674E-08  0.473E-04    3.53      47.3  T
   6    -34.5385670 -0.706919E-09  0.196E-04    3.53     114.1  T
     SCC iter.                  ...        0 min,  0.140 sec
     gradient                   ...        0 min,  0.033 sec
 * total energy  :   -34.2083380 Eh     change       -0.4652329E-04 Eh
   gradient norm :     0.0009945 Eh/α   predicted    -0.2019717E-04 ( -56.59%)
   displ. norm   :     0.9762382 α      lambda       -0.1007877E-03
   maximum displ.:     0.8741237 α      in ANC's #2, #4, #6, ...

........................................................................
.............................. CYCLE   63 ..............................
........................................................................

 iter      E             dE          RMSdq      gap      omega  full diag
   1    -34.5294698 -0.345295E+02  0.266E-01    3.51       0.0  T
   2    -34.5294809 -0.110902E-04  0.156E-01    3.52       1.0  T
   3    -34.5294816 -0.695829E-06  0.142E-02    3.52       1.6  T
   4    -34.5294834 -0.181189E-05  0.631E-03    3.52       3.5  T
   5    -34.5294836 -0.151680E-06  0.318E-03    3.52       7.0  T
   6    -34.5294836 -0.157245E-07  0.728E-04    3.52      30.7  T
   7    -34.5294836 -0.194369E-08  0.382E-04    3.52      58.5  T
     SCC iter.                  ...        0 min,  0.082 sec
     gradient                   ...        0 min,  0.036 sec
 * total energy  :   -34.2080186 Eh     change        0.3194209E-03 Eh
   gradient norm :     0.0160216 Eh/α   predicted    -0.7180084E-04 (-122.48%)
   displ. norm   :     0.3843795 α      lambda       -0.8015331E-03
   maximum displ.:     0.3395573 α      in ANC's #2, #4, #6, ...

........................................................................
.............................. CYCLE   64 ..............................
........................................................................

 iter      E             dE          RMSdq      gap      omega  full diag
   1    -34.5365054 -0.345365E+02  0.118E-01    3.53       0.0  T
   2    -34.5365096 -0.428902E-05  0.689E-02    3.53       1.0  T
   3    -34.5365097 -0.192001E-07  0.866E-03    3.53       2.6  T
   4    -34.5365102 -0.550096E-06  0.306E-03    3.53       7.3  T
   5    -34.5365103 -0.476894E-07  0.159E-03    3.53      14.0  T
   6    -34.5365103 -0.228084E-08  0.357E-04    3.53      62.7  T
   7    -34.5365103 -0.919748E-09  0.175E-04    3.53     127.4  T
     SCC iter.                  ...        0 min,  0.081 sec
     gradient                   ...        0 min,  0.032 sec
 * total energy  :   -34.2084097 Eh     change       -0.3911554E-03 Eh
   gradient norm :     0.0036071 Eh/α   predicted    -0.4596353E-03 (  17.51%)
   displ. norm   :     0.0344539 α      lambda       -0.3602316E-04
   maximum displ.:     0.0207381 α      in ANC's #1, #5, #6, ...

........................................................................
.............................. CYCLE   65 ..............................
........................................................................

 iter      E             dE          RMSdq      gap      omega  full diag
   1    -34.5375785 -0.345376E+02  0.124E-02    3.53       0.0  T
   2    -34.5375786 -0.633802E-07  0.724E-03    3.53       3.1  T
   3    -34.5375785  0.121409E-07  0.155E-03    3.53      14.4  T
   4    -34.5375786 -0.244026E-07  0.327E-04    3.53      68.3  T
   5    -34.5375786 -0.202213E-09  0.166E-04    3.53     134.9  T
     SCC iter.                  ...        0 min,  0.059 sec
     gradient                   ...        0 min,  0.034 sec
 * total energy  :   -34.2084378 Eh     change       -0.2807708E-04 Eh
   gradient norm :     0.0019072 Eh/α   predicted    -0.1805122E-04 ( -35.71%)
   displ. norm   :     0.1599625 α      lambda       -0.4616537E-04
   maximum displ.:     0.1193410 α      in ANC's #2, #1, #5, ...

........................................................................
.............................. CYCLE   66 ..............................
........................................................................

 iter      E             dE          RMSdq      gap      omega  full diag
   1    -34.5394152 -0.345394E+02  0.491E-02    3.53       0.0  T
   2    -34.5394156 -0.438675E-06  0.289E-02    3.53       1.0  T
   3    -34.5394155  0.596672E-07  0.357E-03    3.53       6.3  T
   4    -34.5394157 -0.152949E-06  0.103E-03    3.53      21.6  T
   5    -34.5394157 -0.278017E-08  0.555E-04    3.53      40.3  T
   6    -34.5394157 -0.303956E-09  0.161E-04    3.53     139.2  T
     SCC iter.                  ...        0 min,  0.071 sec
     gradient                   ...        0 min,  0.031 sec
 * total energy  :   -34.2084763 Eh     change       -0.3846361E-04 Eh
   gradient norm :     0.0020103 Eh/α   predicted    -0.2342134E-04 ( -39.11%)
   displ. norm   :     0.1627831 α      lambda       -0.3496119E-04
   maximum displ.:     0.1423925 α      in ANC's #2, #8, #36, ...
 * RMSD in coord.:     0.6113053 α      energy gain  -0.3797301E-03 Eh

generating ANC from exact Hessian ...
Using Lindh-Hessian (1995)
 Shifting diagonal of input Hessian by    8.7686599301958178E-003
 Lowest  eigenvalues of input Hessian
    0.000000    0.000000    0.000000    0.000000    0.000000    0.000000
    0.010000    0.010446    0.012082    0.014338    0.016619    0.019006
    0.021742    0.021977    0.032837    0.034794    0.039616    0.052739
 Highest eigenvalues
    1.289636    1.366109    1.572432    1.794700    2.168965    2.395940


........................................................................
.............................. CYCLE   67 ..............................
........................................................................

 iter      E             dE          RMSdq      gap      omega  full diag
   1    -34.5390245 -0.345390E+02  0.450E-02    3.53       0.0  T
   2    -34.5390247 -0.189096E-06  0.266E-02    3.53       1.0  T
   3    -34.5390247  0.506574E-09  0.229E-03    3.53       9.8  T
   4    -34.5390248 -0.627034E-07  0.935E-04    3.53      23.9  T
   5    -34.5390248 -0.196129E-08  0.431E-04    3.53      51.8  T
     SCC iter.                  ...        0 min,  0.089 sec
     gradient                   ...        0 min,  0.022 sec
 * total energy  :   -34.2085092 Eh     change       -0.3293599E-04 Eh
   gradient norm :     0.0020289 Eh/α   predicted     0.0000000E+00 (-100.00%)
   displ. norm   :     0.0208814 α      lambda       -0.1358057E-04
   maximum displ.:     0.0173282 α      in ANC's #2, #5, #16, ...

........................................................................
.............................. CYCLE   68 ..............................
........................................................................

 iter      E             dE          RMSdq      gap      omega  full diag
   1    -34.5385721 -0.345386E+02  0.825E-03    3.53       0.0  T
   2    -34.5385722 -0.196508E-07  0.486E-03    3.53       4.6  T
   3    -34.5385722  0.621675E-09  0.697E-04    3.53      32.1  T
   4    -34.5385722 -0.457133E-08  0.213E-04    3.53     104.7  T
     SCC iter.                  ...        0 min,  0.064 sec
     gradient                   ...        0 min,  0.047 sec
 * total energy  :   -34.2085191 Eh     change       -0.9895173E-05 Eh
   gradient norm :     0.0006188 Eh/α   predicted    -0.6817241E-05 ( -31.11%)
   displ. norm   :     0.0514066 α      lambda       -0.9219155E-05
   maximum displ.:     0.0438833 α      in ANC's #2, #5, #3, ...

........................................................................
.............................. CYCLE   69 ..............................
........................................................................

 iter      E             dE          RMSdq      gap      omega  full diag
   1    -34.5380933 -0.345381E+02  0.139E-02    3.53       0.0  T
   2    -34.5380933 -0.207780E-07  0.830E-03    3.53       2.7  T
   3    -34.5380933 -0.198166E-08  0.650E-04    3.53      34.4  T
   4    -34.5380933 -0.394932E-08  0.277E-04    3.53      80.9  T
     SCC iter.                  ...        0 min,  0.046 sec
     gradient                   ...        0 min,  0.033 sec
 * total energy  :   -34.2085284 Eh     change       -0.9268284E-05 Eh
   gradient norm :     0.0011670 Eh/α   predicted    -0.4619406E-05 ( -50.16%)
   displ. norm   :     0.0460141 α      lambda       -0.6476811E-05
   maximum displ.:     0.0377737 α      in ANC's #2, #5, #3, ...

........................................................................
.............................. CYCLE   70 ..............................
........................................................................

 iter      E             dE          RMSdq      gap      omega  full diag
   1    -34.5381248 -0.345381E+02  0.114E-02    3.53       0.0  T
   2    -34.5381248 -0.923094E-08  0.679E-03    3.53       3.3  T
   3    -34.5381248 -0.255425E-08  0.358E-04    3.53      62.5  T
   4    -34.5381248 -0.538876E-09  0.189E-04    3.53     118.6  T
     SCC iter.                  ...        0 min,  0.043 sec
     gradient                   ...        0 min,  0.033 sec
 * total energy  :   -34.2085375 Eh     change       -0.9154961E-05 Eh
   gradient norm :     0.0012006 Eh/α   predicted    -0.3242592E-05 ( -64.58%)
   displ. norm   :     0.0814602 α      lambda       -0.1222914E-04
   maximum displ.:     0.0641976 α      in ANC's #2, #5, #3, ...

........................................................................
.............................. CYCLE   71 ..............................
........................................................................

 iter      E             dE          RMSdq      gap      omega  full diag
   1    -34.5383648 -0.345384E+02  0.205E-02    3.53       0.0  T
   2    -34.5383648 -0.358237E-07  0.122E-02    3.53       1.8  T
   3    -34.5383648 -0.706957E-08  0.777E-04    3.53      28.8  T
   4    -34.5383648 -0.455076E-08  0.383E-04    3.53      58.4  T
     SCC iter.                  ...        0 min,  0.048 sec
     gradient                   ...        0 min,  0.034 sec
 * total energy  :   -34.2085532 Eh     change       -0.1563021E-04 Eh
   gradient norm :     0.0004993 Eh/α   predicted    -0.6132899E-05 ( -60.76%)
   displ. norm   :     0.1011672 α      lambda       -0.1100517E-04
   maximum displ.:     0.0823482 α      in ANC's #2, #5, #3, ...

........................................................................
.............................. CYCLE   72 ..............................
........................................................................

 iter      E             dE          RMSdq      gap      omega  full diag
   1    -34.5384564 -0.345385E+02  0.254E-02    3.53       0.0  T
   2    -34.5384564 -0.497704E-07  0.152E-02    3.53       1.5  T
   3    -34.5384564 -0.122798E-07  0.881E-04    3.53      25.4  T
   4    -34.5384564 -0.486678E-08  0.454E-04    3.53      49.2  T
     SCC iter.                  ...        0 min,  0.053 sec
     gradient                   ...        0 min,  0.032 sec
 * total energy  :   -34.2085668 Eh     change       -0.1360565E-04 Eh
   gradient norm :     0.0005847 Eh/α   predicted    -0.5531885E-05 ( -59.34%)
   displ. norm   :     0.0701287 α      lambda       -0.6523252E-05
   maximum displ.:     0.0611863 α      in ANC's #2, #5, #4, ...

........................................................................
.............................. CYCLE   73 ..............................
........................................................................

 iter      E             dE          RMSdq      gap      omega  full diag
   1    -34.5386151 -0.345386E+02  0.177E-02    3.52       0.0  T
   2    -34.5386151 -0.267212E-07  0.105E-02    3.52       2.1  T
   3    -34.5386151 -0.563005E-08  0.661E-04    3.52      33.8  T
   4    -34.5386151 -0.303648E-08  0.326E-04    3.52      68.5  T
     SCC iter.                  ...        0 min,  0.047 sec
     gradient                   ...        0 min,  0.034 sec
 * total energy  :   -34.2085757 Eh     change       -0.8954666E-05 Eh
   gradient norm :     0.0004870 Eh/α   predicted    -0.3310343E-05 ( -63.03%)
   displ. norm   :     0.0486605 α      lambda       -0.5109569E-05
   maximum displ.:     0.0452294 α      in ANC's #2, #5, #4, ...

........................................................................
.............................. CYCLE   74 ..............................
........................................................................

 iter      E             dE          RMSdq      gap      omega  full diag
   1    -34.5387101 -0.345387E+02  0.127E-02    3.52       0.0  T
   2    -34.5387101 -0.165528E-07  0.754E-03    3.52       3.0  T
   3    -34.5387101 -0.205499E-08  0.529E-04    3.52      42.3  T
   4    -34.5387101 -0.231730E-08  0.237E-04    3.52      94.2  T
     SCC iter.                  ...        0 min,  0.056 sec
     gradient                   ...        0 min,  0.041 sec
 * total energy  :   -34.2085831 Eh     change       -0.7362916E-05 Eh
   gradient norm :     0.0003331 Eh/α   predicted    -0.2580952E-05 ( -64.95%)
   displ. norm   :     0.0437676 α      lambda       -0.5319406E-05
   maximum displ.:     0.0409642 α      in ANC's #2, #6, #4, ...

........................................................................
.............................. CYCLE   75 ..............................
........................................................................

 iter      E             dE          RMSdq      gap      omega  full diag
   1    -34.5387285 -0.345387E+02  0.117E-02    3.52       0.0  T
   2    -34.5387285 -0.126755E-07  0.690E-03    3.52       3.2  T
   3    -34.5387285 -0.318117E-09  0.567E-04    3.52      39.5  T
   4    -34.5387285 -0.358855E-08  0.231E-04    3.52      96.7  T
     SCC iter.                  ...        0 min,  0.067 sec
     gradient                   ...        0 min,  0.038 sec
 * total energy  :   -34.2085908 Eh     change       -0.7669946E-05 Eh
   gradient norm :     0.0003977 Eh/α   predicted    -0.2662070E-05 ( -65.29%)
   displ. norm   :     0.0484286 α      lambda       -0.6086319E-05
   maximum displ.:     0.0435637 α      in ANC's #2, #6, #4, ...

........................................................................
.............................. CYCLE   76 ..............................
........................................................................

 iter      E             dE          RMSdq      gap      omega  full diag
   1    -34.5386803 -0.345387E+02  0.128E-02    3.52       0.0  T
   2    -34.5386803 -0.131172E-07  0.758E-03    3.52       3.0  T
   3    -34.5386803 -0.161299E-08  0.541E-04    3.52      41.3  T
   4    -34.5386803 -0.279925E-08  0.254E-04    3.52      88.1  T
     SCC iter.                  ...        0 min,  0.043 sec
     gradient                   ...        0 min,  0.030 sec
 * total energy  :   -34.2085995 Eh     change       -0.8787080E-05 Eh
   gradient norm :     0.0004949 Eh/α   predicted    -0.3046920E-05 ( -65.32%)
   displ. norm   :     0.0600327 α      lambda       -0.7255689E-05
   maximum displ.:     0.0515872 α      in ANC's #2, #6, #5, ...

........................................................................
.............................. CYCLE   77 ..............................
........................................................................

 iter      E             dE          RMSdq      gap      omega  full diag
   1    -34.5386365 -0.345386E+02  0.161E-02    3.52       0.0  T
   2    -34.5386365 -0.187489E-07  0.950E-03    3.52       2.4  T
   3    -34.5386365 -0.284985E-08  0.649E-04    3.52      34.5  T
   4    -34.5386365 -0.394677E-08  0.314E-04    3.52      71.1  T
     SCC iter.                  ...        0 min,  0.038 sec
     gradient                   ...        0 min,  0.021 sec
 * total energy  :   -34.2086098 Eh     change       -0.1029543E-04 Eh
   gradient norm :     0.0005155 Eh/α   predicted    -0.3637686E-05 ( -64.67%)
   displ. norm   :     0.0706106 α      lambda       -0.7821921E-05
   maximum displ.:     0.0598522 α      in ANC's #2, #6, #5, ...

........................................................................
.............................. CYCLE   78 ..............................
........................................................................

 iter      E             dE          RMSdq      gap      omega  full diag
   1    -34.5385780 -0.345386E+02  0.186E-02    3.52       0.0  T
   2    -34.5385780 -0.246422E-07  0.110E-02    3.52       2.0  T
   3    -34.5385780 -0.374997E-08  0.766E-04    3.52      29.2  T
   4    -34.5385780 -0.550734E-08  0.370E-04    3.52      60.4  T
     SCC iter.                  ...        0 min,  0.036 sec
     gradient                   ...        0 min,  0.033 sec
 * total energy  :   -34.2086206 Eh     change       -0.1078390E-04 Eh
   gradient norm :     0.0004263 Eh/α   predicted    -0.3921980E-05 ( -63.63%)
   displ. norm   :     0.0699561 α      lambda       -0.6862636E-05
   maximum displ.:     0.0601114 α      in ANC's #2, #6, #1, ...

........................................................................
.............................. CYCLE   79 ..............................
........................................................................

 iter      E             dE          RMSdq      gap      omega  full diag
   1    -34.5385324 -0.345385E+02  0.189E-02    3.52       0.0  T
   2    -34.5385324 -0.274632E-07  0.112E-02    3.52       2.0  T
   3    -34.5385324 -0.448980E-08  0.731E-04    3.52      30.6  T
   4    -34.5385324 -0.461394E-08  0.364E-04    3.52      61.5  T
     SCC iter.                  ...        0 min,  0.056 sec
     gradient                   ...        0 min,  0.040 sec
 * total energy  :   -34.2086300 Eh     change       -0.9409710E-05 Eh
   gradient norm :     0.0003518 Eh/α   predicted    -0.3439815E-05 ( -63.44%)
   displ. norm   :     0.0599911 α      lambda       -0.5442476E-05
   maximum displ.:     0.0528911 α      in ANC's #2, #1, #6, ...

........................................................................
.............................. CYCLE   80 ..............................
........................................................................

 iter      E             dE          RMSdq      gap      omega  full diag
   1    -34.5385327 -0.345385E+02  0.157E-02    3.52       0.0  T
   2    -34.5385328 -0.195778E-07  0.928E-03    3.52       2.4  T
   3    -34.5385328 -0.738609E-09  0.747E-04    3.52      29.9  T
   4    -34.5385328 -0.634567E-08  0.316E-04    3.52      70.8  T
     SCC iter.                  ...        0 min,  0.049 sec
     gradient                   ...        0 min,  0.031 sec
 * total energy  :   -34.2086377 Eh     change       -0.7671666E-05 Eh
   gradient norm :     0.0003237 Eh/α   predicted    -0.2727281E-05 ( -64.45%)
   displ. norm   :     0.0526567 α      lambda       -0.4871229E-05
   maximum displ.:     0.0478275 α      in ANC's #2, #1, #6, ...

........................................................................
.............................. CYCLE   81 ..............................
........................................................................

 iter      E             dE          RMSdq      gap      omega  full diag
   1    -34.5385533 -0.345386E+02  0.138E-02    3.52       0.0  T
   2    -34.5385533 -0.155034E-07  0.816E-03    3.52       2.7  T
   3    -34.5385533 -0.146186E-08  0.606E-04    3.52      36.9  T
   4    -34.5385533 -0.384954E-08  0.270E-04    3.52      82.9  T
     SCC iter.                  ...        0 min,  0.040 sec
     gradient                   ...        0 min,  0.027 sec
 * total energy  :   -34.2086448 Eh     change       -0.7060244E-05 Eh
   gradient norm :     0.0003190 Eh/α   predicted    -0.2441214E-05 ( -65.42%)
   displ. norm   :     0.0521269 α      lambda       -0.5171122E-05
   maximum displ.:     0.0479567 α      in ANC's #2, #1, #7, ...

........................................................................
.............................. CYCLE   82 ..............................
........................................................................

 iter      E             dE          RMSdq      gap      omega  full diag
   1    -34.5385757 -0.345386E+02  0.137E-02    3.52       0.0  T
   2    -34.5385757 -0.176881E-07  0.808E-03    3.52       2.8  T
   3    -34.5385757 -0.312497E-09  0.669E-04    3.52      33.4  T
   4    -34.5385758 -0.502477E-08  0.271E-04    3.52      82.4  T
     SCC iter.                  ...        0 min,  0.045 sec
     gradient                   ...        0 min,  0.034 sec
 * total energy  :   -34.2086523 Eh     change       -0.7551176E-05 Eh
   gradient norm :     0.0003144 Eh/α   predicted    -0.2590189E-05 ( -65.70%)
   displ. norm   :     0.0614274 α      lambda       -0.6318922E-05
   maximum displ.:     0.0562533 α      in ANC's #2, #1, #7, ...

........................................................................
.............................. CYCLE   83 ..............................
........................................................................

 iter      E             dE          RMSdq      gap      omega  full diag
   1    -34.5385842 -0.345386E+02  0.150E-02    3.52       0.0  T
   2    -34.5385842 -0.222921E-07  0.889E-03    3.52       2.5  T
   3    -34.5385842 -0.139977E-10  0.787E-04    3.52      28.4  T
   4    -34.5385842 -0.717635E-08  0.310E-04    3.52      72.1  T
     SCC iter.                  ...        0 min,  0.048 sec
     gradient                   ...        0 min,  0.034 sec
 * total energy  :   -34.2086615 Eh     change       -0.9172025E-05 Eh
   gradient norm :     0.0003270 Eh/α   predicted    -0.3167692E-05 ( -65.46%)
   displ. norm   :     0.0764002 α      lambda       -0.7690148E-05
   maximum displ.:     0.0699525 α      in ANC's #2, #1, #7, ...

........................................................................
.............................. CYCLE   84 ..............................
........................................................................

 iter      E             dE          RMSdq      gap      omega  full diag
   1    -34.5385599 -0.345386E+02  0.192E-02    3.52       0.0  T
   2    -34.5385600 -0.368218E-07  0.114E-02    3.52       2.0  T
   3    -34.5385600 -0.135146E-08  0.920E-04    3.52      24.3  T
   4    -34.5385600 -0.901339E-08  0.374E-04    3.52      59.7  T
     SCC iter.                  ...        0 min,  0.048 sec
     gradient                   ...        0 min,  0.030 sec
 * total energy  :   -34.2086724 Eh     change       -0.1096266E-04 Eh
   gradient norm :     0.0003831 Eh/α   predicted    -0.3859163E-05 ( -64.80%)
   displ. norm   :     0.0924478 α      lambda       -0.8710726E-05
   maximum displ.:     0.0855261 α      in ANC's #2, #1, #7, ...

........................................................................
.............................. CYCLE   85 ..............................
........................................................................

 iter      E             dE          RMSdq      gap      omega  full diag
   1    -34.5385423 -0.345385E+02  0.218E-02    3.52       0.0  T
   2    -34.5385423 -0.483987E-07  0.129E-02    3.52       1.7  T
   3    -34.5385424 -0.209472E-08  0.106E-03    3.52      21.1  T
   4    -34.5385424 -0.118341E-07  0.435E-04    3.52      51.3  T
   5    -34.5385424 -0.481045E-09  0.193E-04    3.52     115.6  T
     SCC iter.                  ...        0 min,  0.048 sec
     gradient                   ...        0 min,  0.029 sec
 * total energy  :   -34.2086846 Eh     change       -0.1218135E-04 Eh
   gradient norm :     0.0003688 Eh/α   predicted    -0.4376474E-05 ( -64.07%)
   displ. norm   :     0.1034879 α      lambda       -0.8851404E-05
   maximum displ.:     0.0971602 α      in ANC's #2, #1, #7, ...

........................................................................
.............................. CYCLE   86 ..............................
........................................................................

 iter      E             dE          RMSdq      gap      omega  full diag
   1    -34.5384962 -0.345385E+02  0.257E-02    3.53       0.0  T
   2    -34.5384963 -0.616319E-07  0.152E-02    3.53       1.5  T
   3    -34.5384963 -0.573061E-08  0.109E-03    3.53      20.4  T
   4    -34.5384963 -0.112034E-07  0.473E-04    3.53      47.2  T
   5    -34.5384963 -0.544880E-09  0.203E-04    3.53     110.1  T
     SCC iter.                  ...        0 min,  0.118 sec
     gradient                   ...        0 min,  0.041 sec
 * total energy  :   -34.2086968 Eh     change       -0.1220620E-04 Eh
   gradient norm :     0.0004587 Eh/α   predicted    -0.4449821E-05 ( -63.54%)
   displ. norm   :     0.1252567 α      lambda       -0.9743232E-05
   maximum displ.:     0.1193109 α      in ANC's #2, #1, #7, ...

........................................................................
.............................. CYCLE   87 ..............................
........................................................................

 iter      E             dE          RMSdq      gap      omega  full diag
   1    -34.5384666 -0.345385E+02  0.295E-02    3.53       0.0  T
   2    -34.5384667 -0.797370E-07  0.175E-02    3.53       1.3  T
   3    -34.5384667 -0.121427E-07  0.116E-03    3.53      19.3  T
   4    -34.5384667 -0.101214E-07  0.546E-04    3.53      40.9  T
   5    -34.5384667 -0.736854E-09  0.227E-04    3.53      98.6  T
     SCC iter.                  ...        0 min,  0.065 sec
     gradient                   ...        0 min,  0.030 sec
 * total energy  :   -34.2087100 Eh     change       -0.1313619E-04 Eh
   gradient norm :     0.0004578 Eh/α   predicted    -0.4906394E-05 ( -62.65%)
   displ. norm   :     0.2153608 α      lambda       -0.1458879E-04
   maximum displ.:     0.2067686 α      in ANC's #2, #4, #1, ...

........................................................................
.............................. CYCLE   88 ..............................
........................................................................

 iter      E             dE          RMSdq      gap      omega  full diag
   1    -34.5380796 -0.345381E+02  0.536E-02    3.53       0.0  T
   2    -34.5380799 -0.246205E-06  0.318E-02    3.53       1.0  T
   3    -34.5380799 -0.358308E-07  0.205E-03    3.53      10.9  T
   4    -34.5380799 -0.334773E-07  0.960E-04    3.53      23.3  T
   5    -34.5380799 -0.234702E-08  0.398E-04    3.53      56.2  T
     SCC iter.                  ...        0 min,  0.111 sec
     gradient                   ...        0 min,  0.029 sec
 * total energy  :   -34.2087267 Eh     change       -0.1673349E-04 Eh
   gradient norm :     0.0012255 Eh/α   predicted    -0.7445153E-05 ( -55.51%)
   displ. norm   :     0.2611125 α      lambda       -0.1398479E-04
   maximum displ.:     0.2524497 α      in ANC's #2, #36, #1, ...

........................................................................
.............................. CYCLE   89 ..............................
........................................................................

 iter      E             dE          RMSdq      gap      omega  full diag
   1    -34.5376857 -0.345377E+02  0.627E-02    3.53       0.0  T
   2    -34.5376860 -0.347736E-06  0.372E-02    3.53       1.0  T
   3    -34.5376861 -0.601637E-07  0.235E-03    3.53       9.5  T
   4    -34.5376861 -0.376211E-07  0.114E-03    3.53      19.7  T
   5    -34.5376861 -0.321641E-08  0.462E-04    3.53      48.4  T
   6    -34.5376861 -0.740805E-09  0.151E-04    3.53     148.5  T
     SCC iter.                  ...        0 min,  0.061 sec
     gradient                   ...        0 min,  0.027 sec
 * total energy  :   -34.2087372 Eh     change       -0.1050114E-04 Eh
   gradient norm :     0.0020345 Eh/α   predicted    -0.7205166E-05 ( -31.39%)
   displ. norm   :     0.0269663 α      lambda       -0.1077924E-04
   maximum displ.:     0.0223725 α      in ANC's #2, #3, #16, ...

........................................................................
.............................. CYCLE   90 ..............................
........................................................................

 iter      E             dE          RMSdq      gap      omega  full diag
   1    -34.5383626 -0.345384E+02  0.104E-02    3.53       0.0  T
   2    -34.5383627 -0.432537E-07  0.598E-03    3.53       3.7  T
   3    -34.5383627 -0.266868E-08  0.749E-04    3.53      29.9  T
   4    -34.5383627 -0.138983E-08  0.251E-04    3.53      89.2  T
     SCC iter.                  ...        0 min,  0.040 sec
     gradient                   ...        0 min,  0.029 sec
 * total energy  :   -34.2087445 Eh     change       -0.7334875E-05 Eh
   gradient norm :     0.0011345 Eh/α   predicted    -0.5394207E-05 ( -26.46%)
   displ. norm   :     0.1335763 α      lambda       -0.7183008E-05
   maximum displ.:     0.1280087 α      in ANC's #2, #16, #36, ...

........................................................................
.............................. CYCLE   91 ..............................
........................................................................

 iter      E             dE          RMSdq      gap      omega  full diag
   1    -34.5387018 -0.345387E+02  0.370E-02    3.54       0.0  T
   2    -34.5387018 -0.917203E-07  0.219E-02    3.54       1.0  T
   3    -34.5387019 -0.234966E-07  0.112E-03    3.54      20.0  T
   4    -34.5387019 -0.518774E-08  0.601E-04    3.54      37.2  T
   5    -34.5387019 -0.859224E-09  0.235E-04    3.54      95.2  T
     SCC iter.                  ...        0 min,  0.058 sec
     gradient                   ...        0 min,  0.034 sec
 * total energy  :   -34.2087515 Eh     change       -0.6956340E-05 Eh
   gradient norm :     0.0007851 Eh/α   predicted    -0.3623531E-05 ( -47.91%)
   displ. norm   :     0.1640957 α      lambda       -0.5033720E-05
   maximum displ.:     0.1582101 α      in ANC's #2, #36, #16, ...

........................................................................
.............................. CYCLE   92 ..............................
........................................................................

 iter      E             dE          RMSdq      gap      omega  full diag
   1    -34.5383716 -0.345384E+02  0.413E-02    3.54       0.0  T
   2    -34.5383718 -0.148645E-06  0.245E-02    3.54       1.0  T
   3    -34.5383718 -0.305971E-07  0.142E-03    3.54      15.7  T
   4    -34.5383718 -0.111362E-07  0.719E-04    3.54      31.1  T
   5    -34.5383718 -0.924722E-09  0.246E-04    3.54      91.0  T
     SCC iter.                  ...        0 min,  0.060 sec
     gradient                   ...        0 min,  0.034 sec
 * total energy  :   -34.2087556 Eh     change       -0.4090047E-05 Eh
   gradient norm :     0.0010163 Eh/α   predicted    -0.2549351E-05 ( -37.67%)
   displ. norm   :     0.0419662 α      lambda       -0.3856591E-05
   maximum displ.:     0.0304761 α      in ANC's #2, #1, #7, ...
 * RMSD in coord.:     0.4528016 α      energy gain  -0.2793113E-03 Eh

generating ANC from exact Hessian ...
Using Lindh-Hessian (1995)
 Shifting diagonal of input Hessian by    8.7793406168374874E-003
 Lowest  eigenvalues of input Hessian
    0.000000    0.000000    0.000000    0.000000    0.000000    0.000000
    0.010000    0.010515    0.011766    0.014653    0.016828    0.018698
    0.021420    0.021944    0.032979    0.035871    0.040495    0.052469
 Highest eigenvalues
    1.296749    1.365677    1.573158    1.792854    2.168654    2.391222


........................................................................
.............................. CYCLE   93 ..............................
........................................................................

 iter      E             dE          RMSdq      gap      omega  full diag
   1    -34.5387875 -0.345388E+02  0.135E-02    3.54       0.0  T
   2    -34.5387875 -0.243875E-07  0.796E-03    3.54       2.8  T
   3    -34.5387875 -0.300054E-08  0.720E-04    3.54      31.0  T
   4    -34.5387875 -0.468089E-08  0.341E-04    3.54      65.5  T
     SCC iter.                  ...        0 min,  0.039 sec
     gradient                   ...        0 min,  0.027 sec
 * total energy  :   -34.2087595 Eh     change       -0.3904569E-05 Eh
   gradient norm :     0.0007412 Eh/α   predicted     0.0000000E+00 (-100.00%)
   displ. norm   :     0.0081070 α      lambda       -0.6040171E-06
   maximum displ.:     0.0037318 α      in ANC's #4, #8, #7, ...

........................................................................
.............................. CYCLE   94 ..............................
........................................................................

 iter      E             dE          RMSdq      gap      omega  full diag
   1    -34.5386279 -0.345386E+02  0.448E-03    3.54       0.0  T
   2    -34.5386279 -0.633553E-08  0.264E-03    3.54       8.5  T
   3    -34.5386279 -0.910305E-09  0.295E-04    3.54      75.7  T
   4    -34.5386279 -0.378122E-09  0.130E-04    3.54     171.6  T
     SCC iter.                  ...        0 min,  0.040 sec
     gradient                   ...        0 min,  0.036 sec
 * total energy  :   -34.2087608 Eh     change       -0.1325387E-05 Eh
   gradient norm :     0.0002483 Eh/α   predicted    -0.7616545E-06 ( -42.53%)
   displ. norm   :     0.0089611 α      lambda        0.3342304E-06
   maximum displ.:     0.0040774 α      in ANC's #4, #7, #8, ...

........................................................................
.............................. CYCLE   95 ..............................
........................................................................

 iter      E             dE          RMSdq      gap      omega  full diag
   1    -34.5386324 -0.345386E+02  0.391E-03    3.54       0.0  T
   2    -34.5386324 -0.234080E-08  0.232E-03    3.54       9.6  T
   3    -34.5386324 -0.242522E-09  0.252E-04    3.54      88.9  T
   4    -34.5386324 -0.695138E-09  0.112E-04    3.54     199.2  T
     SCC iter.                  ...        0 min,  0.049 sec
     gradient                   ...        0 min,  0.034 sec
 * total energy  :   -34.2087615 Eh     change       -0.7173101E-06 Eh
   gradient norm :     0.0002786 Eh/α   predicted    -0.2826927E-06 ( -60.59%)
   displ. norm   :     0.0368223 α      lambda       -0.1863123E-05
   maximum displ.:     0.0166437 α      in ANC's #4, #7, #6, ...

   *** GEOMETRY OPTIMIZATION CONVERGED AFTER 95 ITERATIONS ***

------------------------------------------------------------------------
 total energy gain   :        -0.0122753 Eh       -7.7029 kcal/mol
 total RMSD          :         1.3703165 a0        0.7251 Å
 total power (kW/mol):        -0.3392510 (step)   -2.7813 (real)
------------------------------------------------------------------------

 ANCopt (total)                0 d,  0 h,  0 min, 11.588 sec
 optimizer setup                ...        0 min,  0.001 sec (  0.005%)
 model hessian                  ...        0 min,  0.026 sec (  0.226%)
 ANC generation                 ...        0 min,  0.025 sec (  0.220%)
 coordinate transformation      ...        0 min,  0.001 sec (  0.006%)
 single point calculation       ...        0 min, 11.196 sec ( 96.620%)
 optimization log               ...        0 min,  0.009 sec (  0.076%)
 hessian update                 ...        0 min,  0.308 sec (  2.656%)
 rational function              ...        0 min,  0.009 sec (  0.075%)

================
 final structure:
================
20
 xtb: 6.7.1 (edcfbbe)
C            3.15124435140681        0.58873644672851       -0.08838907596214
C            2.15697624495127       -0.38504040915713        0.52493779280064
O            1.02463894532454       -0.57354041493858       -0.32988776634306
C            0.05622098456554        0.31704114342451       -0.26089239902730
O            0.00629043143690        1.25070502712707        0.49900278436494
C           -1.07762154963804       -0.01587440325620       -1.25172934095256
O           -0.67564192160546       -0.87947121043982       -2.26402622662840
C           -2.18093280383778       -0.64480991370264       -0.38910629907239
C           -2.95607182581560        0.30668234192342        0.45914687995056
O           -2.33685384083670       -1.83959087141515       -0.42893915066390
H            2.70372789832577        1.57646761854129       -0.17059557345600
H            3.44395134652746        0.24964204787168       -1.07904552330412
H            4.03337728171922        0.65309543807084        0.54186022262052
H            1.80966430814965       -0.01764739979502        1.49602424825739
H            2.59286063085597       -1.37978012863468        0.63368645694585
H           -1.42147932839158        0.92522654797654       -1.69268762802122
H           -0.88045884322076       -1.78284280041114       -1.96949431022450
H           -2.28059388725726        1.02902921382225        0.91400334441934
H           -3.65320268737157        0.85352988993796       -0.17407599552254
H           -3.51609573528712       -0.23155816367295        1.21932349034192

 Bond Distances (Angstroems)
 ---------------------------
C1-C2=1.5208         C1-H11=1.0875        C1-H12=1.0872        C1-H13=1.0861        C2-C1=1.5208         C2-O3=1.4312         
C2-H14=1.0948        C2-H15=1.0915        O3-C2=1.4312         O3-C4=1.3175         C4-O3=1.3175         C4-O5=1.2048         
C4-C6=1.5421         O5-C4=1.2048         C6-C4=1.5421         C6-O7=1.3900         C6-C8=1.5352         C6-H16=1.0947        
O7-C6=1.3900         O7-H17=0.9720        C8-C6=1.5352         C8-C9=1.4919         C8-O10=1.2056        C9-C8=1.4919         
C9-H18=1.0886        C9-H19=1.0890        C9-H20=1.0868        O10-C8=1.2056        H11-C1=1.0875        H12-C1=1.0872        
H13-C1=1.0861        H14-C2=1.0948        H15-C2=1.0915        H16-C6=1.0947        H17-O7=0.9720        H18-C9=1.0886        
H19-C9=1.0890        H20-C9=1.0868        
 C  H  Rav=1.0896 sigma=0.0031  Rmin=1.0861  Rmax=1.0948     9
 C  C  Rav=1.5225 sigma=0.0193  Rmin=1.4919  Rmax=1.5421     4
 O  H  Rav=0.9720 sigma=0.0000  Rmin=0.9720  Rmax=0.9720     1
 O  C  Rav=1.3098 sigma=0.0929  Rmin=1.2048  Rmax=1.4312     5

 selected bond angles (degree)
 --------------------
H11-C1-C2=110.06               H12-C1-C2=110.11               H12-C1-H11=108.98              H13-C1-C2=109.57               
H13-C1-H11=108.92              H13-C1-H12=109.18              O3-C2-C1=111.14                H14-C2-C1=110.50               
H14-C2-O3=108.84               H15-C2-C1=111.26               H15-C2-O3=104.80               H15-C2-H14=110.13              
C4-O3-C2=117.47                O5-C4-O3=125.97                C6-C4-O3=111.15                C6-C4-O5=122.82                
O7-C6-C4=112.92                C8-C6-C4=104.82                C8-C6-O7=111.25                H16-C6-C4=107.71               
H16-C6-O7=109.37               H16-C6-C8=110.66               H17-O7-C6=107.21               C9-C8-C6=115.57                
O10-C8-C6=118.71               O10-C8-C9=125.71               H18-C9-C8=109.78               H19-C9-C8=108.80               
H19-C9-H18=107.88              H20-C9-C8=110.46               H20-C9-H18=110.86              H20-C9-H19=109.00              

 selected dihedral angles (degree)
 ---------------------------------
O3-C2-C1-H11= 64.67           O3-C2-C1-H12=304.52           O3-C2-C1-H13=184.42           H14-C2-C1-H11=303.72          
H14-C2-C1-H12=183.56          H14-C2-C1-H13= 63.47          H15-C2-C1-H11=181.05          H15-C2-C1-H12= 60.90          
H15-C2-C1-H13=300.80          C4-O3-C2-C1=276.77            C4-O3-C2-H14= 38.69           C4-O3-C2-H15=156.48           
O5-C4-O3-C2=356.61            C6-C4-O3-C2=179.28            O7-C6-C4-O3=340.80            O7-C6-C4-O5=163.38            
C8-C6-C4-O3=102.06            C8-C6-C4-O5=284.64            H16-C6-C4-O3=219.94           H16-C6-C4-O5= 42.52           
H17-O7-C6-C4= 92.98           H17-O7-C6-C8=335.43           H17-O7-C6-H16=212.89          C9-C8-C6-C4= 74.61            
C9-C8-C6-O7=196.97            C9-C8-C6-H16=318.76           O10-C8-C6-C4=255.84           O10-C8-C6-O7= 18.20           
O10-C8-C6-H16=139.99          H18-C9-C8-C6=317.82           H18-C9-C8-O10=136.49          H19-C9-C8-C6= 75.66           
H19-C9-C8-O10=254.33          H20-C9-C8-C6=195.27           H20-C9-C8-O10= 13.94          
           -------------------------------------------------
          |                Final Singlepoint                |
           -------------------------------------------------

          ...................................................
          :                      SETUP                      :
          :.................................................:
          :  # basis functions                  50          :
          :  # atomic orbitals                  50          :
          :  # shells                           30          :
          :  # electrons                        58          :
          :  max. iterations                   250          :
          :  Hamiltonian                  GFN2-xTB          :
          :  restarted?                      false          :
          :  GBSA solvation                  false          :
          :  PC potential                    false          :
          :  electronic temp.          300.0000000     K    :
          :  accuracy                    1.0000000          :
          :  -> integral cutoff          0.2500000E+02      :
          :  -> integral neglect         0.1000000E-07      :
          :  -> SCF convergence          0.1000000E-05 Eh   :
          :  -> wf. convergence          0.1000000E-03 e    :
          :  Broyden damping             0.4000000          :
          :  net charge                          0          :
          :  unpaired electrons                  0          :
          ...................................................

 iter      E             dE          RMSdq      gap      omega  full diag
   1    -34.5386324 -0.345386E+02  0.385E-05    3.54       0.0  T
   2    -34.5386324 -0.529354E-11  0.241E-05    3.54     926.0  T
   3    -34.5386324 -0.120082E-11  0.152E-05    3.54    1471.1  T

   *** convergence criteria satisfied after 3 iterations ***

         #    Occupation            Energy/Eh            Energy/eV
      -------------------------------------------------------------
         1        2.0000           -0.7618615             -20.7313
       ...           ...                  ...                  ...
        23        2.0000           -0.4826085             -13.1324
        24        2.0000           -0.4806102             -13.0781
        25        2.0000           -0.4680657             -12.7367
        26        2.0000           -0.4599380             -12.5155
        27        2.0000           -0.4584118             -12.4740
        28        2.0000           -0.4302864             -11.7087
        29        2.0000           -0.4082292             -11.1085 (HOMO)
        30                         -0.2782851              -7.5725 (LUMO)
        31                         -0.2377164              -6.4686
        32                         -0.0138648              -0.3773
        33                          0.0476361               1.2962
        34                          0.0644133               1.7528
       ...                                ...                  ...
        50                          0.6366713              17.3247
      -------------------------------------------------------------
                  HL-Gap            0.1299441 Eh            3.5360 eV
             Fermi-level           -0.3432572 Eh           -9.3405 eV

 SCC (total)                   0 d,  0 h,  0 min,  0.079 sec
 SCC setup                      ...        0 min,  0.002 sec (  2.112%)
 Dispersion                     ...        0 min,  0.006 sec (  7.946%)
 classical contributions        ...        0 min,  0.003 sec (  3.857%)
 integral evaluation            ...        0 min,  0.010 sec ( 12.310%)
 iterations                     ...        0 min,  0.030 sec ( 37.812%)
 molecular gradient             ...        0 min,  0.028 sec ( 35.771%)
 printout                       ...        0 min,  0.000 sec (  0.154%)

         :::::::::::::::::::::::::::::::::::::::::::::::::::::
         ::                     SUMMARY                     ::
         :::::::::::::::::::::::::::::::::::::::::::::::::::::
         :: total energy             -34.208761536607 Eh    ::
         :: gradient norm              0.000278783009 Eh/a0 ::
         :: HOMO-LUMO gap              3.535957730381 eV    ::
         ::.................................................::
         :: SCC energy               -34.538588774259 Eh    ::
         :: -> isotropic ES            0.088726438209 Eh    ::
         :: -> anisotropic ES          0.000402475783 Eh    ::
         :: -> anisotropic XC          0.001804246055 Eh    ::
         :: -> dispersion             -0.013418971719 Eh    ::
         :: repulsion energy           0.329827237652 Eh    ::
         :: add. restraining           0.000000000000 Eh    ::
         :: total charge              -0.000000000000 e     ::
         :::::::::::::::::::::::::::::::::::::::::::::::::::::

           -------------------------------------------------
          |                Property Printout                |
           -------------------------------------------------

    * Orbital Energies and Occupations

         #    Occupation            Energy/Eh            Energy/eV
      -------------------------------------------------------------
         1        2.0000           -0.7618615             -20.7313
       ...           ...                  ...                  ...
        17        2.0000           -0.5292551             -14.4018
        18        2.0000           -0.5247733             -14.2798
        19        2.0000           -0.5194466             -14.1349
        20        2.0000           -0.5059133             -13.7666
        21        2.0000           -0.5049761             -13.7411
        22        2.0000           -0.4929661             -13.4143
        23        2.0000           -0.4826085             -13.1324
        24        2.0000           -0.4806102             -13.0781
        25        2.0000           -0.4680657             -12.7367
        26        2.0000           -0.4599380             -12.5155
        27        2.0000           -0.4584118             -12.4740
        28        2.0000           -0.4302864             -11.7087
        29        2.0000           -0.4082292             -11.1085 (HOMO)
        30                         -0.2782851              -7.5725 (LUMO)
        31                         -0.2377164              -6.4686
        32                         -0.0138648              -0.3773
        33                          0.0476361               1.2962
        34                          0.0644133               1.7528
        35                          0.0988707               2.6904
        36                          0.1087577               2.9594
        37                          0.1338292               3.6417
        38                          0.1406023               3.8260
        39                          0.1520040               4.1362
        40                          0.1550162               4.2182
       ...                                ...                  ...
        50                          0.6366713              17.3247
      -------------------------------------------------------------
                  HL-Gap            0.1299441 Eh            3.5360 eV
             Fermi-level           -0.3432572 Eh           -9.3405 eV

     #   Z          covCN         q      C6AA      α(0)
     1   6 C        3.750    -0.116    22.786     6.808
     2   6 C        3.702     0.076    19.461     6.308
     3   8 O        1.704    -0.232    17.844     5.703
     4   6 C        2.725     0.351    21.040     7.509
     5   8 O        0.856    -0.416    22.002     6.289
     6   6 C        3.727     0.066    19.563     6.315
     7   8 O        1.656    -0.421    21.264     6.225
     8   6 C        2.817     0.228    23.211     7.894
     9   6 C        3.754    -0.150    23.454     6.906
    10   8 O        0.857    -0.347    20.641     6.091
    11   1 H        0.925     0.062     2.177     2.307
    12   1 H        0.925     0.060     2.202     2.320
    13   1 H        0.925     0.055     2.259     2.351
    14   1 H        0.924     0.060     2.197     2.318
    15   1 H        0.924     0.065     2.142     2.288
    16   1 H        0.924     0.078     1.998     2.211
    17   1 H        0.804     0.322     0.659     1.276
    18   1 H        0.925     0.092     1.860     2.133
    19   1 H        0.925     0.086     1.919     2.166
    20   1 H        0.925     0.080     1.976     2.198

 Mol. C6AA /au·bohr⁶  :       3543.924976
 Mol. C8AA /au·bohr⁸  :      77358.000374
 Mol. α(0) /au        :         87.615536


Wiberg/Mayer (AO) data.
largest (>0.10) Wiberg bond orders for each atom

 ---------------------------------------------------------------------------
     #   Z sym  total        # sym  WBO       # sym  WBO       # sym  WBO
 ---------------------------------------------------------------------------
     1   6 C    3.990 --     2 C    1.013    12 H    0.985    11 H    0.985
                            13 H    0.982
     2   6 C    3.918 --     1 C    1.013    15 H    0.971    14 H    0.969
                             3 O    0.925
     3   8 O    2.353 --     4 C    1.186     2 C    0.925     5 O    0.179
     4   6 C    3.925 --     5 O    1.725     3 O    1.186     6 C    0.899
     5   8 O    2.041 --     4 C    1.725     3 O    0.179
     6   6 C    3.968 --     7 O    1.029    16 H    0.937     8 C    0.932
                             4 C    0.899
     7   8 O    1.981 --     6 C    1.029    17 H    0.865
     8   6 C    3.921 --    10 O    1.850     9 C    1.026     6 C    0.932
     9   6 C    3.990 --     8 C    1.026    20 H    0.977    18 H    0.955
                            19 H    0.946
    10   8 O    2.103 --     8 C    1.850
    11   1 H    0.996 --     1 C    0.985
    12   1 H    0.996 --     1 C    0.985
    13   1 H    0.996 --     1 C    0.982
    14   1 H    0.996 --     2 C    0.969
    15   1 H    0.996 --     2 C    0.971
    16   1 H    0.994 --     6 C    0.937
    17   1 H    0.897 --     7 O    0.865
    18   1 H    0.992 --     9 C    0.955
    19   1 H    0.993 --     9 C    0.946
    20   1 H    0.994 --     9 C    0.977
 ---------------------------------------------------------------------------

Topologies differ in total number of bonds
Writing topology from bond orders to xtbtopo.mol

molecular dipole:
                 x           y           z       tot (Debye)
 q only:        0.410       0.276       0.332
   full:        0.332       0.296       0.438       1.586
molecular quadrupole (traceless):
                xx          xy          yy          xz          yz          zz
 q only:       10.256      -6.491      -5.926       0.477      -2.303      -4.330
  q+dip:       10.575      -7.444      -5.698       0.780      -4.137      -4.877
   full:       10.781      -7.206      -6.261       1.085      -4.326      -4.521

           -------------------------------------------------
          |                Geometry Summary                 |
           -------------------------------------------------

      molecular mass/u    :      146.1414426
   center of mass at/Å    :       -0.2672821      -0.1969084      -0.3609280
  moments of inertia/u·Å² :        0.2070729E+03   0.6153290E+03   0.6968822E+03
rotational constants/cm⁻¹ :        0.8140918E-01   0.2739613E-01   0.2419007E-01

 * 16 selected distances

     #   Z          #   Z                                           value/Å
     1   6 C        2   6 C                                       1.5208487 (max)
     2   6 C        3   8 O                                       1.4312397
     3   8 O        4   6 C                                       1.3174709
     4   6 C        5   8 O                                       1.2048495
     6   6 C        7   8 O                                       1.3900117
     8   6 C       10   8 O                                       1.2055703
     1   6 C       11   1 H                                       1.0874934
     1   6 C       12   1 H                                       1.0872271
     1   6 C       13   1 H                                       1.0860548
     2   6 C       14   1 H                                       1.0948116
     2   6 C       15   1 H                                       1.0914801
     6   6 C       16   1 H                                       1.0946934
     7   8 O       17   1 H                                       0.9719976 (min)
     9   6 C       18   1 H                                       1.0885541
     9   6 C       19   1 H                                       1.0890386
     9   6 C       20   1 H                                       1.0868295

 * 4 distinct bonds (by element types)

   Z      Z             #   av. dist./Å        max./Å        min./Å
   1 H    6 C           9     1.0895758     1.0948116     1.0860548
   6 C    6 C           1     1.5208487     1.5208487     1.5208487
   1 H    8 O           1     0.9719976     0.9719976     0.9719976
   6 C    8 O           5     1.3098284     1.4312397     1.2048495


optimized geometry written to: xtbopt.xyz


           -------------------------------------------------
          | TOTAL ENERGY              -34.208761536607 Eh   |
          | GRADIENT NORM               0.000278783009 Eh/α |
          | HOMO-LUMO GAP               3.535957730381 eV   |
           -------------------------------------------------

------------------------------------------------------------------------
 * finished run on 2026/07/09 at 01:06:28.865     
------------------------------------------------------------------------
 total:
 * wall-time:     0 d,  0 h,  0 min, 11.985 sec
 *  cpu-time:     0 d,  0 h,  3 min, 11.097 sec
 * ratio c/w:    15.944 speedup
 SCF:
 * wall-time:     0 d,  0 h,  0 min,  0.248 sec
 *  cpu-time:     0 d,  0 h,  0 min,  3.964 sec
 * ratio c/w:    15.993 speedup
 ANC optimizer:
 * wall-time:     0 d,  0 h,  0 min, 11.671 sec
 *  cpu-time:     0 d,  0 h,  3 min,  6.137 sec
 * ratio c/w:    15.948 speedup

