      -----------------------------------------------------------      
     |                   =====================                   |     
     |                           x T B                           |     
     |                   =====================                   |     
     |                         S. Grimme                         |     
     |          Mulliken Center for Theoretical Chemistry        |     
     |                    University of Bonn                     |     
      -----------------------------------------------------------      

   * xtb version 6.7.1 (edcfbbe) compiled by 'conda@5dfe00f5fb80' on 2026-06-10

   xtb is free software: you can redistribute it and/or modify it under
   the terms of the GNU Lesser General Public License as published by
   the Free Software Foundation, either version 3 of the License, or
   (at your option) any later version.
   
   xtb is distributed in the hope that it will be useful,
   but WITHOUT ANY WARRANTY; without even the implied warranty of
   MERCHANTABILITY or FITNESS FOR A PARTICULAR PURPOSE.  See the
   GNU Lesser General Public License for more details.
   
   Cite this work as:
   * C. Bannwarth, E. Caldeweyher, S. Ehlert, A. Hansen, P. Pracht,
     J. Seibert, S. Spicher, S. Grimme, WIREs Comput. Mol. Sci., 2020, 11,
     e01493. DOI: 10.1002/wcms.1493
   
   for GFN2-xTB:
   * C. Bannwarth, S. Ehlert and S. Grimme., J. Chem. Theory Comput., 2019,
     15, 1652-1671. DOI: 10.1021/acs.jctc.8b01176
   for GFN1-xTB:
   * S. Grimme, C. Bannwarth, P. Shushkov, J. Chem. Theory Comput., 2017,
     13, 1989-2009. DOI: 10.1021/acs.jctc.7b00118
   for GFN0-xTB:
   * P. Pracht, E. Caldeweyher, S. Ehlert, S. Grimme, ChemRxiv, 2019, preprint.
     DOI: 10.26434/chemrxiv.8326202.v1
   for GFN-FF:
   * S. Spicher and S. Grimme, Angew. Chem. Int. Ed., 2020, 59, 15665-15673.
     DOI: 10.1002/anie.202004239
   
   for ALPB and GBSA implicit solvation:
   * S. Ehlert, M. Stahn, S. Spicher, S. Grimme, J. Chem. Theory Comput.,
     2021, 17, 4250-4261. DOI: 10.1021/acs.jctc.1c00471
   
   for ddCOSMO and CPCM-X implicit solvation:
   * M. Stahn, S. Ehlert, S. Grimme, J. Phys. Chem. A,
     2023, XX, XXXX-XXXX. DOI: 10.1021/acs.jpca.3c04382
   
   for DFT-D4:
   * E. Caldeweyher, C. Bannwarth and S. Grimme, J. Chem. Phys., 2017,
     147, 034112. DOI: 10.1063/1.4993215
   * E. Caldeweyher, S. Ehlert, A. Hansen, H. Neugebauer, S. Spicher,
     C. Bannwarth and S. Grimme, J. Chem. Phys., 2019, 150, 154122.
     DOI: 10.1063/1.5090222
   * E. Caldeweyher, J.-M. Mewes, S. Ehlert and S. Grimme, Phys. Chem. Chem. Phys.
     2020, 22, 8499-8512. DOI: 10.1039/D0CP00502A
   
   for sTDA-xTB:
   * S. Grimme and C. Bannwarth, J. Chem. Phys., 2016, 145, 054103.
     DOI: 10.1063/1.4959605
   
   in the mass-spec context:
   * V. Asgeirsson, C. Bauer and S. Grimme, Chem. Sci., 2017, 8, 4879.
     DOI: 10.1039/c7sc00601b
   * J. Koopman and S. Grimme, ACS Omega 2019, 4, 12, 15120-15133.
     DOI: 10.1021/acsomega.9b02011
   
   for metadynamics refer to:
   * S. Grimme, J. Chem. Theory Comput., 2019, 155, 2847-2862
     DOI: 10.1021/acs.jctc.9b00143
   
   for SPH calculations refer to:
   * S. Spicher and S. Grimme, J. Chem. Theory Comput., 2021, 17, 1701-1714
     DOI: 10.1021/acs.jctc.0c01306
   
   for ONIOM refer to:
   * C. Plett, A. Katbashev, S. Ehlert, S. Grimme, M. Bursch,
     Phys. Chem. Chem. Phys., 2023, 25, 17860-17868. DOI: 10.1039/D3CP02178E
   
   for DIPRO refer to:
   * J. Kohn, N. Gildemeister, S. Grimme, D. Fazzi, A. Hansen,
     J. Chem. Phys., 2023, just accepted.
   
   for PTB refer to:
   * S. Grimme, M. Mueller, A. Hansen, J. Chem. Phys., 2023, 158, 124111.
     DOI: 10.1063/5.0137838
   
   with help from (in alphabetical order)
   P. Atkinson, C. Bannwarth, F. Bohle, G. Brandenburg, E. Caldeweyher
   M. Checinski, S. Dohm, S. Ehlert, S. Ehrlich, I. Gerasimov, C. Hölzer
   A. Katbashev, J. Kohn, J. Koopman, C. Lavigne, S. Lehtola, F. März, M. Müller,
   F. Musil, H. Neugebauer, J. Pisarek, C. Plett, P. Pracht, F. Pultar,
   J. Seibert, P. Shushkov, S. Spicher, M. Stahn, M. Steiner, T. Strunk,
   J. Stückrath, T. Rose, and J. Unsleber
   
 * started run on 2026/07/08 at 18:16:02.860     
   ID    Z sym.   atoms
    1    6 C      1-5, 7
    2    8 O      6
    3    1 H      8-21

           -------------------------------------------------
          |                Calculation Setup                |
           -------------------------------------------------

          program call               : /home/ws/xd2484/miniforge3/envs/p3z_dft/bin/xtb xtb_input.xyz --gfn 2 --opt tight --cycles 500 --chrg 0 --uhf 0
          hostname                   : gpu10
          coordinate file            : xtb_input.xyz
          omp threads                :                    16


           -------------------------------------------------
          |                 G F N 2 - x T B                 |
           -------------------------------------------------

        Reference                      10.1021/acs.jctc.8b01176
      * Hamiltonian:
        H0-scaling (s, p, d)           1.850000    2.230000    2.230000
        zeta-weighting                 0.500000
      * Dispersion:
        s8                             2.700000
        a1                             0.520000
        a2                             5.000000
        s9                             5.000000
      * Repulsion:
        kExp                           1.500000    1.000000
        rExp                           1.000000
      * Coulomb:
        alpha                          2.000000
        third order                    shell-resolved
        anisotropic                    true
        a3                             3.000000
        a5                             4.000000
        cn-shift                       1.200000
        cn-exp                         4.000000
        max-rad                        5.000000


          ...................................................
          :                      SETUP                      :
          :.................................................:
          :  # basis functions                  42          :
          :  # atomic orbitals                  42          :
          :  # shells                           28          :
          :  # electrons                        44          :
          :  max. iterations                   250          :
          :  Hamiltonian                  GFN2-xTB          :
          :  restarted?                      false          :
          :  GBSA solvation                  false          :
          :  PC potential                    false          :
          :  electronic temp.          300.0000000     K    :
          :  accuracy                    1.0000000          :
          :  -> integral cutoff          0.2500000E+02      :
          :  -> integral neglect         0.1000000E-07      :
          :  -> SCF convergence          0.1000000E-05 Eh   :
          :  -> wf. convergence          0.1000000E-03 e    :
          :  Broyden damping             0.4000000          :
          :  net charge                          0          :
          :  unpaired electrons                  0          :
          ...................................................

 iter      E             dE          RMSdq      gap      omega  full diag
   1    -24.2813188 -0.242813E+02  0.310E+00   10.97       0.0  T
   2    -24.3402970 -0.589782E-01  0.158E+00   10.55       1.0  T
   3    -24.3412777 -0.980692E-03  0.758E-01   10.68       1.0  T
   4    -24.3416257 -0.347951E-03  0.195E-01   10.67       1.0  T
   5    -24.3419419 -0.316174E-03  0.670E-02   10.70       1.0  T
   6    -24.3419425 -0.666079E-06  0.131E-02   10.71       1.7  T
   7    -24.3419433 -0.752131E-06  0.318E-03   10.71       6.9  T
   8    -24.3419433 -0.183522E-07  0.156E-03   10.71      14.0  T
   9    -24.3419433 -0.276369E-08  0.488E-04   10.71      44.7  T
  10    -24.3419433 -0.458119E-09  0.128E-04   10.71     170.3  T

   *** convergence criteria satisfied after 10 iterations ***

         #    Occupation            Energy/Eh            Energy/eV
      -------------------------------------------------------------
         1        2.0000           -0.6813806             -18.5413
       ...           ...                  ...                  ...
        16        2.0000           -0.4558703             -12.4049
        17        2.0000           -0.4520762             -12.3016
        18        2.0000           -0.4484603             -12.2032
        19        2.0000           -0.4393933             -11.9565
        20        2.0000           -0.4298804             -11.6976
        21        2.0000           -0.4185546             -11.3895
        22        2.0000           -0.3870409             -10.5319 (HOMO)
        23                          0.0066042               0.1797 (LUMO)
        24                          0.0616673               1.6781
        25                          0.0749160               2.0386
        26                          0.0942953               2.5659
        27                          0.1118680               3.0441
       ...                                ...                  ...
        42                          0.2903880               7.9019
      -------------------------------------------------------------
                  HL-Gap            0.3936451 Eh           10.7116 eV
             Fermi-level           -0.1902184 Eh           -5.1761 eV

 SCC (total)                   0 d,  0 h,  0 min,  0.211 sec
 SCC setup                      ...        0 min,  0.003 sec (  1.474%)
 Dispersion                     ...        0 min,  0.008 sec (  3.564%)
 classical contributions        ...        0 min,  0.004 sec (  1.746%)
 integral evaluation            ...        0 min,  0.014 sec (  6.607%)
 iterations                     ...        0 min,  0.145 sec ( 68.499%)
 molecular gradient             ...        0 min,  0.038 sec ( 18.022%)
 printout                       ...        0 min,  0.000 sec (  0.072%)

         :::::::::::::::::::::::::::::::::::::::::::::::::::::
         ::                     SUMMARY                     ::
         :::::::::::::::::::::::::::::::::::::::::::::::::::::
         :: total energy             -24.049975691155 Eh    ::
         :: gradient norm              0.026017287592 Eh/a0 ::
         :: HOMO-LUMO gap             10.711627655605 eV    ::
         ::.................................................::
         :: SCC energy               -24.341856780479 Eh    ::
         :: -> isotropic ES            0.022748924410 Eh    ::
         :: -> anisotropic ES          0.007780667119 Eh    ::
         :: -> anisotropic XC          0.009532129806 Eh    ::
         :: -> dispersion             -0.013529983177 Eh    ::
         :: repulsion energy           0.291881089324 Eh    ::
         :: add. restraining           0.000000000000 Eh    ::
         :: total charge               0.000000000000 e     ::
         :::::::::::::::::::::::::::::::::::::::::::::::::::::

      ----------------------------------------------------------- 
     |                   =====================                   |
     |                        A N C O P T                        |
     |                   =====================                   |
     |               Approximate Normal Coordinate               |
     |                Rational Function Optimizer                |
      ----------------------------------------------------------- 
      ----------------------------------------------------------- 
     |                   =====================                   |
     |                        A N C O P T                        |
     |                   =====================                   |
     |               Approximate Normal Coordinate               |
     |                Rational Function Optimizer                |
      ----------------------------------------------------------- 

          ...................................................
          :                      SETUP                      :
          :.................................................:
          :   optimization level             tight          :
          :   max. optcycles                   500          :
          :   ANC micro-cycles                  20          :
          :   degrees of freedom                57          :
          :.................................................:
          :   RF solver                   davidson          :
          :   write xtbopt.log                true          :
          :   linear?                        false          :
          :   energy convergence         0.1000000E-05 Eh   :
          :   grad. convergence          0.8000000E-03 Eh/α :
          :   maxmium RF displ.          1.0000000          :
          :   Hlow (freq-cutoff)         0.1000000E-01      :
          :   Hmax (freq-cutoff)         5.0000000          :
          :   S6 in model hess.         20.0000000          :
          ...................................................

generating ANC from exact Hessian ...
Using Lindh-Hessian (1995)
 Shifting diagonal of input Hessian by    7.8228341788951807E-003
 Lowest  eigenvalues of input Hessian
    0.000000    0.000000    0.000000    0.000000    0.000000    0.000000
    0.010000    0.011436    0.012354    0.014177    0.014642    0.016633
    0.017155    0.017979    0.019834    0.023270    0.026514    0.039916
 Highest eigenvalues
    1.139813    1.177075    1.204291    1.260456    1.274851    1.519404


........................................................................
.............................. CYCLE    1 ..............................
........................................................................

 iter      E             dE          RMSdq      gap      omega  full diag
   1    -24.3419433 -0.243419E+02  0.520E-05   10.71       0.0  T
   2    -24.3419433 -0.291323E-11  0.340E-05   10.71     641.0  T
   3    -24.3419433 -0.143530E-11  0.682E-06   10.71    3198.9  T
     SCC iter.                  ...        0 min,  0.036 sec
     gradient                   ...        0 min,  0.040 sec
 * total energy  :   -24.0499757 Eh     change       -0.4134293E-10 Eh
   gradient norm :     0.0260181 Eh/α   predicted     0.0000000E+00 (-100.00%)
   displ. norm   :     0.1887806 α      lambda       -0.2559668E-02
   maximum displ.:     0.0848219 α      in ANC's #15, #21, #12, ...

........................................................................
.............................. CYCLE    2 ..............................
........................................................................

 iter      E             dE          RMSdq      gap      omega  full diag
   1    -24.3526630 -0.243527E+02  0.156E-01   10.96       0.0  T
   2    -24.3526725 -0.952509E-05  0.910E-02   10.97       1.0  T
   3    -24.3526729 -0.363174E-06  0.961E-03   10.97       2.3  T
   4    -24.3526734 -0.471586E-06  0.271E-03   10.97       8.1  T
   5    -24.3526734 -0.570085E-07  0.120E-03   10.97      18.3  T
   6    -24.3526734 -0.216749E-08  0.346E-04   10.97      63.1  T
   7    -24.3526734 -0.174072E-09  0.117E-04   10.97     186.9  T
     SCC iter.                  ...        0 min,  0.089 sec
     gradient                   ...        0 min,  0.034 sec
 * total energy  :   -24.0515725 Eh     change       -0.1596818E-02 Eh
   gradient norm :     0.0099235 Eh/α   predicted    -0.1325456E-02 ( -16.99%)
   displ. norm   :     0.1148053 α      lambda       -0.3990177E-03
   maximum displ.:     0.0527914 α      in ANC's #5, #6, #9, ...

........................................................................
.............................. CYCLE    3 ..............................
........................................................................

 iter      E             dE          RMSdq      gap      omega  full diag
   1    -24.3571032 -0.243571E+02  0.678E-02   11.07       0.0  T
   2    -24.3571073 -0.409538E-05  0.391E-02   11.07       1.0  T
   3    -24.3571074 -0.153242E-06  0.678E-03   11.07       3.2  T
   4    -24.3571075 -0.730798E-07  0.144E-03   11.07      15.1  T
   5    -24.3571075 -0.111451E-07  0.704E-04   11.07      31.0  T
   6    -24.3571075 -0.136592E-08  0.315E-04   11.07      69.3  T
     SCC iter.                  ...        0 min,  0.074 sec
     gradient                   ...        0 min,  0.039 sec
 * total energy  :   -24.0518024 Eh     change       -0.2299257E-03 Eh
   gradient norm :     0.0026155 Eh/α   predicted    -0.2024399E-03 ( -11.95%)
   displ. norm   :     0.0650686 α      lambda       -0.5988961E-04
   maximum displ.:     0.0310926 α      in ANC's #9, #7, #4, ...

........................................................................
.............................. CYCLE    4 ..............................
........................................................................

 iter      E             dE          RMSdq      gap      omega  full diag
   1    -24.3573717 -0.243574E+02  0.208E-02   11.09       0.0  T
   2    -24.3573718 -0.182111E-06  0.124E-02   11.09       1.8  T
   3    -24.3573719 -0.149717E-07  0.127E-03   11.09      17.2  T
   4    -24.3573719 -0.407638E-08  0.409E-04   11.09      53.4  T
   5    -24.3573719 -0.360874E-09  0.176E-04   11.09     124.0  T
     SCC iter.                  ...        0 min,  0.072 sec
     gradient                   ...        0 min,  0.034 sec
 * total energy  :   -24.0518472 Eh     change       -0.4472159E-04 Eh
   gradient norm :     0.0013331 Eh/α   predicted    -0.3007358E-04 ( -32.75%)
   displ. norm   :     0.1527138 α      lambda       -0.5783718E-04
   maximum displ.:     0.0809886 α      in ANC's #4, #7, #9, ...

........................................................................
.............................. CYCLE    5 ..............................
........................................................................

 iter      E             dE          RMSdq      gap      omega  full diag
   1    -24.3563915 -0.243564E+02  0.393E-02   11.11       0.0  T
   2    -24.3563920 -0.419470E-06  0.236E-02   11.11       1.0  T
   3    -24.3563920 -0.549527E-07  0.200E-03   11.11      10.9  T
   4    -24.3563920 -0.123525E-07  0.768E-04   11.11      28.4  T
   5    -24.3563920 -0.121025E-08  0.328E-04   11.11      66.6  T
     SCC iter.                  ...        0 min,  0.055 sec
     gradient                   ...        0 min,  0.035 sec
 * total energy  :   -24.0518899 Eh     change       -0.4274875E-04 Eh
   gradient norm :     0.0028307 Eh/α   predicted    -0.2921846E-04 ( -31.65%)
   displ. norm   :     0.0392302 α      lambda       -0.2096278E-04
   maximum displ.:     0.0187854 α      in ANC's #4, #7, #1, ...

........................................................................
.............................. CYCLE    6 ..............................
........................................................................

 iter      E             dE          RMSdq      gap      omega  full diag
   1    -24.3564459 -0.243564E+02  0.102E-02   11.11       0.0  T
   2    -24.3564459 -0.243010E-07  0.608E-03   11.11       3.6  T
   3    -24.3564459 -0.122223E-08  0.521E-04   11.11      41.9  T
   4    -24.3564459 -0.215981E-08  0.186E-04   11.11     117.4  T
     SCC iter.                  ...        0 min,  0.049 sec
     gradient                   ...        0 min,  0.041 sec
 * total energy  :   -24.0519086 Eh     change       -0.1865505E-04 Eh
   gradient norm :     0.0020912 Eh/α   predicted    -0.1051079E-04 ( -43.66%)
   displ. norm   :     0.1691723 α      lambda       -0.6724724E-04
   maximum displ.:     0.0788719 α      in ANC's #4, #7, #2, ...

........................................................................
.............................. CYCLE    7 ..............................
........................................................................

 iter      E             dE          RMSdq      gap      omega  full diag
   1    -24.3561965 -0.243562E+02  0.408E-02   11.09       0.0  T
   2    -24.3561967 -0.217303E-06  0.245E-02   11.09       1.0  T
   3    -24.3561968 -0.359061E-07  0.130E-03   11.09      16.8  T
   4    -24.3561968 -0.514363E-08  0.609E-04   11.09      35.8  T
   5    -24.3561968 -0.442093E-09  0.208E-04   11.09     104.8  T
     SCC iter.                  ...        0 min,  0.065 sec
     gradient                   ...        0 min,  0.039 sec
 * total energy  :   -24.0519466 Eh     change       -0.3805517E-04 Eh
   gradient norm :     0.0017334 Eh/α   predicted    -0.3460707E-04 (  -9.06%)
   displ. norm   :     0.0572124 α      lambda       -0.9084198E-05
   maximum displ.:     0.0313150 α      in ANC's #2, #1, #7, ...

........................................................................
.............................. CYCLE    8 ..............................
........................................................................

 iter      E             dE          RMSdq      gap      omega  full diag
   1    -24.3568653 -0.243569E+02  0.141E-02   11.09       0.0  T
   2    -24.3568654 -0.114221E-06  0.826E-03   11.09       2.6  T
   3    -24.3568654 -0.254455E-08  0.126E-03   11.09      17.4  T
   4    -24.3568655 -0.504893E-08  0.308E-04   11.09      70.9  T
   5    -24.3568655 -0.384464E-09  0.160E-04   11.09     136.5  T
     SCC iter.                  ...        0 min,  0.061 sec
     gradient                   ...        0 min,  0.033 sec
 * total energy  :   -24.0519550 Eh     change       -0.8358894E-05 Eh
   gradient norm :     0.0007626 Eh/α   predicted    -0.4548908E-05 ( -45.58%)
   displ. norm   :     0.0634277 α      lambda       -0.5042997E-05
   maximum displ.:     0.0388832 α      in ANC's #2, #1, #4, ...

........................................................................
.............................. CYCLE    9 ..............................
........................................................................

 iter      E             dE          RMSdq      gap      omega  full diag
   1    -24.3568584 -0.243569E+02  0.148E-02   11.09       0.0  T
   2    -24.3568585 -0.179275E-07  0.888E-03   11.09       2.5  T
   3    -24.3568585 -0.188389E-08  0.515E-04   11.09      42.4  T
   4    -24.3568585 -0.276118E-08  0.237E-04   11.09      91.9  T
     SCC iter.                  ...        0 min,  0.078 sec
     gradient                   ...        0 min,  0.050 sec
 * total energy  :   -24.0519598 Eh     change       -0.4783627E-05 Eh
   gradient norm :     0.0004163 Eh/α   predicted    -0.2528446E-05 ( -47.14%)
   displ. norm   :     0.0299420 α      lambda       -0.2959389E-05
   maximum displ.:     0.0185254 α      in ANC's #2, #1, #5, ...

........................................................................
.............................. CYCLE   10 ..............................
........................................................................

 iter      E             dE          RMSdq      gap      omega  full diag
   1    -24.3571466 -0.243571E+02  0.759E-03   11.10       0.0  T
   2    -24.3571466 -0.328290E-07  0.443E-03   11.10       4.9  T
   3    -24.3571466 -0.167208E-08  0.604E-04   11.10      36.1  T
   4    -24.3571466 -0.520373E-09  0.158E-04   11.10     138.0  T
     SCC iter.                  ...        0 min,  0.068 sec
     gradient                   ...        0 min,  0.045 sec
 * total energy  :   -24.0519621 Eh     change       -0.2360326E-05 Eh
   gradient norm :     0.0008033 Eh/α   predicted    -0.1482826E-05 ( -37.18%)
   displ. norm   :     0.0239843 α      lambda       -0.1575901E-05
   maximum displ.:     0.0171455 α      in ANC's #2, #1, #4, ...

........................................................................
.............................. CYCLE   11 ..............................
........................................................................

 iter      E             dE          RMSdq      gap      omega  full diag
   1    -24.3569543 -0.243570E+02  0.557E-03   11.10       0.0  T
   2    -24.3569543 -0.687835E-08  0.331E-03   11.10       6.6  T
   3    -24.3569543 -0.189434E-09  0.227E-04   11.10      95.9  T
   4    -24.3569543 -0.458410E-09  0.911E-05   11.10     239.7  T
     SCC iter.                  ...        0 min,  0.055 sec
     gradient                   ...        0 min,  0.041 sec
 * total energy  :   -24.0519640 Eh     change       -0.1847627E-05 Eh
   gradient norm :     0.0003688 Eh/α   predicted    -0.7912692E-06 ( -57.17%)
   displ. norm   :     0.0240226 α      lambda       -0.1125245E-05
   maximum displ.:     0.0160826 α      in ANC's #1, #2, #3, ...

........................................................................
.............................. CYCLE   12 ..............................
........................................................................

 iter      E             dE          RMSdq      gap      omega  full diag
   1    -24.3568931 -0.243569E+02  0.541E-03   11.10       0.0  T
   2    -24.3568932 -0.449225E-08  0.322E-03   11.10       6.8  T
   3    -24.3568932 -0.240799E-09  0.197E-04   11.10     110.9  T
   4    -24.3568932 -0.327820E-09  0.853E-05   11.10     255.8  T
     SCC iter.                  ...        0 min,  0.059 sec
     gradient                   ...        0 min,  0.047 sec
 * total energy  :   -24.0519651 Eh     change       -0.1182525E-05 Eh
   gradient norm :     0.0001153 Eh/α   predicted    -0.5635594E-06 ( -52.34%)
   displ. norm   :     0.0187747 α      lambda       -0.4720183E-06
   maximum displ.:     0.0126448 α      in ANC's #1, #2, #3, ...

........................................................................
.............................. CYCLE   13 ..............................
........................................................................

 iter      E             dE          RMSdq      gap      omega  full diag
   1    -24.3568309 -0.243568E+02  0.445E-03   11.09       0.0  T
   2    -24.3568309 -0.154662E-08  0.264E-03   11.09       8.3  T
   3    -24.3568309 -0.224144E-09  0.137E-04   11.09     159.6  T
   4    -24.3568309 -0.110930E-09  0.629E-05   11.09     347.0  T
     SCC iter.                  ...        0 min,  0.070 sec
     gradient                   ...        0 min,  0.048 sec
 * total energy  :   -24.0519656 Eh     change       -0.4713432E-06 Eh
   gradient norm :     0.0001763 Eh/α   predicted    -0.2370736E-06 ( -49.70%)
   displ. norm   :     0.0141195 α      lambda       -0.2435737E-06
   maximum displ.:     0.0096178 α      in ANC's #1, #2, #3, ...

   *** GEOMETRY OPTIMIZATION CONVERGED AFTER 13 ITERATIONS ***

------------------------------------------------------------------------
 total energy gain   :        -0.0019899 Eh       -1.2487 kcal/mol
 total RMSD          :         0.1454643 a0        0.0770 Å
 total power (kW/mol):        -0.4018891 (step)   -2.8438 (real)
------------------------------------------------------------------------

 ANCopt (total)                0 d,  0 h,  0 min,  1.837 sec
 optimizer setup                ...        0 min,  0.001 sec (  0.038%)
 model hessian                  ...        0 min,  0.019 sec (  1.025%)
 ANC generation                 ...        0 min,  0.001 sec (  0.036%)
 coordinate transformation      ...        0 min,  0.000 sec (  0.006%)
 single point calculation       ...        0 min,  1.763 sec ( 95.953%)
 optimization log               ...        0 min,  0.001 sec (  0.066%)
 hessian update                 ...        0 min,  0.050 sec (  2.722%)
 rational function              ...        0 min,  0.001 sec (  0.059%)

================
 final structure:
================
21
 xtb: 6.7.1 (edcfbbe)
C            1.81073867780540       -1.16875063631637        0.34749893102703
C            1.14639104937677       -0.03806146399686       -0.43022003554329
C           -0.19883196548070        0.41582841708167        0.17654735674479
C           -0.79781557286718        1.52369957282433       -0.70168167557598
C           -0.00189752385220        0.95299166961211        1.59737195356545
O           -1.10040146480345       -0.67878867291782        0.34392471662564
C           -1.60260120381298       -1.29991470409375       -0.81070996024445
H            2.18773384941058       -0.81548212878342        1.30341798129719
H            1.09470886730971       -1.96569493600988        0.53338812683381
H            2.64589843808076       -1.57476941442478       -0.21944237863957
H            0.97617248424782       -0.36270767000822       -1.45959708676180
H            1.81021968234796        0.82723038450602       -0.47046997168010
H           -0.18896270123163        2.42003198742923       -0.62145794259599
H           -1.80649486627586        1.75671568735644       -0.36755378030897
H           -0.83216057145100        1.22692704579976       -1.74764255074209
H            0.26142371413195        0.13780542533736        2.26354569085116
H            0.78111994590835        1.70553525145027        1.61642635103019
H           -0.92969457138665        1.39297223825591        1.95281015061613
H           -2.20085262795490       -2.13746234173826       -0.45316611620300
H           -0.80898381813341       -1.68609249213232       -1.45888523722968
H           -2.24570982136841       -0.63201321923229       -1.39410452306446

 Bond Distances (Angstroems)
 ---------------------------
C1-C2=1.5247         C1-H8=1.0866         C1-H9=1.0874         C1-H10=1.0880        C2-C1=1.5247         C2-C3=1.5440         
C2-H11=1.0927        C2-H12=1.0913        C3-C2=1.5440         C3-C4=1.5354         C3-C5=1.5317         C3-O6=1.4279         
C4-C3=1.5354         C4-H13=1.0865        C4-H14=1.0878        C4-H15=1.0878        C5-C3=1.5317         C5-H16=1.0852        
C5-H17=1.0862        C5-H18=1.0866        O6-C3=1.4279         O6-C7=1.4040         C7-O6=1.4040         C7-H19=1.0896        
C7-H20=1.0950        C7-H21=1.0955        H8-C1=1.0866         H9-C1=1.0874         H10-C1=1.0880        H11-C2=1.0927        
H12-C2=1.0913        H13-C4=1.0865        H14-C4=1.0878        H15-C4=1.0878        H16-C5=1.0852        H17-C5=1.0862        
H18-C5=1.0866        H19-C7=1.0896        H20-C7=1.0950        H21-C7=1.0955        
 C  H  Rav=1.0890 sigma=0.0032  Rmin=1.0852  Rmax=1.0955    14
 C  C  Rav=1.5339 sigma=0.0070  Rmin=1.5247  Rmax=1.5440     4
 O  C  Rav=1.4160 sigma=0.0120  Rmin=1.4040  Rmax=1.4279     2

 selected bond angles (degree)
 --------------------
H8-C1-C2=111.03                H9-C1-C2=110.11                H9-C1-H8=108.44                H10-C1-C2=110.21               
H10-C1-H8=108.27               H10-C1-H9=108.73               C3-C2-C1=113.40                H11-C2-C1=109.15               
H11-C2-C3=108.77               H12-C2-C1=109.98               H12-C2-C3=108.14               H12-C2-H11=107.19              
C4-C3-C2=109.10                C5-C3-C2=110.83                C5-C3-C4=109.13                O6-C3-C2=111.77                
O6-C3-C4=111.95                O6-C3-C5=103.96                H13-C4-C3=109.54               H14-C4-C3=109.91               
H14-C4-H13=108.68              H15-C4-C3=111.44               H15-C4-H13=108.29              H15-C4-H14=108.94              
H16-C5-C3=109.71               H17-C5-C3=110.61               H17-C5-H16=109.56              H18-C5-C3=109.61               
H18-C5-H16=108.09              H18-C5-H17=109.22              C7-O6-C3=117.94                H19-C7-O6=105.46               
H20-C7-O6=112.56               H20-C7-H19=108.73              H21-C7-O6=112.22               H21-C7-H19=108.73              
H21-C7-H20=108.98              

 selected dihedral angles (degree)
 ---------------------------------
C3-C2-C1-H8=289.19            C3-C2-C1-H9= 49.30            C3-C2-C1-H10=169.23           H11-C2-C1-H8=167.75           
H11-C2-C1-H9=287.86           H11-C2-C1-H10= 47.80          H12-C2-C1-H8= 50.41           H12-C2-C1-H9=170.52           
H12-C2-C1-H10=290.46          C4-C3-C2-C1=181.60            C4-C3-C2-H11=303.25           C4-C3-C2-H12= 59.35           
C5-C3-C2-C1= 61.42            C5-C3-C2-H11=183.06           C5-C3-C2-H12=299.16           O6-C3-C2-C1=305.96            
O6-C3-C2-H11= 67.60           O6-C3-C2-H12=183.70           H13-C4-C3-C2=291.48           H13-C4-C3-C5= 52.71           
H13-C4-C3-O6=167.24           H14-C4-C3-C2=172.15           H14-C4-C3-C5=293.38           H14-C4-C3-O6= 47.91           
H15-C4-C3-C2= 51.28           H15-C4-C3-C5=172.51           H15-C4-C3-O6=287.04           H16-C5-C3-C2=290.69           
H16-C5-C3-C4=170.52           H16-C5-C3-O6= 50.92           H17-C5-C3-C2= 51.66           H17-C5-C3-C4=291.49           
H17-C5-C3-O6=171.89           H18-C5-C3-C2=172.15           H18-C5-C3-C4= 51.98           H18-C5-C3-O6=292.38           
C7-O6-C3-C2=292.60            C7-O6-C3-C4= 55.35            C7-O6-C3-C5=173.01            H19-C7-O6-C3=176.07           
H20-C7-O6-C3= 57.67           H21-C7-O6-C3=294.29           
           -------------------------------------------------
          |                Final Singlepoint                |
           -------------------------------------------------

          ...................................................
          :                      SETUP                      :
          :.................................................:
          :  # basis functions                  42          :
          :  # atomic orbitals                  42          :
          :  # shells                           28          :
          :  # electrons                        44          :
          :  max. iterations                   250          :
          :  Hamiltonian                  GFN2-xTB          :
          :  restarted?                      false          :
          :  GBSA solvation                  false          :
          :  PC potential                    false          :
          :  electronic temp.          300.0000000     K    :
          :  accuracy                    1.0000000          :
          :  -> integral cutoff          0.2500000E+02      :
          :  -> integral neglect         0.1000000E-07      :
          :  -> SCF convergence          0.1000000E-05 Eh   :
          :  -> wf. convergence          0.1000000E-03 e    :
          :  Broyden damping             0.4000000          :
          :  net charge                          0          :
          :  unpaired electrons                  0          :
          ...................................................

 iter      E             dE          RMSdq      gap      omega  full diag
   1    -24.3568309 -0.243568E+02  0.224E-05   11.09       0.0  T
   2    -24.3568309 -0.122924E-11  0.124E-05   11.09    1754.1  T
   3    -24.3568309 -0.390799E-13  0.592E-06   11.09    3685.5  T

   *** convergence criteria satisfied after 3 iterations ***

         #    Occupation            Energy/Eh            Energy/eV
      -------------------------------------------------------------
         1        2.0000           -0.6846898             -18.6314
       ...           ...                  ...                  ...
        16        2.0000           -0.4558453             -12.4042
        17        2.0000           -0.4521796             -12.3044
        18        2.0000           -0.4481363             -12.1944
        19        2.0000           -0.4389134             -11.9434
        20        2.0000           -0.4294779             -11.6867
        21        2.0000           -0.4195792             -11.4173
        22        2.0000           -0.3860728             -10.5056 (HOMO)
        23                          0.0216127               0.5881 (LUMO)
        24                          0.0730647               1.9882
        25                          0.0833043               2.2668
        26                          0.1007714               2.7421
        27                          0.1183134               3.2195
       ...                                ...                  ...
        42                          0.3090424               8.4095
      -------------------------------------------------------------
                  HL-Gap            0.4076855 Eh           11.0937 eV
             Fermi-level           -0.1822300 Eh           -4.9587 eV

 SCC (total)                   0 d,  0 h,  0 min,  0.117 sec
 SCC setup                      ...        0 min,  0.005 sec (  4.445%)
 Dispersion                     ...        0 min,  0.009 sec (  7.851%)
 classical contributions        ...        0 min,  0.005 sec (  4.352%)
 integral evaluation            ...        0 min,  0.016 sec ( 13.875%)
 iterations                     ...        0 min,  0.042 sec ( 35.896%)
 molecular gradient             ...        0 min,  0.039 sec ( 33.469%)
 printout                       ...        0 min,  0.000 sec (  0.090%)

         :::::::::::::::::::::::::::::::::::::::::::::::::::::
         ::                     SUMMARY                     ::
         :::::::::::::::::::::::::::::::::::::::::::::::::::::
         :: total energy             -24.051965620222 Eh    ::
         :: gradient norm              0.000176443724 Eh/a0 ::
         :: HOMO-LUMO gap             11.093687569284 eV    ::
         ::.................................................::
         :: SCC energy               -24.356746351062 Eh    ::
         :: -> isotropic ES            0.022610587215 Eh    ::
         :: -> anisotropic ES          0.006822789719 Eh    ::
         :: -> anisotropic XC          0.009232773512 Eh    ::
         :: -> dispersion             -0.013617379504 Eh    ::
         :: repulsion energy           0.304780730840 Eh    ::
         :: add. restraining           0.000000000000 Eh    ::
         :: total charge               0.000000000000 e     ::
         :::::::::::::::::::::::::::::::::::::::::::::::::::::

           -------------------------------------------------
          |                Property Printout                |
           -------------------------------------------------

    * Orbital Energies and Occupations

         #    Occupation            Energy/Eh            Energy/eV
      -------------------------------------------------------------
         1        2.0000           -0.6846898             -18.6314
       ...           ...                  ...                  ...
        10        2.0000           -0.5244544             -14.2711
        11        2.0000           -0.5022172             -13.6660
        12        2.0000           -0.4902484             -13.3403
        13        2.0000           -0.4819287             -13.1139
        14        2.0000           -0.4727789             -12.8650
        15        2.0000           -0.4606018             -12.5336
        16        2.0000           -0.4558453             -12.4042
        17        2.0000           -0.4521796             -12.3044
        18        2.0000           -0.4481363             -12.1944
        19        2.0000           -0.4389134             -11.9434
        20        2.0000           -0.4294779             -11.6867
        21        2.0000           -0.4195792             -11.4173
        22        2.0000           -0.3860728             -10.5056 (HOMO)
        23                          0.0216127               0.5881 (LUMO)
        24                          0.0730647               1.9882
        25                          0.0833043               2.2668
        26                          0.1007714               2.7421
        27                          0.1183134               3.2195
        28                          0.1363760               3.7110
        29                          0.1550065               4.2179
        30                          0.1612746               4.3885
        31                          0.1765134               4.8032
        32                          0.1890635               5.1447
        33                          0.2078794               5.6567
       ...                                ...                  ...
        42                          0.3090424               8.4095
      -------------------------------------------------------------
                  HL-Gap            0.4076855 Eh           11.0937 eV
             Fermi-level           -0.1822300 Eh           -4.9587 eV

     #   Z          covCN         q      C6AA      α(0)
     1   6 C        3.751    -0.101    22.482     6.762
     2   6 C        3.803    -0.065    21.745     6.639
     3   6 C        3.783     0.144    18.275     6.089
     4   6 C        3.756    -0.117    22.785     6.806
     5   6 C        3.758    -0.116    22.763     6.802
     6   8 O        1.701    -0.324    19.422     5.950
     7   6 C        3.634     0.045    20.194     6.467
     8   1 H        0.925     0.036     2.502     2.473
     9   1 H        0.925     0.047     2.363     2.404
    10   1 H        0.925     0.031     2.576     2.510
    11   1 H        0.924     0.028     2.613     2.528
    12   1 H        0.924     0.030     2.584     2.514
    13   1 H        0.925     0.038     2.475     2.460
    14   1 H        0.925     0.044     2.394     2.420
    15   1 H        0.925     0.034     2.524     2.485
    16   1 H        0.925     0.057     2.239     2.340
    17   1 H        0.925     0.039     2.461     2.453
    18   1 H        0.925     0.048     2.340     2.392
    19   1 H        0.925     0.050     2.324     2.384
    20   1 H        0.924     0.025     2.658     2.549
    21   1 H        0.924     0.025     2.655     2.548

 Mol. C6AA /au·bohr⁶  :       2921.563074
 Mol. C8AA /au·bohr⁸  :      60043.601709
 Mol. α(0) /au        :         79.975979


Wiberg/Mayer (AO) data.
largest (>0.10) Wiberg bond orders for each atom

 ---------------------------------------------------------------------------
     #   Z sym  total        # sym  WBO       # sym  WBO       # sym  WBO
 ---------------------------------------------------------------------------
     1   6 C    3.996 --     2 C    1.020    10 H    0.987     8 H    0.987
                             9 H    0.986
     2   6 C    3.998 --     1 C    1.020    12 H    0.977     3 C    0.974
                            11 H    0.974
     3   6 C    3.948 --     5 C    0.992     4 C    0.989     2 C    0.974
                             6 O    0.957
     4   6 C    3.996 --     3 C    0.989    13 H    0.986    14 H    0.985
                            15 H    0.985
     5   6 C    3.994 --     3 C    0.992    17 H    0.986    18 H    0.985
                            16 H    0.983
     6   8 O    2.074 --     7 C    1.001     3 C    0.957
     7   6 C    3.960 --     6 O    1.001    19 H    0.979    21 H    0.976
                            20 H    0.975
     8   1 H    0.999 --     1 C    0.987
     9   1 H    0.998 --     1 C    0.986
    10   1 H    0.999 --     1 C    0.987
    11   1 H    0.999 --     2 C    0.974
    12   1 H    0.999 --     2 C    0.977
    13   1 H    0.999 --     4 C    0.986
    14   1 H    0.998 --     4 C    0.985
    15   1 H    0.999 --     4 C    0.985
    16   1 H    0.997 --     5 C    0.983
    17   1 H    0.998 --     5 C    0.986
    18   1 H    0.998 --     5 C    0.985
    19   1 H    0.998 --     7 C    0.979
    20   1 H    0.999 --     7 C    0.975
    21   1 H    0.999 --     7 C    0.976
 ---------------------------------------------------------------------------

Topologies differ in total number of bonds
Writing topology from bond orders to xtbtopo.mol

molecular dipole:
                 x           y           z       tot (Debye)
 q only:        0.159       0.167      -0.248
   full:        0.180       0.213      -0.467       1.381
molecular quadrupole (traceless):
                xx          xy          yy          xz          yz          zz
 q only:       -0.685       0.226       0.594       1.948       1.491       0.091
  q+dip:       -0.157      -0.032       0.473       1.766       1.645      -0.316
   full:       -0.423       0.137       0.554       2.138       1.780      -0.131

           -------------------------------------------------
          |                Geometry Summary                 |
           -------------------------------------------------

      molecular mass/u    :      102.1749908
   center of mass at/Å    :       -0.1231203      -0.0580498       0.0697167
  moments of inertia/u·Å² :        0.1804323E+03   0.2144754E+03   0.2754914E+03
rotational constants/cm⁻¹ :        0.9342911E-01   0.7859937E-01   0.6119113E-01

 * 19 selected distances

     #   Z          #   Z                                           value/Å
     1   6 C        2   6 C                                       1.5246846
     3   6 C        4   6 C                                       1.5353978 (max)
     3   6 C        5   6 C                                       1.5316888
     3   6 C        6   8 O                                       1.4279460
     6   8 O        7   6 C                                       1.4039885
     1   6 C        8   1 H                                       1.0866027
     1   6 C        9   1 H                                       1.0873702
     1   6 C       10   1 H                                       1.0880100
     2   6 C       11   1 H                                       1.0926971
     2   6 C       12   1 H                                       1.0913380
     4   6 C       13   1 H                                       1.0865310
     4   6 C       14   1 H                                       1.0878291
     4   6 C       15   1 H                                       1.0877904
     5   6 C       16   1 H                                       1.0851978 (min)
     5   6 C       17   1 H                                       1.0861867
     5   6 C       18   1 H                                       1.0866125
     7   6 C       19   1 H                                       1.0896002
     7   6 C       20   1 H                                       1.0950312
     7   6 C       21   1 H                                       1.0954590

 * 3 distinct bonds (by element types)

   Z      Z             #   av. dist./Å        max./Å        min./Å
   1 H    6 C          14     1.0890183     1.0954590     1.0851978
   6 C    6 C           3     1.5305904     1.5353978     1.5246846
   6 C    8 O           2     1.4159672     1.4279460     1.4039885


optimized geometry written to: xtbopt.xyz


           -------------------------------------------------
          | TOTAL ENERGY              -24.051965620222 Eh   |
          | GRADIENT NORM               0.000176443724 Eh/α |
          | HOMO-LUMO GAP              11.093687569284 eV   |
           -------------------------------------------------

------------------------------------------------------------------------
 * finished run on 2026/07/08 at 18:16:05.080     
------------------------------------------------------------------------
 total:
 * wall-time:     0 d,  0 h,  0 min,  2.220 sec
 *  cpu-time:     0 d,  0 h,  0 min, 35.384 sec
 * ratio c/w:    15.940 speedup
 SCF:
 * wall-time:     0 d,  0 h,  0 min,  0.212 sec
 *  cpu-time:     0 d,  0 h,  0 min,  3.384 sec
 * ratio c/w:    15.999 speedup
 ANC optimizer:
 * wall-time:     0 d,  0 h,  0 min,  1.961 sec
 *  cpu-time:     0 d,  0 h,  0 min, 31.301 sec
 * ratio c/w:    15.963 speedup

