      -----------------------------------------------------------      
     |                   =====================                   |     
     |                           x T B                           |     
     |                   =====================                   |     
     |                         S. Grimme                         |     
     |          Mulliken Center for Theoretical Chemistry        |     
     |                    University of Bonn                     |     
      -----------------------------------------------------------      

   * xtb version 6.7.1 (edcfbbe) compiled by 'conda@5dfe00f5fb80' on 2026-06-10

   xtb is free software: you can redistribute it and/or modify it under
   the terms of the GNU Lesser General Public License as published by
   the Free Software Foundation, either version 3 of the License, or
   (at your option) any later version.
   
   xtb is distributed in the hope that it will be useful,
   but WITHOUT ANY WARRANTY; without even the implied warranty of
   MERCHANTABILITY or FITNESS FOR A PARTICULAR PURPOSE.  See the
   GNU Lesser General Public License for more details.
   
   Cite this work as:
   * C. Bannwarth, E. Caldeweyher, S. Ehlert, A. Hansen, P. Pracht,
     J. Seibert, S. Spicher, S. Grimme, WIREs Comput. Mol. Sci., 2020, 11,
     e01493. DOI: 10.1002/wcms.1493
   
   for GFN2-xTB:
   * C. Bannwarth, S. Ehlert and S. Grimme., J. Chem. Theory Comput., 2019,
     15, 1652-1671. DOI: 10.1021/acs.jctc.8b01176
   for GFN1-xTB:
   * S. Grimme, C. Bannwarth, P. Shushkov, J. Chem. Theory Comput., 2017,
     13, 1989-2009. DOI: 10.1021/acs.jctc.7b00118
   for GFN0-xTB:
   * P. Pracht, E. Caldeweyher, S. Ehlert, S. Grimme, ChemRxiv, 2019, preprint.
     DOI: 10.26434/chemrxiv.8326202.v1
   for GFN-FF:
   * S. Spicher and S. Grimme, Angew. Chem. Int. Ed., 2020, 59, 15665-15673.
     DOI: 10.1002/anie.202004239
   
   for ALPB and GBSA implicit solvation:
   * S. Ehlert, M. Stahn, S. Spicher, S. Grimme, J. Chem. Theory Comput.,
     2021, 17, 4250-4261. DOI: 10.1021/acs.jctc.1c00471
   
   for ddCOSMO and CPCM-X implicit solvation:
   * M. Stahn, S. Ehlert, S. Grimme, J. Phys. Chem. A,
     2023, XX, XXXX-XXXX. DOI: 10.1021/acs.jpca.3c04382
   
   for DFT-D4:
   * E. Caldeweyher, C. Bannwarth and S. Grimme, J. Chem. Phys., 2017,
     147, 034112. DOI: 10.1063/1.4993215
   * E. Caldeweyher, S. Ehlert, A. Hansen, H. Neugebauer, S. Spicher,
     C. Bannwarth and S. Grimme, J. Chem. Phys., 2019, 150, 154122.
     DOI: 10.1063/1.5090222
   * E. Caldeweyher, J.-M. Mewes, S. Ehlert and S. Grimme, Phys. Chem. Chem. Phys.
     2020, 22, 8499-8512. DOI: 10.1039/D0CP00502A
   
   for sTDA-xTB:
   * S. Grimme and C. Bannwarth, J. Chem. Phys., 2016, 145, 054103.
     DOI: 10.1063/1.4959605
   
   in the mass-spec context:
   * V. Asgeirsson, C. Bauer and S. Grimme, Chem. Sci., 2017, 8, 4879.
     DOI: 10.1039/c7sc00601b
   * J. Koopman and S. Grimme, ACS Omega 2019, 4, 12, 15120-15133.
     DOI: 10.1021/acsomega.9b02011
   
   for metadynamics refer to:
   * S. Grimme, J. Chem. Theory Comput., 2019, 155, 2847-2862
     DOI: 10.1021/acs.jctc.9b00143
   
   for SPH calculations refer to:
   * S. Spicher and S. Grimme, J. Chem. Theory Comput., 2021, 17, 1701-1714
     DOI: 10.1021/acs.jctc.0c01306
   
   for ONIOM refer to:
   * C. Plett, A. Katbashev, S. Ehlert, S. Grimme, M. Bursch,
     Phys. Chem. Chem. Phys., 2023, 25, 17860-17868. DOI: 10.1039/D3CP02178E
   
   for DIPRO refer to:
   * J. Kohn, N. Gildemeister, S. Grimme, D. Fazzi, A. Hansen,
     J. Chem. Phys., 2023, just accepted.
   
   for PTB refer to:
   * S. Grimme, M. Mueller, A. Hansen, J. Chem. Phys., 2023, 158, 124111.
     DOI: 10.1063/5.0137838
   
   with help from (in alphabetical order)
   P. Atkinson, C. Bannwarth, F. Bohle, G. Brandenburg, E. Caldeweyher
   M. Checinski, S. Dohm, S. Ehlert, S. Ehrlich, I. Gerasimov, C. Hölzer
   A. Katbashev, J. Kohn, J. Koopman, C. Lavigne, S. Lehtola, F. März, M. Müller,
   F. Musil, H. Neugebauer, J. Pisarek, C. Plett, P. Pracht, F. Pultar,
   J. Seibert, P. Shushkov, S. Spicher, M. Stahn, M. Steiner, T. Strunk,
   J. Stückrath, T. Rose, and J. Unsleber
   
 * started run on 2026/07/09 at 00:52:15.424     
   ID    Z sym.   atoms
    1    6 C      1, 2, 5-9
    2    8 O      3, 4, 10
    3    1 H      11-18

           -------------------------------------------------
          |                Calculation Setup                |
           -------------------------------------------------

          program call               : /home/ws/xd2484/miniforge3/envs/p3z_dft/bin/xtb xtb_input.xyz --gfn 2 --opt tight --cycles 500 --chrg 0 --uhf 0
          hostname                   : gpu10
          coordinate file            : xtb_input.xyz
          omp threads                :                    16


           -------------------------------------------------
          |                 G F N 2 - x T B                 |
           -------------------------------------------------

        Reference                      10.1021/acs.jctc.8b01176
      * Hamiltonian:
        H0-scaling (s, p, d)           1.850000    2.230000    2.230000
        zeta-weighting                 0.500000
      * Dispersion:
        s8                             2.700000
        a1                             0.520000
        a2                             5.000000
        s9                             5.000000
      * Repulsion:
        kExp                           1.500000    1.000000
        rExp                           1.000000
      * Coulomb:
        alpha                          2.000000
        third order                    shell-resolved
        anisotropic                    true
        a3                             3.000000
        a5                             4.000000
        cn-shift                       1.200000
        cn-exp                         4.000000
        max-rad                        5.000000


          ...................................................
          :                      SETUP                      :
          :.................................................:
          :  # basis functions                  48          :
          :  # atomic orbitals                  48          :
          :  # shells                           28          :
          :  # electrons                        54          :
          :  max. iterations                   250          :
          :  Hamiltonian                  GFN2-xTB          :
          :  restarted?                      false          :
          :  GBSA solvation                  false          :
          :  PC potential                    false          :
          :  electronic temp.          300.0000000     K    :
          :  accuracy                    1.0000000          :
          :  -> integral cutoff          0.2500000E+02      :
          :  -> integral neglect         0.1000000E-07      :
          :  -> SCF convergence          0.1000000E-05 Eh   :
          :  -> wf. convergence          0.1000000E-03 e    :
          :  Broyden damping             0.4000000          :
          :  net charge                          0          :
          :  unpaired electrons                  0          :
          ...................................................

 iter      E             dE          RMSdq      gap      omega  full diag
   1    -31.5414433 -0.315414E+02  0.448E+00    4.64       0.0  T
   2    -31.5914999 -0.500567E-01  0.262E+00    4.02       1.0  T
   3    -31.5931759 -0.167601E-02  0.138E+00    4.40       1.0  T
   4    -31.6011590 -0.798312E-02  0.319E-01    4.22       1.0  T
   5    -31.6022929 -0.113384E-02  0.103E-01    4.14       1.0  T
   6    -31.6023692 -0.762882E-04  0.451E-02    4.15       1.0  T
   7    -31.6023724 -0.323655E-05  0.194E-02    4.14       1.2  T
   8    -31.6023746 -0.215945E-05  0.868E-03    4.14       2.7  T
   9    -31.6023752 -0.616947E-06  0.253E-03    4.14       9.3  T
  10    -31.6023752 -0.170913E-07  0.115E-03    4.14      20.4  T
  11    -31.6023752 -0.332788E-08  0.354E-04    4.14      66.5  T
  12    -31.6023752 -0.264510E-09  0.167E-04    4.14     140.8  T

   *** convergence criteria satisfied after 12 iterations ***

         #    Occupation            Energy/Eh            Energy/eV
      -------------------------------------------------------------
         1        2.0000           -0.7475421             -20.3417
       ...           ...                  ...                  ...
        21        2.0000           -0.4841771             -13.1751
        22        2.0000           -0.4723612             -12.8536
        23        2.0000           -0.4690506             -12.7635
        24        2.0000           -0.4532672             -12.3340
        25        2.0000           -0.4326651             -11.7734
        26        2.0000           -0.4248424             -11.5606
        27        2.0000           -0.3946456             -10.7389 (HOMO)
        28                         -0.2424691              -6.5979 (LUMO)
        29                         -0.2285354              -6.2188
        30                         -0.1731757              -4.7123
        31                          0.0100031               0.2722
        32                          0.0682267               1.8565
       ...                                ...                  ...
        48                          0.6619117              18.0115
      -------------------------------------------------------------
                  HL-Gap            0.1521765 Eh            4.1409 eV
             Fermi-level           -0.3185574 Eh           -8.6684 eV

 SCC (total)                   0 d,  0 h,  0 min,  0.315 sec
 SCC setup                      ...        0 min,  0.009 sec (  2.766%)
 Dispersion                     ...        0 min,  0.018 sec (  5.657%)
 classical contributions        ...        0 min,  0.009 sec (  2.838%)
 integral evaluation            ...        0 min,  0.027 sec (  8.511%)
 iterations                     ...        0 min,  0.207 sec ( 65.906%)
 molecular gradient             ...        0 min,  0.045 sec ( 14.270%)
 printout                       ...        0 min,  0.000 sec (  0.042%)

         :::::::::::::::::::::::::::::::::::::::::::::::::::::
         ::                     SUMMARY                     ::
         :::::::::::::::::::::::::::::::::::::::::::::::::::::
         :: total energy             -31.258893157496 Eh    ::
         :: gradient norm              0.063866091256 Eh/a0 ::
         :: HOMO-LUMO gap              4.140933481248 eV    ::
         ::.................................................::
         :: SCC energy               -31.602381720605 Eh    ::
         :: -> isotropic ES            0.052820092038 Eh    ::
         :: -> anisotropic ES          0.001672932608 Eh    ::
         :: -> anisotropic XC          0.006839716881 Eh    ::
         :: -> dispersion             -0.012084915055 Eh    ::
         :: repulsion energy           0.343488563109 Eh    ::
         :: add. restraining           0.000000000000 Eh    ::
         :: total charge              -0.000000000000 e     ::
         :::::::::::::::::::::::::::::::::::::::::::::::::::::

      ----------------------------------------------------------- 
     |                   =====================                   |
     |                        A N C O P T                        |
     |                   =====================                   |
     |               Approximate Normal Coordinate               |
     |                Rational Function Optimizer                |
      ----------------------------------------------------------- 
      ----------------------------------------------------------- 
     |                   =====================                   |
     |                        A N C O P T                        |
     |                   =====================                   |
     |               Approximate Normal Coordinate               |
     |                Rational Function Optimizer                |
      ----------------------------------------------------------- 

          ...................................................
          :                      SETUP                      :
          :.................................................:
          :   optimization level             tight          :
          :   max. optcycles                   500          :
          :   ANC micro-cycles                  20          :
          :   degrees of freedom                48          :
          :.................................................:
          :   RF solver                   davidson          :
          :   write xtbopt.log                true          :
          :   linear?                        false          :
          :   energy convergence         0.1000000E-05 Eh   :
          :   grad. convergence          0.8000000E-03 Eh/α :
          :   maxmium RF displ.          1.0000000          :
          :   Hlow (freq-cutoff)         0.1000000E-01      :
          :   Hmax (freq-cutoff)         5.0000000          :
          :   S6 in model hess.         20.0000000          :
          ...................................................

generating ANC from exact Hessian ...
Using Lindh-Hessian (1995)
 Shifting diagonal of input Hessian by    8.2221679834682260E-003
 Lowest  eigenvalues of input Hessian
    0.000000    0.000000    0.000000    0.000000    0.000000    0.000000
    0.010000    0.010665    0.011025    0.016459    0.021067    0.028393
    0.030671    0.035995    0.039330    0.048491    0.061943    0.063350
 Highest eigenvalues
    1.703451    1.753700    1.772707    1.889963    1.933421    2.266565


........................................................................
.............................. CYCLE    1 ..............................
........................................................................

 iter      E             dE          RMSdq      gap      omega  full diag
   1    -31.6023752 -0.316024E+02  0.477E-05    4.14       0.0  T
   2    -31.6023752 -0.461498E-11  0.294E-05    4.14     801.3  T
   3    -31.6023752 -0.341061E-12  0.165E-05    4.14    1429.9  T
     SCC iter.                  ...        0 min,  0.049 sec
     gradient                   ...        0 min,  0.046 sec
 * total energy  :   -31.2588932 Eh     change       -0.1508766E-09 Eh
   gradient norm :     0.0638674 Eh/α   predicted     0.0000000E+00 (-100.00%)
   displ. norm   :     0.1327742 α      lambda       -0.5536680E-02
   maximum displ.:     0.0537901 α      in ANC's #33, #21, #14, ...

........................................................................
.............................. CYCLE    2 ..............................
........................................................................

 iter      E             dE          RMSdq      gap      omega  full diag
   1    -31.6254753 -0.316255E+02  0.199E-01    4.46       0.0  T
   2    -31.6255451 -0.697773E-04  0.117E-01    4.43       1.0  T
   3    -31.6255353  0.978989E-05  0.683E-02    4.44       1.0  T
   4    -31.6255655 -0.302038E-04  0.120E-02    4.44       2.0  T
   5    -31.6255671 -0.158935E-05  0.430E-03    4.44       5.5  T
   6    -31.6255671 -0.898531E-07  0.254E-03    4.44       9.3  T
   7    -31.6255672 -0.749425E-08  0.873E-04    4.44      27.0  T
   8    -31.6255672 -0.568725E-08  0.316E-04    4.44      74.7  T
     SCC iter.                  ...        0 min,  0.259 sec
     gradient                   ...        0 min,  0.044 sec
 * total energy  :   -31.2622664 Eh     change       -0.3373237E-02 Eh
   gradient norm :     0.0165537 Eh/α   predicted    -0.2817144E-02 ( -16.49%)
   displ. norm   :     0.0496698 α      lambda       -0.4699504E-03
   maximum displ.:     0.0172419 α      in ANC's #6, #33, #18, ...

........................................................................
.............................. CYCLE    3 ..............................
........................................................................

 iter      E             dE          RMSdq      gap      omega  full diag
   1    -31.6305951 -0.316306E+02  0.692E-02    4.50       0.0  T
   2    -31.6306051 -0.999589E-05  0.409E-02    4.50       1.0  T
   3    -31.6306066 -0.147412E-05  0.255E-02    4.51       1.0  T
   4    -31.6306106 -0.399145E-05  0.375E-03    4.51       6.3  T
   5    -31.6306106 -0.938902E-07  0.139E-03    4.51      17.0  T
   6    -31.6306107 -0.996309E-08  0.759E-04    4.51      31.0  T
   7    -31.6306107 -0.925688E-09  0.270E-04    4.51      87.4  T
     SCC iter.                  ...        0 min,  0.117 sec
     gradient                   ...        0 min,  0.029 sec
 * total energy  :   -31.2625266 Eh     change       -0.2602221E-03 Eh
   gradient norm :     0.0055032 Eh/α   predicted    -0.2355559E-03 (  -9.48%)
   displ. norm   :     0.0252493 α      lambda       -0.4114342E-04
   maximum displ.:     0.0128561 α      in ANC's #3, #6, #2, ...

........................................................................
.............................. CYCLE    4 ..............................
........................................................................

 iter      E             dE          RMSdq      gap      omega  full diag
   1    -31.6303570 -0.316304E+02  0.237E-02    4.50       0.0  T
   2    -31.6303584 -0.132784E-05  0.144E-02    4.51       1.6  T
   3    -31.6303585 -0.106489E-06  0.857E-03    4.51       2.8  T
   4    -31.6303589 -0.470903E-06  0.150E-03    4.51      15.7  T
   5    -31.6303590 -0.140306E-07  0.352E-04    4.51      66.9  T
   6    -31.6303590 -0.262055E-09  0.199E-04    4.51     118.7  T
     SCC iter.                  ...        0 min,  0.126 sec
     gradient                   ...        0 min,  0.044 sec
 * total energy  :   -31.2625555 Eh     change       -0.2888941E-04 Eh
   gradient norm :     0.0022438 Eh/α   predicted    -0.2058536E-04 ( -28.74%)
   displ. norm   :     0.0405671 α      lambda       -0.2495781E-04
   maximum displ.:     0.0238952 α      in ANC's #3, #6, #4, ...

........................................................................
.............................. CYCLE    5 ..............................
........................................................................

 iter      E             dE          RMSdq      gap      omega  full diag
   1    -31.6298142 -0.316298E+02  0.304E-02    4.50       0.0  T
   2    -31.6298150 -0.831475E-06  0.181E-02    4.50       1.3  T
   3    -31.6298143  0.676143E-06  0.973E-03    4.50       2.4  T
   4    -31.6298154 -0.107957E-05  0.112E-03    4.50      21.0  T
   5    -31.6298154 -0.763912E-08  0.457E-04    4.50      51.6  T
   6    -31.6298154  0.101711E-09  0.245E-04    4.50      96.4  T
     SCC iter.                  ...        0 min,  0.086 sec
     gradient                   ...        0 min,  0.040 sec
 * total energy  :   -31.2625709 Eh     change       -0.1534786E-04 Eh
   gradient norm :     0.0013163 Eh/α   predicted    -0.1249777E-04 ( -18.57%)
   displ. norm   :     0.0504171 α      lambda       -0.8753716E-05
   maximum displ.:     0.0332468 α      in ANC's #3, #1, #6, ...

........................................................................
.............................. CYCLE    6 ..............................
........................................................................

 iter      E             dE          RMSdq      gap      omega  full diag
   1    -31.6295918 -0.316296E+02  0.327E-02    4.50       0.0  T
   2    -31.6295919 -0.126844E-06  0.192E-02    4.50       1.2  T
   3    -31.6295916  0.287894E-06  0.477E-03    4.50       4.9  T
   4    -31.6295920 -0.369128E-06  0.899E-04    4.50      26.2  T
   5    -31.6295920 -0.825352E-09  0.430E-04    4.50      54.9  T
     SCC iter.                  ...        0 min,  0.072 sec
     gradient                   ...        0 min,  0.038 sec
 * total energy  :   -31.2625795 Eh     change       -0.8674340E-05 Eh
   gradient norm :     0.0018627 Eh/α   predicted    -0.4381277E-05 ( -49.49%)
   displ. norm   :     0.0587124 α      lambda       -0.8809504E-05
   maximum displ.:     0.0375892 α      in ANC's #3, #1, #6, ...

........................................................................
.............................. CYCLE    7 ..............................
........................................................................

 iter      E             dE          RMSdq      gap      omega  full diag
   1    -31.6297274 -0.316297E+02  0.395E-02    4.50       0.0  T
   2    -31.6297276 -0.190244E-06  0.235E-02    4.50       1.0  T
   3    -31.6297274  0.195804E-06  0.407E-03    4.50       5.8  T
   4    -31.6297277 -0.272633E-06  0.117E-03    4.50      20.1  T
   5    -31.6297277 -0.613934E-08  0.612E-04    4.50      38.5  T
   6    -31.6297277 -0.820037E-10  0.215E-04    4.50     109.5  T
     SCC iter.                  ...        0 min,  0.116 sec
     gradient                   ...        0 min,  0.034 sec
 * total energy  :   -31.2625905 Eh     change       -0.1096222E-04 Eh
   gradient norm :     0.0013858 Eh/α   predicted    -0.4410700E-05 ( -59.76%)
   displ. norm   :     0.1202522 α      lambda       -0.1649978E-04
   maximum displ.:     0.0764505 α      in ANC's #3, #1, #6, ...

........................................................................
.............................. CYCLE    8 ..............................
........................................................................

 iter      E             dE          RMSdq      gap      omega  full diag
   1    -31.6298581 -0.316299E+02  0.820E-02    4.50       0.0  T
   2    -31.6298588 -0.725794E-06  0.486E-02    4.50       1.0  T
   3    -31.6298580  0.849093E-06  0.836E-03    4.50       2.8  T
   4    -31.6298592 -0.120189E-05  0.233E-03    4.50      10.1  T
   5    -31.6298592 -0.159960E-07  0.123E-03    4.50      19.2  T
   6    -31.6298592 -0.857604E-09  0.431E-04    4.50      54.6  T
   7    -31.6298592 -0.149254E-08  0.146E-04    4.50     160.9  T
     SCC iter.                  ...        0 min,  0.085 sec
     gradient                   ...        0 min,  0.033 sec
 * total energy  :   -31.2626104 Eh     change       -0.1989195E-04 Eh
   gradient norm :     0.0016613 Eh/α   predicted    -0.8303018E-05 ( -58.26%)
   displ. norm   :     0.1890544 α      lambda       -0.2254082E-04
   maximum displ.:     0.1210905 α      in ANC's #3, #1, #6, ...

........................................................................
.............................. CYCLE    9 ..............................
........................................................................

 iter      E             dE          RMSdq      gap      omega  full diag
   1    -31.6292978 -0.316293E+02  0.135E-01    4.49       0.0  T
   2    -31.6292991 -0.126222E-05  0.797E-02    4.50       1.0  T
   3    -31.6292992 -0.117122E-06  0.703E-03    4.50       3.4  T
   4    -31.6292998 -0.536642E-06  0.356E-03    4.50       6.6  T
   5    -31.6292998 -0.306215E-07  0.163E-03    4.50      14.5  T
   6    -31.6292998 -0.101270E-07  0.437E-04    4.50      54.0  T
   7    -31.6292998 -0.671363E-09  0.213E-04    4.50     110.4  T
     SCC iter.                  ...        0 min,  0.086 sec
     gradient                   ...        0 min,  0.041 sec
 * total energy  :   -31.2626344 Eh     change       -0.2399256E-04 Eh
   gradient norm :     0.0037412 Eh/α   predicted    -0.1144877E-04 ( -52.28%)
   displ. norm   :     0.1249786 α      lambda       -0.2811064E-04
   maximum displ.:     0.0832004 α      in ANC's #1, #3, #9, ...

........................................................................
.............................. CYCLE   10 ..............................
........................................................................

 iter      E             dE          RMSdq      gap      omega  full diag
   1    -31.6294199 -0.316294E+02  0.879E-02    4.50       0.0  T
   2    -31.6294204 -0.475211E-06  0.517E-02    4.50       1.0  T
   3    -31.6294206 -0.182133E-06  0.348E-03    4.50       6.8  T
   4    -31.6294206 -0.697158E-07  0.214E-03    4.50      11.0  T
   5    -31.6294207 -0.169947E-07  0.802E-04    4.50      29.4  T
   6    -31.6294207 -0.276911E-08  0.243E-04    4.50      97.1  T
     SCC iter.                  ...        0 min,  0.083 sec
     gradient                   ...        0 min,  0.039 sec
 * total energy  :   -31.2626576 Eh     change       -0.2319154E-04 Eh
   gradient norm :     0.0034685 Eh/α   predicted    -0.1427449E-04 ( -38.45%)
   displ. norm   :     0.2104900 α      lambda       -0.5087441E-04
   maximum displ.:     0.1420407 α      in ANC's #1, #3, #9, ...

........................................................................
.............................. CYCLE   11 ..............................
........................................................................

 iter      E             dE          RMSdq      gap      omega  full diag
   1    -31.6294230 -0.316294E+02  0.151E-01    4.50       0.0  T
   2    -31.6294244 -0.138199E-05  0.887E-02    4.50       1.0  T
   3    -31.6294250 -0.658968E-06  0.517E-03    4.51       4.6  T
   4    -31.6294251 -0.741133E-07  0.310E-03    4.50       7.6  T
   5    -31.6294251 -0.127832E-07  0.969E-04    4.51      24.3  T
   6    -31.6294251 -0.398792E-08  0.382E-04    4.51      61.7  T
     SCC iter.                  ...        0 min,  0.063 sec
     gradient                   ...        0 min,  0.026 sec
 * total energy  :   -31.2626962 Eh     change       -0.3859169E-04 Eh
   gradient norm :     0.0036967 Eh/α   predicted    -0.2656348E-04 ( -31.17%)
   displ. norm   :     0.2094078 α      lambda       -0.5582917E-04
   maximum displ.:     0.1449871 α      in ANC's #1, #3, #2, ...

........................................................................
.............................. CYCLE   12 ..............................
........................................................................

 iter      E             dE          RMSdq      gap      omega  full diag
   1    -31.6297179 -0.316297E+02  0.148E-01    4.52       0.0  T
   2    -31.6297194 -0.147397E-05  0.871E-02    4.52       1.0  T
   3    -31.6297194  0.398923E-07  0.813E-03    4.52       2.9  T
   4    -31.6297202 -0.793231E-06  0.354E-03    4.52       6.7  T
   5    -31.6297202 -0.194087E-07  0.181E-03    4.52      13.0  T
   6    -31.6297202 -0.180520E-07  0.519E-04    4.52      45.4  T
   7    -31.6297202 -0.115717E-08  0.211E-04    4.52     111.7  T
     SCC iter.                  ...        0 min,  0.071 sec
     gradient                   ...        0 min,  0.032 sec
 * total energy  :   -31.2627357 Eh     change       -0.3955761E-04 Eh
   gradient norm :     0.0024312 Eh/α   predicted    -0.2914016E-04 ( -26.33%)
   displ. norm   :     0.3144414 α      lambda       -0.4705411E-04
   maximum displ.:     0.2041864 α      in ANC's #1, #3, #9, ...

........................................................................
.............................. CYCLE   13 ..............................
........................................................................

 iter      E             dE          RMSdq      gap      omega  full diag
   1    -31.6264706 -0.316265E+02  0.230E-01    4.45       0.0  T
   2    -31.6264772 -0.659676E-05  0.136E-01    4.46       1.0  T
   3    -31.6264769  0.247832E-06  0.145E-02    4.46       1.6  T
   4    -31.6264792 -0.225630E-05  0.580E-03    4.46       4.1  T
   5    -31.6264793 -0.819642E-07  0.344E-03    4.46       6.8  T
   6    -31.6264793 -0.348423E-07  0.128E-03    4.46      18.4  T
   7    -31.6264793 -0.107247E-07  0.393E-04    4.46      60.0  T
   8    -31.6264793 -0.300094E-09  0.142E-04    4.46     165.5  T
     SCC iter.                  ...        0 min,  0.085 sec
     gradient                   ...        0 min,  0.031 sec
 * total energy  :   -31.2627007 Eh     change        0.3503451E-04 Eh
   gradient norm :     0.0136515 Eh/α   predicted    -0.2585529E-04 (-173.80%)
   displ. norm   :     0.0801188 α      lambda       -0.1999202E-03
   maximum displ.:     0.0539728 α      in ANC's #3, #1, #9, ...

........................................................................
.............................. CYCLE   14 ..............................
........................................................................

 iter      E             dE          RMSdq      gap      omega  full diag
   1    -31.6306562 -0.316307E+02  0.609E-02    4.56       0.0  T
   2    -31.6306625 -0.627117E-05  0.365E-02    4.54       1.0  T
   3    -31.6306621  0.358277E-06  0.167E-02    4.55       1.4  T
   4    -31.6306636 -0.147112E-05  0.302E-03    4.54       7.8  T
   5    -31.6306637 -0.902892E-07  0.153E-03    4.54      15.4  T
   6    -31.6306637 -0.113460E-07  0.808E-04    4.54      29.2  T
   7    -31.6306637 -0.133602E-08  0.207E-04    4.54     113.6  T
     SCC iter.                  ...        0 min,  0.084 sec
     gradient                   ...        0 min,  0.034 sec
 * total energy  :   -31.2627778 Eh     change       -0.7707919E-04 Eh
   gradient norm :     0.0029299 Eh/α   predicted    -0.1006012E-03 (  30.52%)
   displ. norm   :     0.1030702 α      lambda       -0.2526235E-04
   maximum displ.:     0.0632089 α      in ANC's #1, #3, #2, ...

........................................................................
.............................. CYCLE   15 ..............................
........................................................................

 iter      E             dE          RMSdq      gap      omega  full diag
   1    -31.6298667 -0.316299E+02  0.759E-02    4.53       0.0  T
   2    -31.6298672 -0.531823E-06  0.447E-02    4.53       1.0  T
   3    -31.6298669  0.300142E-06  0.630E-03    4.53       3.7  T
   4    -31.6298675 -0.543782E-06  0.203E-03    4.53      11.6  T
   5    -31.6298675 -0.110191E-07  0.119E-03    4.53      19.7  T
   6    -31.6298675 -0.506146E-08  0.264E-04    4.53      89.3  T
   7    -31.6298675 -0.228003E-09  0.110E-04    4.53     215.0  T
     SCC iter.                  ...        0 min,  0.073 sec
     gradient                   ...        0 min,  0.034 sec
 * total energy  :   -31.2627989 Eh     change       -0.2111721E-04 Eh
   gradient norm :     0.0024604 Eh/α   predicted    -0.1276570E-04 ( -39.55%)
   displ. norm   :     0.3321427 α      lambda       -0.5387462E-04
   maximum displ.:     0.2015358 α      in ANC's #1, #3, #2, ...

........................................................................
.............................. CYCLE   16 ..............................
........................................................................

 iter      E             dE          RMSdq      gap      omega  full diag
   1    -31.6264618 -0.316265E+02  0.248E-01    4.45       0.0  T
   2    -31.6264687 -0.684115E-05  0.146E-01    4.47       1.0  T
   3    -31.6264655  0.317525E-05  0.206E-02    4.46       1.1  T
   4    -31.6264712 -0.571244E-05  0.670E-03    4.47       3.5  T
   5    -31.6264714 -0.157964E-06  0.393E-03    4.47       6.0  T
   6    -31.6264714 -0.464866E-07  0.120E-03    4.47      19.6  T
   7    -31.6264714 -0.613176E-08  0.404E-04    4.47      58.3  T
   8    -31.6264714 -0.268592E-09  0.110E-04    4.47     213.6  T
     SCC iter.                  ...        0 min,  0.098 sec
     gradient                   ...        0 min,  0.029 sec
 * total energy  :   -31.2627652 Eh     change        0.3365493E-04 Eh
   gradient norm :     0.0131333 Eh/α   predicted    -0.2990632E-04 (-188.86%)
   displ. norm   :     0.2187237 α      lambda       -0.1609368E-03
   maximum displ.:     0.1388054 α      in ANC's #1, #3, #2, ...

........................................................................
.............................. CYCLE   17 ..............................
........................................................................

 iter      E             dE          RMSdq      gap      omega  full diag
   1    -31.6297299 -0.316297E+02  0.162E-01    4.54       0.0  T
   2    -31.6297349 -0.506593E-05  0.953E-02    4.53       1.0  T
   3    -31.6297336  0.130734E-05  0.144E-02    4.53       1.6  T
   4    -31.6297361 -0.248820E-05  0.443E-03    4.52       5.3  T
   5    -31.6297362 -0.796121E-07  0.267E-03    4.52       8.8  T
   6    -31.6297362 -0.225339E-07  0.115E-03    4.52      20.5  T
   7    -31.6297362 -0.585675E-08  0.276E-04    4.52      85.5  T
   8    -31.6297362 -0.183878E-09  0.705E-05    4.52     334.3  T
     SCC iter.                  ...        0 min,  0.140 sec
     gradient                   ...        0 min,  0.028 sec
 * total energy  :   -31.2628218 Eh     change       -0.5654698E-04 Eh
   gradient norm :     0.0018634 Eh/α   predicted    -0.8432104E-04 (  49.12%)
   displ. norm   :     0.0663931 α      lambda       -0.1005853E-04
   maximum displ.:     0.0369340 α      in ANC's #3, #1, #2, ...

........................................................................
.............................. CYCLE   18 ..............................
........................................................................

 iter      E             dE          RMSdq      gap      omega  full diag
   1    -31.6297800 -0.316298E+02  0.523E-02    4.52       0.0  T
   2    -31.6297802 -0.223123E-06  0.308E-02    4.52       1.0  T
   3    -31.6297801  0.976925E-07  0.370E-03    4.52       6.4  T
   4    -31.6297803 -0.196515E-06  0.141E-03    4.52      16.7  T
   5    -31.6297803 -0.819046E-08  0.705E-04    4.52      33.4  T
   6    -31.6297803 -0.609312E-09  0.195E-04    4.52     121.2  T
     SCC iter.                  ...        0 min,  0.127 sec
     gradient                   ...        0 min,  0.029 sec
 * total energy  :   -31.2628347 Eh     change       -0.1294760E-04 Eh
   gradient norm :     0.0022232 Eh/α   predicted    -0.5038255E-05 ( -61.09%)
   displ. norm   :     0.2040562 α      lambda       -0.3415292E-04
   maximum displ.:     0.1126915 α      in ANC's #3, #1, #2, ...

........................................................................
.............................. CYCLE   19 ..............................
........................................................................

 iter      E             dE          RMSdq      gap      omega  full diag
   1    -31.6288983 -0.316289E+02  0.156E-01    4.50       0.0  T
   2    -31.6289000 -0.172235E-05  0.916E-02    4.51       1.0  T
   3    -31.6288992  0.751176E-06  0.110E-02    4.51       2.1  T
   4    -31.6289009 -0.168720E-05  0.404E-03    4.51       5.8  T
   5    -31.6289010 -0.303924E-07  0.205E-03    4.51      11.5  T
   6    -31.6289010 -0.144389E-07  0.514E-04    4.51      45.9  T
   7    -31.6289010 -0.801737E-09  0.232E-04    4.51     101.7  T
     SCC iter.                  ...        0 min,  0.137 sec
     gradient                   ...        0 min,  0.039 sec
 * total energy  :   -31.2628534 Eh     change       -0.1868168E-04 Eh
   gradient norm :     0.0049316 Eh/α   predicted    -0.1778624E-04 (  -4.79%)
   displ. norm   :     0.0200106 α      lambda       -0.1590043E-04
   maximum displ.:     0.0093096 α      in ANC's #3, #6, #2, ...

........................................................................
.............................. CYCLE   20 ..............................
........................................................................

 iter      E             dE          RMSdq      gap      omega  full diag
   1    -31.6295586 -0.316296E+02  0.174E-02    4.52       0.0  T
   2    -31.6295588 -0.187302E-06  0.102E-02    4.52       2.3  T
   3    -31.6295588  0.531233E-07  0.342E-03    4.52       6.9  T
   4    -31.6295589 -0.971007E-07  0.516E-04    4.52      45.7  T
   5    -31.6295589 -0.682810E-09  0.337E-04    4.52      69.9  T
     SCC iter.                  ...        0 min,  0.103 sec
     gradient                   ...        0 min,  0.035 sec
 * total energy  :   -31.2628660 Eh     change       -0.1259684E-04 Eh
   gradient norm :     0.0030786 Eh/α   predicted    -0.7954660E-05 ( -36.85%)
   displ. norm   :     0.1291649 α      lambda       -0.2638180E-04
   maximum displ.:     0.0716443 α      in ANC's #3, #1, #6, ...
 * RMSD in coord.:     0.4377799 α      energy gain  -0.3972838E-02 Eh

generating ANC from exact Hessian ...
Using Lindh-Hessian (1995)
 Shifting diagonal of input Hessian by    7.9984631066221806E-003
 Lowest  eigenvalues of input Hessian
    0.000000    0.000000    0.000000    0.000000    0.000000    0.000000
    0.010000    0.010119    0.010865    0.017123    0.021953    0.027809
    0.031840    0.037221    0.042318    0.047683    0.064087    0.065363
 Highest eigenvalues
    1.780506    1.818801    1.850597    1.958925    2.025943    2.361970


........................................................................
.............................. CYCLE   21 ..............................
........................................................................

 iter      E             dE          RMSdq      gap      omega  full diag
   1    -31.6300199 -0.316300E+02  0.995E-02    4.53       0.0  T
   2    -31.6300206 -0.708090E-06  0.585E-02    4.52       1.0  T
   3    -31.6300208 -0.230083E-06  0.438E-03    4.53       5.4  T
   4    -31.6300210 -0.139466E-06  0.240E-03    4.53       9.8  T
   5    -31.6300210 -0.289383E-08  0.928E-04    4.53      25.4  T
   6    -31.6300210 -0.772726E-08  0.315E-04    4.53      74.9  T
     SCC iter.                  ...        0 min,  0.125 sec
     gradient                   ...        0 min,  0.034 sec
 * total energy  :   -31.2628860 Eh     change       -0.1995890E-04 Eh
   gradient norm :     0.0023926 Eh/α   predicted     0.0000000E+00 (-100.00%)
   displ. norm   :     0.0169460 α      lambda       -0.1026394E-04
   maximum displ.:     0.0094993 α      in ANC's #3, #2, #4, ...

........................................................................
.............................. CYCLE   22 ..............................
........................................................................

 iter      E             dE          RMSdq      gap      omega  full diag
   1    -31.6302512 -0.316303E+02  0.798E-03    4.54       0.0  T
   2    -31.6302513 -0.110249E-06  0.478E-03    4.53       4.9  T
   3    -31.6302513  0.114669E-07  0.218E-03    4.53      10.8  T
   4    -31.6302514 -0.278519E-07  0.557E-04    4.53      42.3  T
   5    -31.6302514 -0.294401E-08  0.239E-04    4.53      98.8  T
     SCC iter.                  ...        0 min,  0.087 sec
     gradient                   ...        0 min,  0.044 sec
 * total energy  :   -31.2628932 Eh     change       -0.7294867E-05 Eh
   gradient norm :     0.0005537 Eh/α   predicted    -0.5131202E-05 ( -29.66%)
   displ. norm   :     0.0593812 α      lambda       -0.1058722E-04
   maximum displ.:     0.0376047 α      in ANC's #3, #2, #1, ...

........................................................................
.............................. CYCLE   23 ..............................
........................................................................

 iter      E             dE          RMSdq      gap      omega  full diag
   1    -31.6305247 -0.316305E+02  0.289E-02    4.55       0.0  T
   2    -31.6305250 -0.285784E-06  0.170E-02    4.54       1.4  T
   3    -31.6305248  0.249943E-06  0.509E-03    4.54       4.6  T
   4    -31.6305251 -0.339487E-06  0.120E-03    4.54      19.6  T
   5    -31.6305251 -0.885215E-08  0.627E-04    4.54      37.6  T
   6    -31.6305251 -0.935291E-09  0.261E-04    4.54      90.4  T
     SCC iter.                  ...        0 min,  0.174 sec
     gradient                   ...        0 min,  0.040 sec
 * total energy  :   -31.2629045 Eh     change       -0.1121122E-04 Eh
   gradient norm :     0.0023876 Eh/α   predicted    -0.5302821E-05 ( -52.70%)
   displ. norm   :     0.0696229 α      lambda       -0.1491172E-04
   maximum displ.:     0.0457833 α      in ANC's #3, #2, #1, ...

........................................................................
.............................. CYCLE   24 ..............................
........................................................................

 iter      E             dE          RMSdq      gap      omega  full diag
   1    -31.6304659 -0.316305E+02  0.350E-02    4.54       0.0  T
   2    -31.6304661 -0.119952E-06  0.205E-02    4.54       1.1  T
   3    -31.6304660  0.119274E-06  0.370E-03    4.54       6.4  T
   4    -31.6304661 -0.198489E-06  0.109E-03    4.54      21.7  T
   5    -31.6304662 -0.164895E-08  0.437E-04    4.54      53.9  T
   6    -31.6304662 -0.504425E-09  0.110E-04    4.54     213.8  T
     SCC iter.                  ...        0 min,  0.074 sec
     gradient                   ...        0 min,  0.034 sec
 * total energy  :   -31.2629190 Eh     change       -0.1455921E-04 Eh
   gradient norm :     0.0024249 Eh/α   predicted    -0.7492926E-05 ( -48.53%)
   displ. norm   :     0.7219670 α      lambda       -0.1550930E-03
   maximum displ.:     0.4912407 α      in ANC's #3, #2, #1, ...

........................................................................
.............................. CYCLE   25 ..............................
........................................................................

 iter      E             dE          RMSdq      gap      omega  full diag
   1    -31.6231740 -0.316232E+02  0.376E-01    4.36       0.0  T
   2    -31.6232052 -0.312535E-04  0.222E-01    4.38       1.0  T
   3    -31.6231857  0.195133E-04  0.481E-02    4.36       1.0  T
   4    -31.6232166 -0.309136E-04  0.127E-02    4.37       1.9  T
   5    -31.6232172 -0.582471E-06  0.774E-03    4.37       3.0  T
   6    -31.6232174 -0.177640E-06  0.214E-03    4.37      11.0  T
   7    -31.6232174 -0.202071E-07  0.659E-04    4.37      35.8  T
   8    -31.6232174 -0.108456E-08  0.331E-04    4.37      71.1  T
     SCC iter.                  ...        0 min,  0.104 sec
     gradient                   ...        0 min,  0.034 sec
 * total energy  :   -31.2626942 Eh     change        0.2248064E-03 Eh
   gradient norm :     0.0238021 Eh/α   predicted    -0.1179756E-03 (-152.48%)
   displ. norm   :     0.4266703 α      lambda       -0.8837092E-03
   maximum displ.:     0.2963926 α      in ANC's #3, #2, #1, ...

........................................................................
.............................. CYCLE   26 ..............................
........................................................................

 iter      E             dE          RMSdq      gap      omega  full diag
   1    -31.6306024 -0.316306E+02  0.234E-01    4.55       0.0  T
   2    -31.6306282 -0.258109E-04  0.138E-01    4.52       1.0  T
   3    -31.6306175  0.106949E-04  0.405E-02    4.54       1.0  T
   4    -31.6306351 -0.175441E-04  0.856E-03    4.53       2.8  T
   5    -31.6306355 -0.378260E-06  0.517E-03    4.53       4.6  T
   6    -31.6306355 -0.695693E-07  0.163E-03    4.53      14.5  T
   7    -31.6306355 -0.944601E-08  0.421E-04    4.53      56.0  T
   8    -31.6306356 -0.526953E-09  0.228E-04    4.53     103.3  T
     SCC iter.                  ...        0 min,  0.109 sec
     gradient                   ...        0 min,  0.040 sec
 * total energy  :   -31.2629742 Eh     change       -0.2800171E-03 Eh
   gradient norm :     0.0020455 Eh/α   predicted    -0.5222967E-03 (  86.52%)
   displ. norm   :     0.0508327 α      lambda       -0.1693276E-04
   maximum displ.:     0.0383585 α      in ANC's #3, #1, #9, ...

........................................................................
.............................. CYCLE   27 ..............................
........................................................................

 iter      E             dE          RMSdq      gap      omega  full diag
   1    -31.6303049 -0.316303E+02  0.295E-02    4.52       0.0  T
   2    -31.6303050 -0.133784E-06  0.174E-02    4.52       1.4  T
   3    -31.6303050  0.246387E-07  0.231E-03    4.52      10.2  T
   4    -31.6303051 -0.706725E-07  0.933E-04    4.52      25.3  T
   5    -31.6303051 -0.412729E-08  0.526E-04    4.52      44.8  T
     SCC iter.                  ...        0 min,  0.073 sec
     gradient                   ...        0 min,  0.039 sec
 * total energy  :   -31.2629894 Eh     change       -0.1517836E-04 Eh
   gradient norm :     0.0014188 Eh/α   predicted    -0.8488010E-05 ( -44.08%)
   displ. norm   :     0.2363927 α      lambda       -0.4380201E-04
   maximum displ.:     0.1758543 α      in ANC's #3, #1, #9, ...

........................................................................
.............................. CYCLE   28 ..............................
........................................................................

 iter      E             dE          RMSdq      gap      omega  full diag
   1    -31.6283922 -0.316284E+02  0.136E-01    4.47       0.0  T
   2    -31.6283955 -0.329962E-05  0.804E-02    4.48       1.0  T
   3    -31.6283942  0.126377E-05  0.132E-02    4.47       1.8  T
   4    -31.6283967 -0.244274E-05  0.441E-03    4.48       5.4  T
   5    -31.6283968 -0.733976E-07  0.262E-03    4.48       9.0  T
   6    -31.6283968 -0.186125E-07  0.809E-04    4.48      29.1  T
   7    -31.6283968 -0.380054E-08  0.274E-04    4.48      86.0  T
     SCC iter.                  ...        0 min,  0.094 sec
     gradient                   ...        0 min,  0.037 sec
 * total energy  :   -31.2630195 Eh     change       -0.3007749E-04 Eh
   gradient norm :     0.0083745 Eh/α   predicted    -0.2244583E-04 ( -25.37%)
   displ. norm   :     0.0146292 α      lambda       -0.2345536E-04
   maximum displ.:     0.0123867 α      in ANC's #2, #9, #6, ...

........................................................................
.............................. CYCLE   29 ..............................
........................................................................

 iter      E             dE          RMSdq      gap      omega  full diag
   1    -31.6290783 -0.316291E+02  0.883E-03    4.49       0.0  T
   2    -31.6290784 -0.174138E-06  0.539E-03    4.49       4.4  T
   3    -31.6290784 -0.344509E-08  0.256E-03    4.49       9.2  T
   4    -31.6290785 -0.247635E-07  0.369E-04    4.49      63.9  T
   5    -31.6290785 -0.713168E-09  0.234E-04    4.49     100.7  T
     SCC iter.                  ...        0 min,  0.077 sec
     gradient                   ...        0 min,  0.039 sec
 * total energy  :   -31.2630392 Eh     change       -0.1974064E-04 Eh
   gradient norm :     0.0058443 Eh/α   predicted    -0.1173089E-04 ( -40.57%)
   displ. norm   :     0.1487194 α      lambda       -0.7850247E-04
   maximum displ.:     0.1098023 α      in ANC's #3, #1, #4, ...

........................................................................
.............................. CYCLE   30 ..............................
........................................................................

 iter      E             dE          RMSdq      gap      omega  full diag
   1    -31.6303311 -0.316303E+02  0.773E-02    4.51       0.0  T
   2    -31.6303324 -0.122626E-05  0.451E-02    4.51       1.0  T
   3    -31.6303318  0.597653E-06  0.870E-03    4.51       2.7  T
   4    -31.6303328 -0.984793E-06  0.238E-03    4.51       9.9  T
   5    -31.6303328 -0.242077E-07  0.147E-03    4.51      16.0  T
   6    -31.6303328 -0.736753E-08  0.527E-04    4.51      44.8  T
   7    -31.6303328 -0.105949E-08  0.150E-04    4.51     156.8  T
     SCC iter.                  ...        0 min,  0.090 sec
     gradient                   ...        0 min,  0.034 sec
 * total energy  :   -31.2630972 Eh     change       -0.5796623E-04 Eh
   gradient norm :     0.0020909 Eh/α   predicted    -0.4011766E-04 ( -30.79%)
   displ. norm   :     0.3120375 α      lambda       -0.8834912E-04
   maximum displ.:     0.2370133 α      in ANC's #3, #1, #4, ...

........................................................................
.............................. CYCLE   31 ..............................
........................................................................

 iter      E             dE          RMSdq      gap      omega  full diag
   1    -31.6294623 -0.316295E+02  0.167E-01    4.47       0.0  T
   2    -31.6294653 -0.299253E-05  0.982E-02    4.48       1.0  T
   3    -31.6294639  0.145553E-05  0.142E-02    4.47       1.7  T
   4    -31.6294669 -0.303795E-05  0.484E-03    4.47       4.9  T
   5    -31.6294669 -0.501514E-07  0.260E-03    4.47       9.1  T
   6    -31.6294670 -0.152008E-07  0.691E-04    4.47      34.1  T
   7    -31.6294670 -0.300567E-08  0.317E-04    4.47      74.4  T
     SCC iter.                  ...        0 min,  0.095 sec
     gradient                   ...        0 min,  0.039 sec
 * total energy  :   -31.2631651 Eh     change       -0.6787552E-04 Eh
   gradient norm :     0.0057869 Eh/α   predicted    -0.4847179E-04 ( -28.59%)
   displ. norm   :     0.2913393 α      lambda       -0.8109587E-04
   maximum displ.:     0.2191022 α      in ANC's #3, #4, #1, ...

........................................................................
.............................. CYCLE   32 ..............................
........................................................................

 iter      E             dE          RMSdq      gap      omega  full diag
   1    -31.6280230 -0.316280E+02  0.157E-01    4.43       0.0  T
   2    -31.6280257 -0.273333E-05  0.921E-02    4.44       1.0  T
   3    -31.6280252  0.478404E-06  0.110E-02    4.44       2.1  T
   4    -31.6280269 -0.166448E-05  0.444E-03    4.44       5.3  T
   5    -31.6280270 -0.722427E-07  0.242E-03    4.44       9.7  T
   6    -31.6280270 -0.122536E-07  0.567E-04    4.44      41.5  T
   7    -31.6280270 -0.157165E-08  0.228E-04    4.44     103.5  T
     SCC iter.                  ...        0 min,  0.084 sec
     gradient                   ...        0 min,  0.035 sec
 * total energy  :   -31.2632077 Eh     change       -0.4261834E-04 Eh
   gradient norm :     0.0107479 Eh/α   predicted    -0.4398441E-04 (   3.21%)
   displ. norm   :     0.1331646 α      lambda       -0.1402701E-03
   maximum displ.:     0.0789734 α      in ANC's #3, #2, #4, ...

........................................................................
.............................. CYCLE   33 ..............................
........................................................................

 iter      E             dE          RMSdq      gap      omega  full diag
   1    -31.6296777 -0.316297E+02  0.720E-02    4.48       0.0  T
   2    -31.6296817 -0.400139E-05  0.428E-02    4.47       1.0  T
   3    -31.6296801  0.168246E-05  0.169E-02    4.48       1.4  T
   4    -31.6296826 -0.256338E-05  0.350E-03    4.47       6.7  T
   5    -31.6296828 -0.145664E-06  0.125E-03    4.47      18.8  T
   6    -31.6296828 -0.554177E-08  0.685E-04    4.47      34.4  T
   7    -31.6296828 -0.648374E-09  0.112E-04    4.47     209.9  T
     SCC iter.                  ...        0 min,  0.084 sec
     gradient                   ...        0 min,  0.040 sec
 * total energy  :   -31.2632983 Eh     change       -0.9057151E-04 Eh
   gradient norm :     0.0051051 Eh/α   predicted    -0.7137954E-04 ( -21.19%)
   displ. norm   :     0.3496579 α      lambda       -0.1310543E-03
   maximum displ.:     0.2470926 α      in ANC's #3, #4, #1, ...

........................................................................
.............................. CYCLE   34 ..............................
........................................................................

 iter      E             dE          RMSdq      gap      omega  full diag
   1    -31.6282191 -0.316282E+02  0.177E-01    4.44       0.0  T
   2    -31.6282226 -0.342336E-05  0.104E-01    4.44       1.0  T
   3    -31.6282196  0.298918E-05  0.181E-02    4.43       1.3  T
   4    -31.6282244 -0.485568E-05  0.511E-03    4.43       4.6  T
   5    -31.6282245 -0.629303E-07  0.288E-03    4.43       8.2  T
   6    -31.6282245 -0.202024E-07  0.788E-04    4.43      29.9  T
   7    -31.6282245 -0.308191E-08  0.300E-04    4.43      78.6  T
     SCC iter.                  ...        0 min,  0.091 sec
     gradient                   ...        0 min,  0.033 sec
 * total energy  :   -31.2633943 Eh     change       -0.9605654E-04 Eh
   gradient norm :     0.0075731 Eh/α   predicted    -0.7353554E-04 ( -23.45%)
   displ. norm   :     0.2474575 α      lambda       -0.1255149E-03
   maximum displ.:     0.1561127 α      in ANC's #3, #4, #2, ...

........................................................................
.............................. CYCLE   35 ..............................
........................................................................

 iter      E             dE          RMSdq      gap      omega  full diag
   1    -31.6290059 -0.316290E+02  0.120E-01    4.45       0.0  T
   2    -31.6290106 -0.468559E-05  0.700E-02    4.44       1.0  T
   3    -31.6290072  0.340752E-05  0.191E-02    4.43       1.2  T
   4    -31.6290116 -0.440272E-05  0.502E-03    4.43       4.7  T
   5    -31.6290119 -0.235877E-06  0.206E-03    4.43      11.5  T
   6    -31.6290119 -0.162565E-09  0.879E-04    4.43      26.8  T
   7    -31.6290119 -0.528252E-08  0.267E-04    4.43      88.4  T
     SCC iter.                  ...        0 min,  0.088 sec
     gradient                   ...        0 min,  0.041 sec
 * total energy  :   -31.2634688 Eh     change       -0.7447229E-04 Eh
   gradient norm :     0.0048126 Eh/α   predicted    -0.6659812E-04 ( -10.57%)
   displ. norm   :     0.2568884 α      lambda       -0.7482529E-04
   maximum displ.:     0.1670938 α      in ANC's #3, #4, #1, ...

........................................................................
.............................. CYCLE   36 ..............................
........................................................................

 iter      E             dE          RMSdq      gap      omega  full diag
   1    -31.6275304 -0.316275E+02  0.132E-01    4.40       0.0  T
   2    -31.6275334 -0.297236E-05  0.780E-02    4.40       1.0  T
   3    -31.6275303  0.307597E-05  0.161E-02    4.40       1.5  T
   4    -31.6275344 -0.411120E-05  0.413E-03    4.40       5.7  T
   5    -31.6275345 -0.983416E-07  0.213E-03    4.40      11.1  T
   6    -31.6275345 -0.233648E-08  0.877E-04    4.40      26.9  T
   7    -31.6275345 -0.437518E-08  0.242E-04    4.40      97.5  T
     SCC iter.                  ...        0 min,  0.091 sec
     gradient                   ...        0 min,  0.034 sec
 * total energy  :   -31.2635075 Eh     change       -0.3875102E-04 Eh
   gradient norm :     0.0086513 Eh/α   predicted    -0.3988114E-04 (   2.92%)
   displ. norm   :     0.1453173 α      lambda       -0.1675023E-03
   maximum displ.:     0.0649460 α      in ANC's #4, #1, #3, ...

........................................................................
.............................. CYCLE   37 ..............................
........................................................................

 iter      E             dE          RMSdq      gap      omega  full diag
   1    -31.6319375 -0.316319E+02  0.872E-02    4.48       0.0  T
   2    -31.6319536 -0.160142E-04  0.525E-02    4.47       1.0  T
   3    -31.6319536 -0.758404E-07  0.266E-02    4.48       1.0  T
   4    -31.6319565 -0.290652E-05  0.689E-03    4.48       3.4  T
   5    -31.6319571 -0.574429E-06  0.183E-03    4.48      12.9  T
   6    -31.6319571 -0.187692E-07  0.104E-03    4.48      22.8  T
   7    -31.6319571 -0.134182E-08  0.151E-04    4.48     155.7  T
   8    -31.6319571 -0.572200E-10  0.675E-05    4.48     349.1  T
     SCC iter.                  ...        0 min,  0.165 sec
     gradient                   ...        0 min,  0.057 sec
 * total energy  :   -31.2635139 Eh     change       -0.6364438E-05 Eh
   gradient norm :     0.0067695 Eh/α   predicted    -0.8551910E-04 (1243.70%)
   displ. norm   :     0.1384544 α      lambda       -0.1277604E-03
   maximum displ.:     0.0928727 α      in ANC's #3, #1, #4, ...

........................................................................
.............................. CYCLE   38 ..............................
........................................................................

 iter      E             dE          RMSdq      gap      omega  full diag
   1    -31.6293824 -0.316294E+02  0.754E-02    4.43       0.0  T
   2    -31.6293894 -0.697121E-05  0.437E-02    4.43       1.0  T
   3    -31.6293880  0.139870E-05  0.204E-02    4.42       1.2  T
   4    -31.6293908 -0.281673E-05  0.437E-03    4.42       5.4  T
   5    -31.6293911 -0.244081E-06  0.186E-03    4.42      12.7  T
   6    -31.6293911 -0.168173E-07  0.988E-04    4.42      23.9  T
   7    -31.6293911 -0.785978E-09  0.271E-04    4.42      87.1  T
     SCC iter.                  ...        0 min,  0.108 sec
     gradient                   ...        0 min,  0.039 sec
 * total energy  :   -31.2635901 Eh     change       -0.7615575E-04 Eh
   gradient norm :     0.0040186 Eh/α   predicted    -0.6510536E-04 ( -14.51%)
   displ. norm   :     0.0884573 α      lambda       -0.3607563E-04
   maximum displ.:     0.0564371 α      in ANC's #3, #1, #4, ...

........................................................................
.............................. CYCLE   39 ..............................
........................................................................

 iter      E             dE          RMSdq      gap      omega  full diag
   1    -31.6293890 -0.316294E+02  0.444E-02    4.41       0.0  T
   2    -31.6293896 -0.630600E-06  0.260E-02    4.41       1.0  T
   3    -31.6293891  0.486687E-06  0.723E-03    4.41       3.3  T
   4    -31.6293898 -0.663267E-06  0.169E-03    4.41      13.9  T
   5    -31.6293898 -0.244701E-07  0.895E-04    4.41      26.3  T
   6    -31.6293898 -0.195355E-08  0.404E-04    4.41      58.3  T
     SCC iter.                  ...        0 min,  0.081 sec
     gradient                   ...        0 min,  0.041 sec
 * total energy  :   -31.2636181 Eh     change       -0.2803162E-04 Eh
   gradient norm :     0.0045343 Eh/α   predicted    -0.1817790E-04 ( -35.15%)
   displ. norm   :     0.1984180 α      lambda       -0.7239253E-04
   maximum displ.:     0.1190340 α      in ANC's #1, #3, #4, ...

........................................................................
.............................. CYCLE   40 ..............................
........................................................................

 iter      E             dE          RMSdq      gap      omega  full diag
   1    -31.6293682 -0.316294E+02  0.967E-02    4.41       0.0  T
   2    -31.6293701 -0.190109E-05  0.565E-02    4.40       1.0  T
   3    -31.6293675  0.262343E-05  0.153E-02    4.40       1.5  T
   4    -31.6293709 -0.336110E-05  0.295E-03    4.40       8.0  T
   5    -31.6293709 -0.524315E-07  0.166E-03    4.40      14.2  T
   6    -31.6293709 -0.183063E-08  0.696E-04    4.40      33.8  T
   7    -31.6293709 -0.290378E-08  0.165E-04    4.40     143.0  T
     SCC iter.                  ...        0 min,  0.088 sec
     gradient                   ...        0 min,  0.036 sec
 * total energy  :   -31.2636688 Eh     change       -0.5074559E-04 Eh
   gradient norm :     0.0053092 Eh/α   predicted    -0.3761921E-04 ( -25.87%)
   displ. norm   :     0.1950239 α      lambda       -0.6916247E-04
   maximum displ.:     0.1150017 α      in ANC's #1, #3, #4, ...

........................................................................
.............................. CYCLE   41 ..............................
........................................................................

 iter      E             dE          RMSdq      gap      omega  full diag
   1    -31.6299912 -0.316300E+02  0.930E-02    4.40       0.0  T
   2    -31.6299922 -0.991745E-06  0.548E-02    4.40       1.0  T
   3    -31.6299925 -0.262023E-06  0.402E-03    4.40       5.9  T
   4    -31.6299926 -0.915125E-07  0.219E-03    4.40      10.8  T
   5    -31.6299926 -0.698116E-08  0.122E-03    4.40      19.4  T
   6    -31.6299926 -0.302566E-08  0.380E-04    4.40      62.0  T
   7    -31.6299926 -0.180229E-08  0.951E-05    4.40     247.9  T
     SCC iter.                  ...        0 min,  0.099 sec
     gradient                   ...        0 min,  0.036 sec
 * total energy  :   -31.2637199 Eh     change       -0.5106542E-04 Eh
   gradient norm :     0.0058112 Eh/α   predicted    -0.3589539E-04 ( -29.71%)
   displ. norm   :     0.2611749 α      lambda       -0.8544292E-04
   maximum displ.:     0.1676017 α      in ANC's #1, #3, #4, ...

........................................................................
.............................. CYCLE   42 ..............................
........................................................................

 iter      E             dE          RMSdq      gap      omega  full diag
   1    -31.6301246 -0.316301E+02  0.121E-01    4.41       0.0  T
   2    -31.6301259 -0.132923E-05  0.717E-02    4.40       1.0  T
   3    -31.6301252  0.728501E-06  0.970E-03    4.41       2.4  T
   4    -31.6301266 -0.142575E-05  0.331E-03    4.40       7.1  T
   5    -31.6301266 -0.242434E-07  0.191E-03    4.40      12.3  T
   6    -31.6301266 -0.975696E-08  0.286E-04    4.40      82.4  T
   7    -31.6301266 -0.414467E-09  0.136E-04    4.40     173.2  T
     SCC iter.                  ...        0 min,  0.078 sec
     gradient                   ...        0 min,  0.035 sec
 * total energy  :   -31.2637830 Eh     change       -0.6313618E-04 Eh
   gradient norm :     0.0044090 Eh/α   predicted    -0.4563372E-04 ( -27.72%)
   displ. norm   :     0.3328300 α      lambda       -0.8995572E-04
   maximum displ.:     0.1914928 α      in ANC's #1, #3, #4, ...
 * RMSD in coord.:     0.8412483 α      energy gain  -0.9170418E-03 Eh

generating ANC from exact Hessian ...
Using Lindh-Hessian (1995)
 Shifting diagonal of input Hessian by    8.4779279169526559E-003
 Lowest  eigenvalues of input Hessian
    0.000000    0.000000    0.000000    0.000000    0.000000    0.000000
    0.010000    0.010783    0.011348    0.018106    0.022389    0.026746
    0.031793    0.036263    0.041843    0.053630    0.065166    0.070317
 Highest eigenvalues
    1.769542    1.819657    1.845102    1.953997    2.022891    2.355457


........................................................................
.............................. CYCLE   43 ..............................
........................................................................

 iter      E             dE          RMSdq      gap      omega  full diag
   1    -31.6294938 -0.316295E+02  0.154E-01    4.37       0.0  T
   2    -31.6294975 -0.370261E-05  0.915E-02    4.38       1.0  T
   3    -31.6294901  0.737353E-05  0.243E-02    4.38       1.0  T
   4    -31.6294994 -0.933479E-05  0.463E-03    4.38       5.1  T
   5    -31.6294995 -0.627694E-07  0.262E-03    4.38       9.0  T
   6    -31.6294995 -0.631162E-08  0.756E-04    4.38      31.2  T
   7    -31.6294995 -0.337569E-08  0.161E-04    4.38     146.7  T
     SCC iter.                  ...        0 min,  0.084 sec
     gradient                   ...        0 min,  0.036 sec
 * total energy  :   -31.2638417 Eh     change       -0.5867219E-04 Eh
   gradient norm :     0.0067633 Eh/α   predicted     0.0000000E+00 (-100.00%)
   displ. norm   :     0.0294223 α      lambda       -0.6086924E-04
   maximum displ.:     0.0175756 α      in ANC's #3, #2, #6, ...

........................................................................
.............................. CYCLE   44 ..............................
........................................................................

 iter      E             dE          RMSdq      gap      omega  full diag
   1    -31.6307301 -0.316307E+02  0.231E-02    4.41       0.0  T
   2    -31.6307310 -0.865808E-06  0.138E-02    4.40       1.7  T
   3    -31.6307309  0.110504E-06  0.727E-03    4.40       3.2  T
   4    -31.6307312 -0.303996E-06  0.169E-03    4.40      13.9  T
   5    -31.6307312 -0.298456E-07  0.608E-04    4.40      38.8  T
   6    -31.6307312 -0.111940E-08  0.312E-04    4.40      75.6  T
     SCC iter.                  ...        0 min,  0.083 sec
     gradient                   ...        0 min,  0.045 sec
 * total energy  :   -31.2638820 Eh     change       -0.4024844E-04 Eh
   gradient norm :     0.0017137 Eh/α   predicted    -0.3046209E-04 ( -24.31%)
   displ. norm   :     0.0701489 α      lambda       -0.2682705E-04
   maximum displ.:     0.0498056 α      in ANC's #3, #2, #9, ...

........................................................................
.............................. CYCLE   45 ..............................
........................................................................

 iter      E             dE          RMSdq      gap      omega  full diag
   1    -31.6314792 -0.316315E+02  0.404E-02    4.42       0.0  T
   2    -31.6314799 -0.634039E-06  0.238E-02    4.42       1.0  T
   3    -31.6314787  0.114239E-05  0.116E-02    4.42       2.0  T
   4    -31.6314803 -0.154167E-05  0.171E-03    4.42      13.8  T
   5    -31.6314803 -0.162703E-07  0.915E-04    4.42      25.8  T
   6    -31.6314803 -0.101193E-08  0.263E-04    4.42      89.7  T
     SCC iter.                  ...        0 min,  0.090 sec
     gradient                   ...        0 min,  0.039 sec
 * total energy  :   -31.2639089 Eh     change       -0.2694175E-04 Eh
   gradient norm :     0.0027761 Eh/α   predicted    -0.1344252E-04 ( -50.11%)
   displ. norm   :     0.0812405 α      lambda       -0.3027837E-04
   maximum displ.:     0.0590347 α      in ANC's #3, #2, #9, ...

........................................................................
.............................. CYCLE   46 ..............................
........................................................................

 iter      E             dE          RMSdq      gap      omega  full diag
   1    -31.6313260 -0.316313E+02  0.441E-02    4.42       0.0  T
   2    -31.6313263 -0.257611E-06  0.260E-02    4.42       1.0  T
   3    -31.6313256  0.680136E-06  0.788E-03    4.42       3.0  T
   4    -31.6313265 -0.883901E-06  0.137E-03    4.42      17.2  T
   5    -31.6313265 -0.139846E-08  0.691E-04    4.42      34.1  T
   6    -31.6313265 -0.633573E-09  0.168E-04    4.42     140.2  T
     SCC iter.                  ...        0 min,  0.089 sec
     gradient                   ...        0 min,  0.037 sec
 * total energy  :   -31.2639376 Eh     change       -0.2871762E-04 Eh
   gradient norm :     0.0024182 Eh/α   predicted    -0.1524020E-04 ( -46.93%)
   displ. norm   :     0.1844097 α      lambda       -0.6857492E-04
   maximum displ.:     0.1297665 α      in ANC's #3, #2, #9, ...

........................................................................
.............................. CYCLE   47 ..............................
........................................................................

 iter      E             dE          RMSdq      gap      omega  full diag
   1    -31.6302739 -0.316303E+02  0.986E-02    4.39       0.0  T
   2    -31.6302754 -0.154204E-05  0.581E-02    4.40       1.0  T
   3    -31.6302741  0.129507E-05  0.122E-02    4.40       1.9  T
   4    -31.6302762 -0.207372E-05  0.330E-03    4.40       7.1  T
   5    -31.6302762 -0.271108E-07  0.199E-03    4.40      11.8  T
   6    -31.6302762 -0.890281E-08  0.432E-04    4.40      54.5  T
   7    -31.6302762 -0.101167E-08  0.141E-04    4.40     166.6  T
     SCC iter.                  ...        0 min,  0.091 sec
     gradient                   ...        0 min,  0.040 sec
 * total energy  :   -31.2639941 Eh     change       -0.5645074E-04 Eh
   gradient norm :     0.0037678 Eh/α   predicted    -0.3545270E-04 ( -37.20%)
   displ. norm   :     0.1852449 α      lambda       -0.5262159E-04
   maximum displ.:     0.1263334 α      in ANC's #3, #2, #1, ...

........................................................................
.............................. CYCLE   48 ..............................
........................................................................

 iter      E             dE          RMSdq      gap      omega  full diag
   1    -31.6290341 -0.316290E+02  0.965E-02    4.36       0.0  T
   2    -31.6290358 -0.174760E-05  0.569E-02    4.37       1.0  T
   3    -31.6290349  0.939920E-06  0.109E-02    4.37       2.2  T
   4    -31.6290365 -0.167967E-05  0.308E-03    4.37       7.7  T
   5    -31.6290366 -0.210516E-07  0.191E-03    4.37      12.4  T
   6    -31.6290366 -0.132022E-07  0.366E-04    4.37      64.4  T
   7    -31.6290366 -0.580911E-09  0.113E-04    4.37     208.9  T
     SCC iter.                  ...        0 min,  0.089 sec
     gradient                   ...        0 min,  0.033 sec
 * total energy  :   -31.2640243 Eh     change       -0.3027192E-04 Eh
   gradient norm :     0.0084556 Eh/α   predicted    -0.2721261E-04 ( -10.11%)
   displ. norm   :     0.0648440 α      lambda       -0.4020142E-04
   maximum displ.:     0.0427642 α      in ANC's #2, #3, #1, ...

........................................................................
.............................. CYCLE   49 ..............................
........................................................................

 iter      E             dE          RMSdq      gap      omega  full diag
   1    -31.6294671 -0.316295E+02  0.298E-02    4.38       0.0  T
   2    -31.6294673 -0.207905E-06  0.176E-02    4.38       1.3  T
   3    -31.6294670  0.356210E-06  0.561E-03    4.38       4.2  T
   4    -31.6294674 -0.448764E-06  0.975E-04    4.38      24.2  T
   5    -31.6294674 -0.537678E-08  0.533E-04    4.38      44.2  T
     SCC iter.                  ...        0 min,  0.070 sec
     gradient                   ...        0 min,  0.041 sec
 * total energy  :   -31.2640606 Eh     change       -0.3626510E-04 Eh
   gradient norm :     0.0070878 Eh/α   predicted    -0.2018370E-04 ( -44.34%)
   displ. norm   :     0.3027996 α      lambda       -0.1722337E-03
   maximum displ.:     0.2008314 α      in ANC's #2, #3, #1, ...

........................................................................
.............................. CYCLE   50 ..............................
........................................................................

 iter      E             dE          RMSdq      gap      omega  full diag
   1    -31.6301416 -0.316301E+02  0.147E-01    4.39       0.0  T
   2    -31.6301447 -0.307237E-05  0.871E-02    4.39       1.0  T
   3    -31.6301346  0.100610E-04  0.290E-02    4.39       1.0  T
   4    -31.6301470 -0.124196E-04  0.403E-03    4.39       5.8  T
   5    -31.6301471 -0.370535E-07  0.237E-03    4.39       9.9  T
   6    -31.6301471 -0.834204E-08  0.718E-04    4.39      32.8  T
   7    -31.6301471 -0.406927E-08  0.198E-04    4.39     119.0  T
     SCC iter.                  ...        0 min,  0.082 sec
     gradient                   ...        0 min,  0.034 sec
 * total energy  :   -31.2641814 Eh     change       -0.1208215E-03 Eh
   gradient norm :     0.0056274 Eh/α   predicted    -0.9401279E-04 ( -22.19%)
   displ. norm   :     0.2561981 α      lambda       -0.9338061E-04
   maximum displ.:     0.1728190 α      in ANC's #2, #3, #1, ...

........................................................................
.............................. CYCLE   51 ..............................
........................................................................

 iter      E             dE          RMSdq      gap      omega  full diag
   1    -31.6297746 -0.316298E+02  0.123E-01    4.38       0.0  T
   2    -31.6297764 -0.177325E-05  0.728E-02    4.39       1.0  T
   3    -31.6297705  0.588622E-05  0.220E-02    4.39       1.1  T
   4    -31.6297778 -0.733947E-05  0.333E-03    4.39       7.1  T
   5    -31.6297779 -0.146151E-07  0.184E-03    4.39      12.8  T
   6    -31.6297779 -0.622527E-08  0.472E-04    4.39      49.9  T
   7    -31.6297779 -0.222207E-08  0.147E-04    4.39     160.0  T
     SCC iter.                  ...        0 min,  0.112 sec
     gradient                   ...        0 min,  0.040 sec
 * total energy  :   -31.2642456 Eh     change       -0.6415495E-04 Eh
   gradient norm :     0.0064575 Eh/α   predicted    -0.4975156E-04 ( -22.45%)
   displ. norm   :     0.1548109 α      lambda       -0.1033835E-03
   maximum displ.:     0.1080049 α      in ANC's #2, #3, #1, ...

........................................................................
.............................. CYCLE   52 ..............................
........................................................................

 iter      E             dE          RMSdq      gap      omega  full diag
   1    -31.6328523 -0.316329E+02  0.822E-02    4.46       0.0  T
   2    -31.6328573 -0.506968E-05  0.488E-02    4.45       1.0  T
   3    -31.6328554  0.190330E-05  0.184E-02    4.45       1.3  T
   4    -31.6328585 -0.305477E-05  0.380E-03    4.45       6.2  T
   5    -31.6328586 -0.133691E-06  0.171E-03    4.45      13.7  T
   6    -31.6328586 -0.577106E-08  0.780E-04    4.45      30.2  T
   7    -31.6328586 -0.129632E-08  0.188E-04    4.45     125.2  T
     SCC iter.                  ...        0 min,  0.098 sec
     gradient                   ...        0 min,  0.040 sec
 * total energy  :   -31.2642497 Eh     change       -0.4074942E-05 Eh
   gradient norm :     0.0084805 Eh/α   predicted    -0.5293206E-04 (1198.96%)
   displ. norm   :     0.3584237 α      lambda       -0.1825751E-03
   maximum displ.:     0.2355673 α      in ANC's #2, #3, #1, ...

........................................................................
.............................. CYCLE   53 ..............................
........................................................................

 iter      E             dE          RMSdq      gap      omega  full diag
   1    -31.6284685 -0.316285E+02  0.192E-01    4.34       0.0  T
   2    -31.6284799 -0.114297E-04  0.112E-01    4.36       1.0  T
   3    -31.6284734  0.653401E-05  0.274E-02    4.36       1.0  T
   4    -31.6284829 -0.946971E-05  0.688E-03    4.36       3.4  T
   5    -31.6284832 -0.329176E-06  0.379E-03    4.36       6.2  T
   6    -31.6284832 -0.350720E-07  0.168E-03    4.36      14.1  T
   7    -31.6284833 -0.834387E-08  0.370E-04    4.36      63.6  T
   8    -31.6284833 -0.589125E-09  0.184E-04    4.36     127.8  T
     SCC iter.                  ...        0 min,  0.080 sec
     gradient                   ...        0 min,  0.030 sec
 * total energy  :   -31.2643061 Eh     change       -0.5644349E-04 Eh
   gradient norm :     0.0123007 Eh/α   predicted    -0.1030224E-03 (  82.52%)
   displ. norm   :     0.2056921 α      lambda       -0.1352454E-03
   maximum displ.:     0.1369905 α      in ANC's #2, #3, #1, ...

........................................................................
.............................. CYCLE   54 ..............................
........................................................................

 iter      E             dE          RMSdq      gap      omega  full diag
   1    -31.6311817 -0.316312E+02  0.107E-01    4.42       0.0  T
   2    -31.6311861 -0.438799E-05  0.629E-02    4.41       1.0  T
   3    -31.6311786  0.748709E-05  0.275E-02    4.41       1.0  T
   4    -31.6311881 -0.953253E-05  0.374E-03    4.40       6.3  T
   5    -31.6311882 -0.108339E-06  0.178E-03    4.40      13.3  T
   6    -31.6311882 -0.440421E-08  0.919E-04    4.40      25.6  T
   7    -31.6311882 -0.207213E-08  0.219E-04    4.40     107.7  T
     SCC iter.                  ...        0 min,  0.174 sec
     gradient                   ...        0 min,  0.041 sec
 * total energy  :   -31.2643597 Eh     change       -0.5362403E-04 Eh
   gradient norm :     0.0034331 Eh/α   predicted    -0.7048594E-04 (  31.44%)
   displ. norm   :     0.1130986 α      lambda       -0.4176607E-04
   maximum displ.:     0.0799339 α      in ANC's #2, #3, #1, ...

........................................................................
.............................. CYCLE   55 ..............................
........................................................................

 iter      E             dE          RMSdq      gap      omega  full diag
   1    -31.6310289 -0.316310E+02  0.597E-02    4.40       0.0  T
   2    -31.6310292 -0.270744E-06  0.351E-02    4.40       1.0  T
   3    -31.6310291  0.123981E-06  0.460E-03    4.40       5.1  T
   4    -31.6310294 -0.295023E-06  0.165E-03    4.40      14.3  T
   5    -31.6310294 -0.355143E-08  0.781E-04    4.40      30.2  T
   6    -31.6310294 -0.176607E-08  0.156E-04    4.40     150.9  T
     SCC iter.                  ...        0 min,  0.072 sec
     gradient                   ...        0 min,  0.034 sec
 * total energy  :   -31.2643984 Eh     change       -0.3867164E-04 Eh
   gradient norm :     0.0031384 Eh/α   predicted    -0.2114943E-04 ( -45.31%)
   displ. norm   :     0.5275395 α      lambda       -0.1785271E-03
   maximum displ.:     0.3743770 α      in ANC's #2, #3, #1, ...

........................................................................
.............................. CYCLE   56 ..............................
........................................................................

 iter      E             dE          RMSdq      gap      omega  full diag
   1    -31.6270186 -0.316270E+02  0.288E-01    4.32       0.0  T
   2    -31.6270291 -0.104899E-04  0.169E-01    4.34       1.0  T
   3    -31.6270258  0.330581E-05  0.226E-02    4.34       1.0  T
   4    -31.6270330 -0.720030E-05  0.799E-03    4.34       2.9  T
   5    -31.6270332 -0.227425E-06  0.471E-03    4.34       5.0  T
   6    -31.6270333 -0.476175E-07  0.138E-03    4.34      17.1  T
   7    -31.6270333 -0.121979E-07  0.297E-04    4.34      79.4  T
   8    -31.6270333 -0.206413E-09  0.167E-04    4.34     140.9  T
     SCC iter.                  ...        0 min,  0.108 sec
     gradient                   ...        0 min,  0.034 sec
 * total energy  :   -31.2644278 Eh     change       -0.2939610E-04 Eh
   gradient norm :     0.0147511 Eh/α   predicted    -0.1140993E-03 ( 288.14%)
   displ. norm   :     0.1985819 α      lambda       -0.2176506E-03
   maximum displ.:     0.1319988 α      in ANC's #2, #3, #1, ...

........................................................................
.............................. CYCLE   57 ..............................
........................................................................

 iter      E             dE          RMSdq      gap      omega  full diag
   1    -31.6313508 -0.316314E+02  0.110E-01    4.43       0.0  T
   2    -31.6313580 -0.723515E-05  0.648E-02    4.42       1.0  T
   3    -31.6313540  0.398785E-05  0.234E-02    4.42       1.0  T
   4    -31.6313598 -0.581671E-05  0.476E-03    4.42       4.9  T
   5    -31.6313601 -0.224180E-06  0.229E-03    4.42      10.3  T
   6    -31.6313601 -0.100265E-07  0.104E-03    4.42      22.8  T
   7    -31.6313601 -0.209208E-08  0.247E-04    4.42      95.4  T
   8    -31.6313601 -0.376360E-09  0.124E-04    4.42     189.9  T
     SCC iter.                  ...        0 min,  0.106 sec
     gradient                   ...        0 min,  0.035 sec
 * total energy  :   -31.2644999 Eh     change       -0.7207537E-04 Eh
   gradient norm :     0.0019297 Eh/α   predicted    -0.1131197E-03 (  56.95%)
   displ. norm   :     0.1952590 α      lambda       -0.3325081E-04
   maximum displ.:     0.1427908 α      in ANC's #2, #3, #1, ...

........................................................................
.............................. CYCLE   58 ..............................
........................................................................

 iter      E             dE          RMSdq      gap      omega  full diag
   1    -31.6306465 -0.316306E+02  0.102E-01    4.41       0.0  T
   2    -31.6306481 -0.169116E-05  0.602E-02    4.41       1.0  T
   3    -31.6306455  0.263478E-05  0.146E-02    4.40       1.6  T
   4    -31.6306489 -0.341839E-05  0.303E-03    4.40       7.8  T
   5    -31.6306490 -0.459870E-07  0.180E-03    4.41      13.1  T
   6    -31.6306490 -0.533208E-08  0.654E-04    4.41      36.0  T
   7    -31.6306490 -0.207305E-08  0.175E-04    4.41     134.7  T
     SCC iter.                  ...        0 min,  0.095 sec
     gradient                   ...        0 min,  0.038 sec
 * total energy  :   -31.2645398 Eh     change       -0.3993957E-04 Eh
   gradient norm :     0.0023768 Eh/α   predicted    -0.1690847E-04 ( -57.66%)
   displ. norm   :     0.3089831 α      lambda       -0.6221676E-04
   maximum displ.:     0.2284830 α      in ANC's #2, #3, #1, ...

........................................................................
.............................. CYCLE   59 ..............................
........................................................................

 iter      E             dE          RMSdq      gap      omega  full diag
   1    -31.6289482 -0.316289E+02  0.172E-01    4.36       0.0  T
   2    -31.6289523 -0.416797E-05  0.101E-01    4.37       1.0  T
   3    -31.6289481  0.425732E-05  0.193E-02    4.37       1.2  T
   4    -31.6289539 -0.585936E-05  0.488E-03    4.37       4.8  T
   5    -31.6289541 -0.121342E-06  0.274E-03    4.37       8.6  T
   6    -31.6289541 -0.831105E-08  0.104E-03    4.37      22.7  T
   7    -31.6289541 -0.739506E-08  0.276E-04    4.37      85.5  T
   8    -31.6289541 -0.721837E-09  0.117E-04    4.37     201.1  T
     SCC iter.                  ...        0 min,  0.112 sec
     gradient                   ...        0 min,  0.034 sec
 * total energy  :   -31.2645550 Eh     change       -0.1516497E-04 Eh
   gradient norm :     0.0091011 Eh/α   predicted    -0.3407772E-04 ( 124.71%)
   displ. norm   :     0.0685616 α      lambda       -0.5492501E-04
   maximum displ.:     0.0461181 α      in ANC's #2, #3, #1, ...

........................................................................
.............................. CYCLE   60 ..............................
........................................................................

 iter      E             dE          RMSdq      gap      omega  full diag
   1    -31.6308852 -0.316309E+02  0.413E-02    4.41       0.0  T
   2    -31.6308867 -0.155036E-05  0.241E-02    4.41       1.0  T
   3    -31.6308865  0.211903E-06  0.720E-03    4.41       3.3  T
   4    -31.6308869 -0.367305E-06  0.167E-03    4.41      14.1  T
   5    -31.6308869 -0.302748E-07  0.826E-04    4.41      28.5  T
   6    -31.6308869 -0.304998E-08  0.453E-04    4.41      52.0  T
     SCC iter.                  ...        0 min,  0.122 sec
     gradient                   ...        0 min,  0.046 sec
 * total energy  :   -31.2645849 Eh     change       -0.2994881E-04 Eh
   gradient norm :     0.0025203 Eh/α   predicted    -0.2759198E-04 (  -7.87%)
   displ. norm   :     0.0967369 α      lambda       -0.2113962E-04
   maximum displ.:     0.0767320 α      in ANC's #2, #3, #6, ...

........................................................................
.............................. CYCLE   61 ..............................
........................................................................

 iter      E             dE          RMSdq      gap      omega  full diag
   1    -31.6313769 -0.316314E+02  0.550E-02    4.42       0.0  T
   2    -31.6313772 -0.313376E-06  0.325E-02    4.42       1.0  T
   3    -31.6313766  0.588760E-06  0.690E-03    4.42       3.4  T
   4    -31.6313774 -0.762485E-06  0.144E-03    4.42      16.3  T
   5    -31.6313774 -0.694846E-08  0.848E-04    4.42      27.8  T
   6    -31.6313774 -0.125834E-08  0.232E-04    4.42     101.5  T
     SCC iter.                  ...        0 min,  0.078 sec
     gradient                   ...        0 min,  0.033 sec
 * total energy  :   -31.2646020 Eh     change       -0.1705681E-04 Eh
   gradient norm :     0.0013213 Eh/α   predicted    -0.1066851E-04 ( -37.45%)
   displ. norm   :     0.3183615 α      lambda       -0.3203747E-04
   maximum displ.:     0.2505314 α      in ANC's #2, #3, #6, ...

........................................................................
.............................. CYCLE   62 ..............................
........................................................................

 iter      E             dE          RMSdq      gap      omega  full diag
   1    -31.6306549 -0.316307E+02  0.188E-01    4.40       0.0  T
   2    -31.6306581 -0.313632E-05  0.110E-01    4.40       1.0  T
   3    -31.6306531  0.494746E-05  0.205E-02    4.41       1.1  T
   4    -31.6306598 -0.667826E-05  0.471E-03    4.41       5.0  T
   5    -31.6306599 -0.640196E-07  0.260E-03    4.41       9.1  T
   6    -31.6306599 -0.944469E-08  0.814E-04    4.41      29.0  T
   7    -31.6306599 -0.691620E-08  0.241E-04    4.41      97.7  T
     SCC iter.                  ...        0 min,  0.087 sec
     gradient                   ...        0 min,  0.040 sec
 * total energy  :   -31.2646209 Eh     change       -0.1894292E-04 Eh
   gradient norm :     0.0045256 Eh/α   predicted    -0.1673939E-04 ( -11.63%)
   displ. norm   :     0.0377630 α      lambda       -0.1724248E-04
   maximum displ.:     0.0232955 α      in ANC's #2, #3, #1, ...

........................................................................
.............................. CYCLE   63 ..............................
........................................................................

 iter      E             dE          RMSdq      gap      omega  full diag
   1    -31.6318786 -0.316319E+02  0.203E-02    4.43       0.0  T
   2    -31.6318790 -0.488499E-06  0.121E-02    4.43       1.9  T
   3    -31.6318789  0.157642E-06  0.604E-03    4.43       3.9  T
   4    -31.6318792 -0.305128E-06  0.119E-03    4.43      19.9  T
   5    -31.6318792 -0.176491E-07  0.468E-04    4.43      50.4  T
   6    -31.6318792 -0.467825E-09  0.247E-04    4.43      95.5  T
     SCC iter.                  ...        0 min,  0.079 sec
     gradient                   ...        0 min,  0.032 sec
 * total energy  :   -31.2646297 Eh     change       -0.8732521E-05 Eh
   gradient norm :     0.0016082 Eh/α   predicted    -0.8634639E-05 (  -1.12%)
   displ. norm   :     0.0628730 α      lambda       -0.5083304E-05
   maximum displ.:     0.0515731 α      in ANC's #2, #3, #6, ...

........................................................................
.............................. CYCLE   64 ..............................
........................................................................

 iter      E             dE          RMSdq      gap      omega  full diag
   1    -31.6317325 -0.316317E+02  0.359E-02    4.43       0.0  T
   2    -31.6317333 -0.817162E-06  0.213E-02    4.43       1.1  T
   3    -31.6317331  0.256530E-06  0.552E-03    4.43       4.3  T
   4    -31.6317334 -0.305413E-06  0.188E-03    4.43      12.5  T
   5    -31.6317334 -0.519784E-07  0.592E-04    4.43      39.8  T
   6    -31.6317334 -0.640298E-09  0.316E-04    4.43      74.6  T
     SCC iter.                  ...        0 min,  0.085 sec
     gradient                   ...        0 min,  0.044 sec
 * total energy  :   -31.2646333 Eh     change       -0.3683784E-05 Eh
   gradient norm :     0.0013955 Eh/α   predicted    -0.2547276E-05 ( -30.85%)
   displ. norm   :     0.0691407 α      lambda       -0.3913598E-05
   maximum displ.:     0.0523504 α      in ANC's #2, #3, #6, ...

........................................................................
.............................. CYCLE   65 ..............................
........................................................................

 iter      E             dE          RMSdq      gap      omega  full diag
   1    -31.6319138 -0.316319E+02  0.434E-02    4.43       0.0  T
   2    -31.6319139 -0.117922E-06  0.254E-02    4.43       1.0  T
   3    -31.6319139 -0.112283E-07  0.203E-03    4.43      11.6  T
   4    -31.6319140 -0.456684E-07  0.984E-04    4.43      23.9  T
   5    -31.6319140 -0.254082E-08  0.518E-04    4.43      45.5  T
     SCC iter.                  ...        0 min,  0.069 sec
     gradient                   ...        0 min,  0.033 sec
 * total energy  :   -31.2646372 Eh     change       -0.3816661E-05 Eh
   gradient norm :     0.0006788 Eh/α   predicted    -0.1961277E-05 ( -48.61%)
   displ. norm   :     0.0540700 α      lambda       -0.2786437E-05
   maximum displ.:     0.0403665 α      in ANC's #2, #3, #1, ...

........................................................................
.............................. CYCLE   66 ..............................
........................................................................

 iter      E             dE          RMSdq      gap      omega  full diag
   1    -31.6317193 -0.316317E+02  0.338E-02    4.43       0.0  T
   2    -31.6317196 -0.237626E-06  0.197E-02    4.43       1.2  T
   3    -31.6317196  0.238685E-07  0.241E-03    4.43       9.8  T
   4    -31.6317196 -0.574648E-07  0.753E-04    4.43      31.3  T
   5    -31.6317196 -0.342085E-08  0.420E-04    4.43      56.1  T
     SCC iter.                  ...        0 min,  0.058 sec
     gradient                   ...        0 min,  0.033 sec
 * total energy  :   -31.2646392 Eh     change       -0.2054786E-05 Eh
   gradient norm :     0.0010389 Eh/α   predicted    -0.1394045E-05 ( -32.16%)
   displ. norm   :     0.0213626 α      lambda       -0.1948040E-05
   maximum displ.:     0.0192811 α      in ANC's #1, #7, #9, ...
 * RMSD in coord.:     0.6644011 α      energy gain  -0.8561707E-03 Eh

generating ANC from exact Hessian ...
Using Lindh-Hessian (1995)
 Shifting diagonal of input Hessian by    8.6032651119873748E-003
 Lowest  eigenvalues of input Hessian
    0.000000    0.000000    0.000000    0.000000    0.000000    0.000000
    0.010000    0.011042    0.011970    0.017624    0.023702    0.028791
    0.032231    0.036344    0.041253    0.055775    0.066506    0.073757
 Highest eigenvalues
    1.778566    1.818954    1.847095    1.954826    2.023160    2.368999


........................................................................
.............................. CYCLE   67 ..............................
........................................................................

 iter      E             dE          RMSdq      gap      omega  full diag
   1    -31.6320478 -0.316320E+02  0.817E-03    4.43       0.0  T
   2    -31.6320479 -0.979071E-07  0.478E-03    4.43       4.9  T
   3    -31.6320479  0.122903E-07  0.186E-03    4.43      12.7  T
   4    -31.6320479 -0.141194E-07  0.622E-04    4.43      37.9  T
   5    -31.6320479 -0.600784E-08  0.130E-04    4.43     181.5  T
     SCC iter.                  ...        0 min,  0.062 sec
     gradient                   ...        0 min,  0.037 sec
 * total energy  :   -31.2646411 Eh     change       -0.1897986E-05 Eh
   gradient norm :     0.0007469 Eh/α   predicted     0.0000000E+00 (-100.00%)
   displ. norm   :     0.0097769 α      lambda       -0.1357069E-05
   maximum displ.:     0.0072271 α      in ANC's #1, #3, #2, ...

........................................................................
.............................. CYCLE   68 ..............................
........................................................................

 iter      E             dE          RMSdq      gap      omega  full diag
   1    -31.6318134 -0.316318E+02  0.625E-03    4.43       0.0  T
   2    -31.6318135 -0.342091E-07  0.371E-03    4.43       6.4  T
   3    -31.6318134  0.190422E-07  0.185E-03    4.43      12.8  T
   4    -31.6318135 -0.303541E-07  0.358E-04    4.43      65.8  T
   5    -31.6318135 -0.151883E-08  0.125E-04    4.43     188.0  T
     SCC iter.                  ...        0 min,  0.082 sec
     gradient                   ...        0 min,  0.044 sec
 * total energy  :   -31.2646423 Eh     change       -0.1179518E-05 Eh
   gradient norm :     0.0003872 Eh/α   predicted    -0.6769608E-06 ( -42.61%)
   displ. norm   :     0.0139758 α      lambda       -0.9081750E-06
   maximum displ.:     0.0092345 α      in ANC's #1, #3, #4, ...

........................................................................
.............................. CYCLE   69 ..............................
........................................................................

 iter      E             dE          RMSdq      gap      omega  full diag
   1    -31.6317560 -0.316318E+02  0.597E-03    4.43       0.0  T
   2    -31.6317560 -0.325169E-07  0.353E-03    4.43       6.7  T
   3    -31.6317560  0.226293E-07  0.187E-03    4.43      12.6  T
   4    -31.6317560 -0.350559E-07  0.328E-04    4.43      71.9  T
   5    -31.6317560 -0.106543E-08  0.119E-04    4.43     198.1  T
     SCC iter.                  ...        0 min,  0.066 sec
     gradient                   ...        0 min,  0.040 sec
 * total energy  :   -31.2646433 Eh     change       -0.9746782E-06 Eh
   gradient norm :     0.0004083 Eh/α   predicted    -0.4531956E-06 ( -53.50%)
   displ. norm   :     0.0261919 α      lambda       -0.1197202E-05
   maximum displ.:     0.0171434 α      in ANC's #1, #3, #4, ...

   *** GEOMETRY OPTIMIZATION CONVERGED AFTER 69 ITERATIONS ***

------------------------------------------------------------------------
 total energy gain   :        -0.0057501 Eh       -3.6082 kcal/mol
 total RMSD          :         1.4328938 a0        0.7583 Å
 total power (kW/mol):        -0.2187955 (step)   -1.3191 (real)
------------------------------------------------------------------------

 ANCopt (total)                0 d,  0 h,  0 min, 11.444 sec
 optimizer setup                ...        0 min,  0.001 sec (  0.006%)
 model hessian                  ...        0 min,  0.011 sec (  0.097%)
 ANC generation                 ...        0 min,  0.016 sec (  0.140%)
 coordinate transformation      ...        0 min,  0.001 sec (  0.005%)
 single point calculation       ...        0 min, 11.138 sec ( 97.320%)
 optimization log               ...        0 min,  0.006 sec (  0.050%)
 hessian update                 ...        0 min,  0.251 sec (  2.191%)
 rational function              ...        0 min,  0.012 sec (  0.105%)

================
 final structure:
================
18
 xtb: 6.7.1 (edcfbbe)
C            3.04900918908459        0.69995324708302        0.58494932767316
C            1.94334001734464       -0.23069227398768        0.16281183393823
O            1.70867688384794       -1.29923777516956        0.66019009296830
O            1.25219415521750        0.28541024522765       -0.86131163497008
C            0.14939457936781       -0.48327148945471       -1.35885264036068
C           -1.09048730291530       -0.23647683782888       -0.56730134649422
C           -1.46948837160743       -0.66805982314084        0.67055559365092
C           -2.73451068292164       -0.08339717674240        0.91963385600553
C           -3.02674780042278        0.65713204082346       -0.18309374021429
O           -2.03809506369951        0.57502942974517       -1.08716313736860
H            2.90402202770028        0.97021055814919        1.62839469293887
H            3.04973374951382        1.58995107065960       -0.03557798115024
H            4.00148741426188        0.18184581816858        0.50198260635825
H            0.00567085520384       -0.15659269129163       -2.38972328355565
H            0.41778710445290       -1.54455124586010       -1.31703882689443
H           -0.91073388983894       -1.31726839094999        1.31281660589004
H           -3.33716245411811       -0.20239914704976        1.79626435215901
H           -3.87409041047362        1.26241444162049       -0.43753637057305

 Bond Distances (Angstroems)
 ---------------------------
C1-C2=1.5056         C1-H11=1.0876        C1-H12=1.0850        C1-H13=1.0874        C2-C1=1.5056         C2-O3=1.2018         
C2-O4=1.3390         O3-C2=1.2018         O4-C2=1.3390         O4-C5=1.4334         C5-O4=1.4334         C5-C6=1.4916         
C5-H14=1.0909        C5-H15=1.0955        C6-C5=1.4916         C6-C7=1.3646         C6-O10=1.3516        C7-C6=1.3646         
C7-C8=1.4157         C7-H16=1.0706        C8-C7=1.4157         C8-C9=1.3601         C8-H17=1.0704        C9-C8=1.3601         
C9-O10=1.3422        C9-H18=1.0720        O10-C6=1.3516        O10-C9=1.3422        H11-C1=1.0876        H12-C1=1.0850        
H13-C1=1.0874        H14-C5=1.0909        H15-C5=1.0955        H16-C7=1.0706        H17-C8=1.0704        H18-C9=1.0720        
 C  H  Rav=1.0824 sigma=0.0093  Rmin=1.0704  Rmax=1.0955     8
 C  C  Rav=1.4275 sigma=0.0614  Rmin=1.3601  Rmax=1.5056     5
 O  C  Rav=1.3336 sigma=0.0745  Rmin=1.2018  Rmax=1.4334     5

 selected bond angles (degree)
 --------------------
H11-C1-C2=108.95               H12-C1-C2=110.32               H12-C1-H11=110.18              H13-C1-C2=109.11               
H13-C1-H11=107.96              H13-C1-H12=110.28              O3-C2-C1=125.24                O4-C2-C1=110.81                
O4-C2-O3=123.95                C5-O4-C2=117.12                C6-C5-O4=111.51                H14-C5-O4=105.59               
H14-C5-C6=110.02               H15-C5-O4=108.53               H15-C5-C6=110.10               H15-C5-H14=111.01              
C7-C6-C5=131.29                O10-C6-C5=118.56               O10-C6-C7=110.13               C8-C7-C6=106.09                
H16-C7-C6=126.23               H16-C7-C8=127.68               C9-C8-C7=105.92                H17-C8-C7=126.96               
H17-C8-C9=127.12               O10-C9-C8=110.77               H18-C9-C8=132.05               H18-C9-O10=117.19              
C9-O10-C6=107.10               

 selected dihedral angles (degree)
 ---------------------------------
O3-C2-C1-H11=300.28           O3-C2-C1-H12=179.21           O3-C2-C1-H13= 57.92           O4-C2-C1-H11=120.89           
O4-C2-C1-H12=359.82           O4-C2-C1-H13=238.53           C5-O4-C2-C1=180.98            C5-O4-C2-O3=  1.58            
C6-C5-O4-C2= 84.44            H14-C5-O4-C2=203.92           H15-C5-O4-C2=323.00           C7-C6-C5-O4=284.37            
C7-C6-C5-H14=167.56           C7-C6-C5-H15= 44.90           O10-C6-C5-O4=102.41           O10-C6-C5-H14=345.60          
O10-C6-C5-H15=222.94          C8-C7-C6-C5=178.35            C8-C7-C6-O10=  0.18           H16-C7-C6-C5=358.42           
H16-C7-C6-O10=180.26          C9-C8-C7-C6=  0.00            C9-C8-C7-H16=179.91           H17-C8-C7-C6=179.88           
H17-C8-C7-H16=359.81          O10-C9-C8-C7=359.83           O10-C9-C8-H17=179.94          H18-C9-C8-C7=179.65           
H18-C9-C8-H17=359.75          C9-O10-C6-C5=181.28           C9-O10-C6-C7=359.72           C6-O10-C9-C8=  0.28           
C6-O10-C9-H18=180.43          
           -------------------------------------------------
          |                Final Singlepoint                |
           -------------------------------------------------

          ...................................................
          :                      SETUP                      :
          :.................................................:
          :  # basis functions                  48          :
          :  # atomic orbitals                  48          :
          :  # shells                           28          :
          :  # electrons                        54          :
          :  max. iterations                   250          :
          :  Hamiltonian                  GFN2-xTB          :
          :  restarted?                      false          :
          :  GBSA solvation                  false          :
          :  PC potential                    false          :
          :  electronic temp.          300.0000000     K    :
          :  accuracy                    1.0000000          :
          :  -> integral cutoff          0.2500000E+02      :
          :  -> integral neglect         0.1000000E-07      :
          :  -> SCF convergence          0.1000000E-05 Eh   :
          :  -> wf. convergence          0.1000000E-03 e    :
          :  Broyden damping             0.4000000          :
          :  net charge                          0          :
          :  unpaired electrons                  0          :
          ...................................................

 iter      E             dE          RMSdq      gap      omega  full diag
   1    -31.6317560 -0.316318E+02  0.662E-05    4.43       0.0  T
   2    -31.6317560 -0.443734E-11  0.421E-05    4.43     560.1  T
   3    -31.6317560  0.105871E-11  0.214E-05    4.43    1101.7  T

   *** convergence criteria satisfied after 3 iterations ***

         #    Occupation            Energy/Eh            Energy/eV
      -------------------------------------------------------------
         1        2.0000           -0.7476609             -20.3449
       ...           ...                  ...                  ...
        21        2.0000           -0.4802301             -13.0677
        22        2.0000           -0.4680629             -12.7366
        23        2.0000           -0.4659531             -12.6792
        24        2.0000           -0.4492046             -12.2235
        25        2.0000           -0.4287418             -11.6667
        26        2.0000           -0.4225144             -11.4972
        27        2.0000           -0.3943793             -10.7316 (HOMO)
        28                         -0.2317211              -6.3055 (LUMO)
        29                         -0.2194606              -5.9718
        30                         -0.1656052              -4.5063
        31                          0.0139292               0.3790
        32                          0.0680567               1.8519
       ...                                ...                  ...
        48                          0.6985043              19.0073
      -------------------------------------------------------------
                  HL-Gap            0.1626581 Eh            4.4262 eV
             Fermi-level           -0.3130502 Eh           -8.5185 eV

 SCC (total)                   0 d,  0 h,  0 min,  0.169 sec
 SCC setup                      ...        0 min,  0.002 sec (  1.383%)
 Dispersion                     ...        0 min,  0.009 sec (  5.189%)
 classical contributions        ...        0 min,  0.004 sec (  2.551%)
 integral evaluation            ...        0 min,  0.014 sec (  8.011%)
 iterations                     ...        0 min,  0.087 sec ( 51.596%)
 molecular gradient             ...        0 min,  0.053 sec ( 31.187%)
 printout                       ...        0 min,  0.000 sec (  0.066%)

         :::::::::::::::::::::::::::::::::::::::::::::::::::::
         ::                     SUMMARY                     ::
         :::::::::::::::::::::::::::::::::::::::::::::::::::::
         :: total energy             -31.264643260180 Eh    ::
         :: gradient norm              0.000408529771 Eh/a0 ::
         :: HOMO-LUMO gap              4.426152416833 eV    ::
         ::.................................................::
         :: SCC energy               -31.631715958223 Eh    ::
         :: -> isotropic ES            0.052550209562 Eh    ::
         :: -> anisotropic ES          0.000848307447 Eh    ::
         :: -> anisotropic XC          0.005248407491 Eh    ::
         :: -> dispersion             -0.012834099474 Eh    ::
         :: repulsion energy           0.367072698043 Eh    ::
         :: add. restraining           0.000000000000 Eh    ::
         :: total charge               0.000000000000 e     ::
         :::::::::::::::::::::::::::::::::::::::::::::::::::::

           -------------------------------------------------
          |                Property Printout                |
           -------------------------------------------------

    * Orbital Energies and Occupations

         #    Occupation            Energy/Eh            Energy/eV
      -------------------------------------------------------------
         1        2.0000           -0.7476609             -20.3449
       ...           ...                  ...                  ...
        15        2.0000           -0.5456719             -14.8485
        16        2.0000           -0.5180347             -14.0964
        17        2.0000           -0.5077191             -13.8157
        18        2.0000           -0.4921938             -13.3933
        19        2.0000           -0.4873357             -13.2611
        20        2.0000           -0.4827709             -13.1369
        21        2.0000           -0.4802301             -13.0677
        22        2.0000           -0.4680629             -12.7366
        23        2.0000           -0.4659531             -12.6792
        24        2.0000           -0.4492046             -12.2235
        25        2.0000           -0.4287418             -11.6667
        26        2.0000           -0.4225144             -11.4972
        27        2.0000           -0.3943793             -10.7316 (HOMO)
        28                         -0.2317211              -6.3055 (LUMO)
        29                         -0.2194606              -5.9718
        30                         -0.1656052              -4.5063
        31                          0.0139292               0.3790
        32                          0.0680567               1.8519
        33                          0.0990735               2.6959
        34                          0.1272424               3.4624
        35                          0.1490729               4.0565
        36                          0.1541186               4.1938
        37                          0.1569897               4.2719
        38                          0.1588319               4.3220
       ...                                ...                  ...
        48                          0.6985043              19.0073
      -------------------------------------------------------------
                  HL-Gap            0.1626581 Eh            4.4262 eV
             Fermi-level           -0.3130502 Eh           -8.5185 eV

     #   Z          covCN         q      C6AA      α(0)
     1   6 C        3.753    -0.148    23.416     6.900
     2   6 C        2.712     0.363    20.847     7.474
     3   8 O        0.856    -0.409    21.860     6.269
     4   8 O        1.704    -0.265    18.391     5.790
     5   6 C        3.700     0.068    19.599     6.331
     6   6 C        3.114     0.098    25.690     8.303
     7   6 C        3.022    -0.064    29.559     8.918
     8   6 C        3.016    -0.063    29.534     8.915
     9   6 C        3.069     0.068    26.411     8.427
    10   8 O        1.730    -0.183    17.058     5.577
    11   1 H        0.925     0.082     1.959     2.189
    12   1 H        0.925     0.073     2.056     2.242
    13   1 H        0.925     0.082     1.958     2.188
    14   1 H        0.924     0.076     2.022     2.224
    15   1 H        0.924     0.070     2.082     2.256
    16   1 H        0.926     0.058     2.225     2.333
    17   1 H        0.926     0.043     2.403     2.424
    18   1 H        0.926     0.051     2.311     2.377

 Mol. C6AA /au·bohr⁶  :       3539.148665
 Mol. C8AA /au·bohr⁸  :      81977.883308
 Mol. α(0) /au        :         91.136434


Wiberg/Mayer (AO) data.
largest (>0.10) Wiberg bond orders for each atom

 ---------------------------------------------------------------------------
     #   Z sym  total        # sym  WBO       # sym  WBO       # sym  WBO
 ---------------------------------------------------------------------------
     1   6 C    3.990 --     2 C    0.987    12 H    0.984    13 H    0.963
                            11 H    0.962
     2   6 C    3.916 --     3 O    1.757     4 O    1.128     1 C    0.987
     3   8 O    2.041 --     2 C    1.757     4 O    0.172
     4   8 O    2.305 --     2 C    1.128     5 C    0.932     3 O    0.172
     5   6 C    3.934 --     6 C    1.005    14 H    0.968    15 H    0.960
                             4 O    0.932
     6   6 C    3.908 --     7 C    1.580    10 O    1.115     5 C    1.005
                             9 C    0.147
     7   6 C    3.983 --     6 C    1.580     8 C    1.295    16 H    0.972
     8   6 C    3.984 --     9 C    1.608     7 C    1.295    17 H    0.975
     9   6 C    3.905 --     8 C    1.608    10 O    1.138    18 H    0.966
                             6 C    0.147
    10   8 O    2.444 --     9 C    1.138     6 C    1.115
    11   1 H    0.993 --     1 C    0.962
    12   1 H    0.995 --     1 C    0.984
    13   1 H    0.993 --     1 C    0.963
    14   1 H    0.994 --     5 C    0.968
    15   1 H    0.995 --     5 C    0.960
    16   1 H    0.997 --     7 C    0.972
    17   1 H    0.998 --     8 C    0.975
    18   1 H    0.997 --     9 C    0.966
 ---------------------------------------------------------------------------

Topologies differ in total number of bonds
Writing topology from bond orders to xtbtopo.mol

molecular dipole:
                 x           y           z       tot (Debye)
 q only:       -0.034       0.508      -0.191
   full:       -0.015       0.600      -0.266       1.669
molecular quadrupole (traceless):
                xx          xy          yy          xz          yz          zz
 q only:        5.704       4.314      -4.662      -0.878       3.746      -1.042
  q+dip:        5.375       3.062      -5.476      -1.669       3.310       0.101
   full:        5.941       3.632      -5.373      -1.593       4.620      -0.569

           -------------------------------------------------
          |                Geometry Summary                 |
           -------------------------------------------------

      molecular mass/u    :      140.1368921
   center of mass at/Å    :       -0.1509204      -0.0740142      -0.1198607
  moments of inertia/u·Å² :        0.1568126E+03   0.6497933E+03   0.7021900E+03
rotational constants/cm⁻¹ :        0.1075018E+00   0.2594307E-01   0.2400723E-01

 * 17 selected distances

     #   Z          #   Z                                           value/Å
     2   6 C        3   8 O                                       1.2017661
     2   6 C        4   8 O                                       1.3389823
     4   8 O        5   6 C                                       1.4333827
     5   6 C        6   6 C                                       1.4915658 (max)
     6   6 C        7   6 C                                       1.3646230
     7   6 C        8   6 C                                       1.4156808
     8   6 C        9   6 C                                       1.3600715
     6   6 C       10   8 O                                       1.3515767
     9   6 C       10   8 O                                       1.3422060
     1   6 C       11   1 H                                       1.0875839
     1   6 C       12   1 H                                       1.0849659
     1   6 C       13   1 H                                       1.0874437
     5   6 C       14   1 H                                       1.0909033
     5   6 C       15   1 H                                       1.0954898
     7   6 C       16   1 H                                       1.0705969
     8   6 C       17   1 H                                       1.0704354 (min)
     9   6 C       18   1 H                                       1.0719597

 * 3 distinct bonds (by element types)

   Z      Z             #   av. dist./Å        max./Å        min./Å
   1 H    6 C           8     1.0824223     1.0954898     1.0704354
   6 C    6 C           4     1.4079853     1.4915658     1.3600715
   6 C    8 O           5     1.3335827     1.4333827     1.2017661


optimized geometry written to: xtbopt.xyz


           -------------------------------------------------
          | TOTAL ENERGY              -31.264643260180 Eh   |
          | GRADIENT NORM               0.000408529771 Eh/α |
          | HOMO-LUMO GAP               4.426152416833 eV   |
           -------------------------------------------------

------------------------------------------------------------------------
 * finished run on 2026/07/09 at 00:52:27.433     
------------------------------------------------------------------------
 total:
 * wall-time:     0 d,  0 h,  0 min, 12.009 sec
 *  cpu-time:     0 d,  0 h,  3 min, 11.164 sec
 * ratio c/w:    15.919 speedup
 SCF:
 * wall-time:     0 d,  0 h,  0 min,  0.315 sec
 *  cpu-time:     0 d,  0 h,  0 min,  5.009 sec
 * ratio c/w:    15.920 speedup
 ANC optimizer:
 * wall-time:     0 d,  0 h,  0 min, 11.618 sec
 *  cpu-time:     0 d,  0 h,  3 min,  4.977 sec
 * ratio c/w:    15.921 speedup

