23
 energy: -31.549072902127 gnorm: 0.000096164629 xtb: 6.7.1 (edcfbbe)
C           -3.66638960185580        0.65169780474356        0.34291886408976
C           -2.50765582537071       -0.06692408498333       -0.25998343830453
C           -1.37143317039639        0.50656251831155       -0.61387226732692
C           -0.19492785039404       -0.22817991585906       -1.20161827520274
O           -0.55353383811194       -1.56632380017505       -1.47842037543276
C            0.95365582386655       -0.13531170837649       -0.21560821531023
C            1.97026889147074        0.79456352710887       -0.38103880399122
C            2.99869636745184        0.87495361993938        0.54172006919523
C            3.02003893072966        0.02533215551918        1.63450131122575
C            2.00684301827823       -0.90340429227190        1.80490666293652
C            0.97683287531574       -0.98118132838763        0.88581580114166
H           -3.45211260751597        1.71114360530979        0.46137058889250
H           -3.90222856160205        0.22828511422793        1.31897221798881
H           -4.54822917474801        0.53745681737580       -0.28688483790329
H           -2.63285053241654       -1.12829527949333       -0.41863022608494
H           -1.20360931862543        1.56611750213854       -0.47364740540024
H            0.09930376427994        0.27863987528167       -2.13915048565953
H            0.24131459191556       -2.04525511176030       -1.73567593400138
H            1.95706846990178        1.45714601098470       -1.23537415814656
H            3.78733949560956        1.60047401185530        0.40489690686526
H            3.82483876820377        0.08721199370302        2.35218018939247
H            2.01800797386326       -1.56629486212016        2.65774940628785
H            0.17876151015394       -1.69841417307302        1.01042051469589
