      -----------------------------------------------------------      
     |                   =====================                   |     
     |                           x T B                           |     
     |                   =====================                   |     
     |                         S. Grimme                         |     
     |          Mulliken Center for Theoretical Chemistry        |     
     |                    University of Bonn                     |     
      -----------------------------------------------------------      

   * xtb version 6.7.1 (edcfbbe) compiled by 'conda@5dfe00f5fb80' on 2026-06-10

   xtb is free software: you can redistribute it and/or modify it under
   the terms of the GNU Lesser General Public License as published by
   the Free Software Foundation, either version 3 of the License, or
   (at your option) any later version.
   
   xtb is distributed in the hope that it will be useful,
   but WITHOUT ANY WARRANTY; without even the implied warranty of
   MERCHANTABILITY or FITNESS FOR A PARTICULAR PURPOSE.  See the
   GNU Lesser General Public License for more details.
   
   Cite this work as:
   * C. Bannwarth, E. Caldeweyher, S. Ehlert, A. Hansen, P. Pracht,
     J. Seibert, S. Spicher, S. Grimme, WIREs Comput. Mol. Sci., 2020, 11,
     e01493. DOI: 10.1002/wcms.1493
   
   for GFN2-xTB:
   * C. Bannwarth, S. Ehlert and S. Grimme., J. Chem. Theory Comput., 2019,
     15, 1652-1671. DOI: 10.1021/acs.jctc.8b01176
   for GFN1-xTB:
   * S. Grimme, C. Bannwarth, P. Shushkov, J. Chem. Theory Comput., 2017,
     13, 1989-2009. DOI: 10.1021/acs.jctc.7b00118
   for GFN0-xTB:
   * P. Pracht, E. Caldeweyher, S. Ehlert, S. Grimme, ChemRxiv, 2019, preprint.
     DOI: 10.26434/chemrxiv.8326202.v1
   for GFN-FF:
   * S. Spicher and S. Grimme, Angew. Chem. Int. Ed., 2020, 59, 15665-15673.
     DOI: 10.1002/anie.202004239
   
   for ALPB and GBSA implicit solvation:
   * S. Ehlert, M. Stahn, S. Spicher, S. Grimme, J. Chem. Theory Comput.,
     2021, 17, 4250-4261. DOI: 10.1021/acs.jctc.1c00471
   
   for ddCOSMO and CPCM-X implicit solvation:
   * M. Stahn, S. Ehlert, S. Grimme, J. Phys. Chem. A,
     2023, XX, XXXX-XXXX. DOI: 10.1021/acs.jpca.3c04382
   
   for DFT-D4:
   * E. Caldeweyher, C. Bannwarth and S. Grimme, J. Chem. Phys., 2017,
     147, 034112. DOI: 10.1063/1.4993215
   * E. Caldeweyher, S. Ehlert, A. Hansen, H. Neugebauer, S. Spicher,
     C. Bannwarth and S. Grimme, J. Chem. Phys., 2019, 150, 154122.
     DOI: 10.1063/1.5090222
   * E. Caldeweyher, J.-M. Mewes, S. Ehlert and S. Grimme, Phys. Chem. Chem. Phys.
     2020, 22, 8499-8512. DOI: 10.1039/D0CP00502A
   
   for sTDA-xTB:
   * S. Grimme and C. Bannwarth, J. Chem. Phys., 2016, 145, 054103.
     DOI: 10.1063/1.4959605
   
   in the mass-spec context:
   * V. Asgeirsson, C. Bauer and S. Grimme, Chem. Sci., 2017, 8, 4879.
     DOI: 10.1039/c7sc00601b
   * J. Koopman and S. Grimme, ACS Omega 2019, 4, 12, 15120-15133.
     DOI: 10.1021/acsomega.9b02011
   
   for metadynamics refer to:
   * S. Grimme, J. Chem. Theory Comput., 2019, 155, 2847-2862
     DOI: 10.1021/acs.jctc.9b00143
   
   for SPH calculations refer to:
   * S. Spicher and S. Grimme, J. Chem. Theory Comput., 2021, 17, 1701-1714
     DOI: 10.1021/acs.jctc.0c01306
   
   for ONIOM refer to:
   * C. Plett, A. Katbashev, S. Ehlert, S. Grimme, M. Bursch,
     Phys. Chem. Chem. Phys., 2023, 25, 17860-17868. DOI: 10.1039/D3CP02178E
   
   for DIPRO refer to:
   * J. Kohn, N. Gildemeister, S. Grimme, D. Fazzi, A. Hansen,
     J. Chem. Phys., 2023, just accepted.
   
   for PTB refer to:
   * S. Grimme, M. Mueller, A. Hansen, J. Chem. Phys., 2023, 158, 124111.
     DOI: 10.1063/5.0137838
   
   with help from (in alphabetical order)
   P. Atkinson, C. Bannwarth, F. Bohle, G. Brandenburg, E. Caldeweyher
   M. Checinski, S. Dohm, S. Ehlert, S. Ehrlich, I. Gerasimov, C. Hölzer
   A. Katbashev, J. Kohn, J. Koopman, C. Lavigne, S. Lehtola, F. März, M. Müller,
   F. Musil, H. Neugebauer, J. Pisarek, C. Plett, P. Pracht, F. Pultar,
   J. Seibert, P. Shushkov, S. Spicher, M. Stahn, M. Steiner, T. Strunk,
   J. Stückrath, T. Rose, and J. Unsleber
   
 * started run on 2026/07/09 at 00:30:03.168     
   ID    Z sym.   atoms
    1    6 C      1, 3-10
    2    8 O      2
    3    1 H      11-22

           -------------------------------------------------
          |                Calculation Setup                |
           -------------------------------------------------

          program call               : /home/ws/xd2484/miniforge3/envs/p3z_dft/bin/xtb xtb_input.xyz --gfn 2 --opt tight --cycles 500 --chrg 0 --uhf 0
          hostname                   : gpu10
          coordinate file            : xtb_input.xyz
          omp threads                :                    16


           -------------------------------------------------
          |                 G F N 2 - x T B                 |
           -------------------------------------------------

        Reference                      10.1021/acs.jctc.8b01176
      * Hamiltonian:
        H0-scaling (s, p, d)           1.850000    2.230000    2.230000
        zeta-weighting                 0.500000
      * Dispersion:
        s8                             2.700000
        a1                             0.520000
        a2                             5.000000
        s9                             5.000000
      * Repulsion:
        kExp                           1.500000    1.000000
        rExp                           1.000000
      * Coulomb:
        alpha                          2.000000
        third order                    shell-resolved
        anisotropic                    true
        a3                             3.000000
        a5                             4.000000
        cn-shift                       1.200000
        cn-exp                         4.000000
        max-rad                        5.000000


          ...................................................
          :                      SETUP                      :
          :.................................................:
          :  # basis functions                  52          :
          :  # atomic orbitals                  52          :
          :  # shells                           32          :
          :  # electrons                        54          :
          :  max. iterations                   250          :
          :  Hamiltonian                  GFN2-xTB          :
          :  restarted?                      false          :
          :  GBSA solvation                  false          :
          :  PC potential                    false          :
          :  electronic temp.          300.0000000     K    :
          :  accuracy                    1.0000000          :
          :  -> integral cutoff          0.2500000E+02      :
          :  -> integral neglect         0.1000000E-07      :
          :  -> SCF convergence          0.1000000E-05 Eh   :
          :  -> wf. convergence          0.1000000E-03 e    :
          :  Broyden damping             0.4000000          :
          :  net charge                          0          :
          :  unpaired electrons                  0          :
          ...................................................

 iter      E             dE          RMSdq      gap      omega  full diag
   1    -29.8439292 -0.298439E+02  0.402E+00    4.24       0.0  T
   2    -29.8829568 -0.390276E-01  0.236E+00    4.15       1.0  T
   3    -29.8797569  0.319982E-02  0.122E+00    4.22       1.0  T
   4    -29.8891479 -0.939097E-02  0.340E-01    4.18       1.0  T
   5    -29.8898400 -0.692064E-03  0.756E-02    4.22       1.0  T
   6    -29.8898495 -0.947859E-05  0.437E-02    4.20       1.0  T
   7    -29.8898634 -0.139818E-04  0.181E-02    4.20       1.2  T
   8    -29.8898651 -0.164627E-05  0.469E-03    4.20       4.5  T
   9    -29.8898654 -0.264268E-06  0.178E-03    4.20      12.0  T
  10    -29.8898654 -0.287136E-07  0.782E-04    4.20      27.3  T
  11    -29.8898654 -0.138568E-08  0.207E-04    4.20     102.8  T

   *** convergence criteria satisfied after 11 iterations ***

         #    Occupation            Energy/Eh            Energy/eV
      -------------------------------------------------------------
         1        2.0000           -0.7053317             -19.1931
       ...           ...                  ...                  ...
        21        2.0000           -0.4570492             -12.4369
        22        2.0000           -0.4407394             -11.9931
        23        2.0000           -0.4262143             -11.5979
        24        2.0000           -0.4245617             -11.5529
        25        2.0000           -0.4153179             -11.3014
        26        2.0000           -0.3811677             -10.3721
        27        2.0000           -0.3681732             -10.0185 (HOMO)
        28                         -0.2136720              -5.8143 (LUMO)
        29                         -0.2041080              -5.5541
        30                         -0.0869148              -2.3651
        31                          0.0259778               0.7069
        32                          0.0909559               2.4750
       ...                                ...                  ...
        52                          0.6383043              17.3691
      -------------------------------------------------------------
                  HL-Gap            0.1545012 Eh            4.2042 eV
             Fermi-level           -0.2909226 Eh           -7.9164 eV

 SCC (total)                   0 d,  0 h,  0 min,  0.336 sec
 SCC setup                      ...        0 min,  0.007 sec (  2.221%)
 Dispersion                     ...        0 min,  0.016 sec (  4.822%)
 classical contributions        ...        0 min,  0.008 sec (  2.390%)
 integral evaluation            ...        0 min,  0.025 sec (  7.562%)
 iterations                     ...        0 min,  0.234 sec ( 69.835%)
 molecular gradient             ...        0 min,  0.044 sec ( 13.112%)
 printout                       ...        0 min,  0.000 sec (  0.048%)

         :::::::::::::::::::::::::::::::::::::::::::::::::::::
         ::                     SUMMARY                     ::
         :::::::::::::::::::::::::::::::::::::::::::::::::::::
         :: total energy             -29.452417084264 Eh    ::
         :: gradient norm              0.034135979509 Eh/a0 ::
         :: HOMO-LUMO gap              4.204190706233 eV    ::
         ::.................................................::
         :: SCC energy               -29.889822760474 Eh    ::
         :: -> isotropic ES            0.017987573768 Eh    ::
         :: -> anisotropic ES          0.006101602410 Eh    ::
         :: -> anisotropic XC          0.013326061766 Eh    ::
         :: -> dispersion             -0.016789634838 Eh    ::
         :: repulsion energy           0.437405676210 Eh    ::
         :: add. restraining           0.000000000000 Eh    ::
         :: total charge              -0.000000000000 e     ::
         :::::::::::::::::::::::::::::::::::::::::::::::::::::

      ----------------------------------------------------------- 
     |                   =====================                   |
     |                        A N C O P T                        |
     |                   =====================                   |
     |               Approximate Normal Coordinate               |
     |                Rational Function Optimizer                |
      ----------------------------------------------------------- 
      ----------------------------------------------------------- 
     |                   =====================                   |
     |                        A N C O P T                        |
     |                   =====================                   |
     |               Approximate Normal Coordinate               |
     |                Rational Function Optimizer                |
      ----------------------------------------------------------- 

          ...................................................
          :                      SETUP                      :
          :.................................................:
          :   optimization level             tight          :
          :   max. optcycles                   500          :
          :   ANC micro-cycles                  20          :
          :   degrees of freedom                60          :
          :.................................................:
          :   RF solver                   davidson          :
          :   write xtbopt.log                true          :
          :   linear?                        false          :
          :   energy convergence         0.1000000E-05 Eh   :
          :   grad. convergence          0.8000000E-03 Eh/α :
          :   maxmium RF displ.          1.0000000          :
          :   Hlow (freq-cutoff)         0.1000000E-01      :
          :   Hmax (freq-cutoff)         5.0000000          :
          :   S6 in model hess.         20.0000000          :
          ...................................................

generating ANC from exact Hessian ...
Using Lindh-Hessian (1995)
 Shifting diagonal of input Hessian by    7.8142464156546135E-003
 Lowest  eigenvalues of input Hessian
    0.000000    0.000000    0.000000    0.000000    0.000000    0.000000
    0.010000    0.011847    0.012486    0.013427    0.013825    0.017275
    0.017874    0.018079    0.028084    0.028299    0.031836    0.041471
 Highest eigenvalues
    1.480435    1.582118    1.679489    1.833256    1.958255    2.035001


........................................................................
.............................. CYCLE    1 ..............................
........................................................................

 iter      E             dE          RMSdq      gap      omega  full diag
   1    -29.8898654 -0.298899E+02  0.105E-04    4.20       0.0  T
   2    -29.8898654 -0.346425E-10  0.646E-05    4.20     330.3  T
   3    -29.8898654 -0.125731E-10  0.442E-05    4.20     482.7  T
     SCC iter.                  ...        0 min,  0.045 sec
     gradient                   ...        0 min,  0.039 sec
 * total energy  :   -29.4524171 Eh     change       -0.1996980E-09 Eh
   gradient norm :     0.0341376 Eh/α   predicted     0.0000000E+00 (-100.00%)
   displ. norm   :     0.1411633 α      lambda       -0.2914238E-02
   maximum displ.:     0.0621486 α      in ANC's #36, #17, #14, ...

........................................................................
.............................. CYCLE    2 ..............................
........................................................................

 iter      E             dE          RMSdq      gap      omega  full diag
   1    -29.9107336 -0.299107E+02  0.147E-01    4.29       0.0  T
   2    -29.9107432 -0.955610E-05  0.865E-02    4.29       1.0  T
   3    -29.9107389  0.426076E-05  0.223E-02    4.29       1.0  T
   4    -29.9107443 -0.541635E-05  0.457E-03    4.29       4.7  T
   5    -29.9107446 -0.274071E-06  0.174E-03    4.29      12.2  T
   6    -29.9107446 -0.150927E-08  0.523E-04    4.29      40.7  T
   7    -29.9107446 -0.240268E-08  0.179E-04    4.29     119.4  T
     SCC iter.                  ...        0 min,  0.095 sec
     gradient                   ...        0 min,  0.040 sec
 * total energy  :   -29.4542203 Eh     change       -0.1803170E-02 Eh
   gradient norm :     0.0108364 Eh/α   predicted    -0.1486165E-02 ( -17.58%)
   displ. norm   :     0.0559347 α      lambda       -0.2880809E-03
   maximum displ.:     0.0320272 α      in ANC's #17, #14, #19, ...

........................................................................
.............................. CYCLE    3 ..............................
........................................................................

 iter      E             dE          RMSdq      gap      omega  full diag
   1    -29.9165608 -0.299166E+02  0.544E-02    4.31       0.0  T
   2    -29.9165619 -0.118735E-05  0.319E-02    4.31       1.0  T
   3    -29.9165612  0.724894E-06  0.906E-03    4.32       2.4  T
   4    -29.9165621 -0.925015E-06  0.141E-03    4.32      15.1  T
   5    -29.9165622 -0.209681E-07  0.565E-04    4.32      37.7  T
   6    -29.9165622 -0.298659E-09  0.237E-04    4.32      90.0  T
     SCC iter.                  ...        0 min,  0.070 sec
     gradient                   ...        0 min,  0.034 sec
 * total energy  :   -29.4543765 Eh     change       -0.1561992E-03 Eh
   gradient norm :     0.0030061 Eh/α   predicted    -0.1445175E-03 (  -7.48%)
   displ. norm   :     0.0124857 α      lambda       -0.1371192E-04
   maximum displ.:     0.0066883 α      in ANC's #9, #17, #19, ...

........................................................................
.............................. CYCLE    4 ..............................
........................................................................

 iter      E             dE          RMSdq      gap      omega  full diag
   1    -29.9163542 -0.299164E+02  0.104E-02    4.31       0.0  T
   2    -29.9163542 -0.704241E-07  0.618E-03    4.31       3.5  T
   3    -29.9163542  0.382233E-07  0.175E-03    4.31      12.2  T
   4    -29.9163543 -0.491263E-07  0.376E-04    4.31      56.8  T
   5    -29.9163543 -0.212533E-08  0.137E-04    4.31     155.3  T
     SCC iter.                  ...        0 min,  0.059 sec
     gradient                   ...        0 min,  0.035 sec
 * total energy  :   -29.4543865 Eh     change       -0.1000794E-04 Eh
   gradient norm :     0.0011659 Eh/α   predicted    -0.7446205E-05 ( -25.60%)
   displ. norm   :     0.0141835 α      lambda       -0.4164664E-05
   maximum displ.:     0.0070450 α      in ANC's #9, #6, #10, ...

........................................................................
.............................. CYCLE    5 ..............................
........................................................................

 iter      E             dE          RMSdq      gap      omega  full diag
   1    -29.9157135 -0.299157E+02  0.917E-03    4.31       0.0  T
   2    -29.9157136 -0.556152E-07  0.546E-03    4.31       3.9  T
   3    -29.9157135  0.303938E-07  0.142E-03    4.31      15.0  T
   4    -29.9157136 -0.379027E-07  0.378E-04    4.31      56.4  T
   5    -29.9157136 -0.259062E-08  0.138E-04    4.31     155.0  T
     SCC iter.                  ...        0 min,  0.067 sec
     gradient                   ...        0 min,  0.047 sec
 * total energy  :   -29.4543886 Eh     change       -0.2097432E-05 Eh
   gradient norm :     0.0006240 Eh/α   predicted    -0.2084228E-05 (  -0.63%)
   displ. norm   :     0.0041222 α      lambda       -0.5753395E-06
   maximum displ.:     0.0021857 α      in ANC's #6, #5, #10, ...

........................................................................
.............................. CYCLE    6 ..............................
........................................................................

 iter      E             dE          RMSdq      gap      omega  full diag
   1    -29.9158638 -0.299159E+02  0.255E-03    4.31       0.0  T
   2    -29.9158638 -0.453007E-08  0.155E-03    4.31      13.8  T
   3    -29.9158638  0.430611E-08  0.501E-04    4.31      42.6  T
   4    -29.9158638 -0.539388E-08  0.831E-05    4.31     256.6  T
     SCC iter.                  ...        0 min,  0.047 sec
     gradient                   ...        0 min,  0.037 sec
 * total energy  :   -29.4543892 Eh     change       -0.5928434E-06 Eh
   gradient norm :     0.0001236 Eh/α   predicted    -0.3163779E-06 ( -46.63%)
   displ. norm   :     0.0072376 α      lambda       -0.2460815E-06
   maximum displ.:     0.0053876 α      in ANC's #6, #5, #2, ...

   *** GEOMETRY OPTIMIZATION CONVERGED AFTER 6 ITERATIONS ***

------------------------------------------------------------------------
 total energy gain   :        -0.0019721 Eh       -1.2375 kcal/mol
 total RMSD          :         0.0420413 a0        0.0222 Å
 total power (kW/mol):        -0.8629440 (step)   -6.2002 (real)
------------------------------------------------------------------------

 ANCopt (total)                0 d,  0 h,  0 min,  0.835 sec
 optimizer setup                ...        0 min,  0.001 sec (  0.083%)
 model hessian                  ...        0 min,  0.005 sec (  0.582%)
 ANC generation                 ...        0 min,  0.001 sec (  0.096%)
 coordinate transformation      ...        0 min,  0.000 sec (  0.007%)
 single point calculation       ...        0 min,  0.806 sec ( 96.557%)
 optimization log               ...        0 min,  0.001 sec (  0.082%)
 hessian update                 ...        0 min,  0.020 sec (  2.430%)
 rational function              ...        0 min,  0.000 sec (  0.054%)

================
 final structure:
================
22
 xtb: 6.7.1 (edcfbbe)
C            3.35180931573478       -0.34595191900401        0.50807543251283
O            2.24874982368890       -1.18375381055593        0.27234493370779
C            1.01827125145257       -0.61255413845764        0.11339232694287
C            0.76340110752208        0.75079009516337        0.16769718712574
C           -0.53026580129274        1.22724079407186       -0.01122688056131
C           -0.80244517547950        2.70003060612108        0.07131883880059
C           -1.56153412373664        0.33212232600603       -0.24302731716093
C           -1.32186340299283       -1.03600735908019       -0.30094786517418
C           -2.44854635041746       -1.99798791436882       -0.53144434481574
C           -0.03107157305546       -1.49913736403994       -0.12186111986073
H            3.23467044504646        0.22445551340026        1.43573136527234
H            3.51818419990871        0.34603453945891       -0.32446517913627
H            4.21144298578120       -1.00816529545727        0.60077480031389
H            1.55775814912048        1.45909279662417        0.34596893925892
H           -1.66625679880440        2.96862053531557       -0.53205213473296
H           -1.01173435686960        2.98224215133784        1.10385932069412
H            0.05656940728940        3.27529051418942       -0.26666944235489
H           -2.56689405225207        0.70280798398811       -0.38312075380057
H           -2.88179872024983       -2.29773401253841        0.42333597573543
H           -2.09594239096787       -2.89369564174636       -1.03684767135351
H           -3.23381798792279       -1.53965869188316       -1.12806371058252
H            0.19131404849563       -2.55408170854390       -0.16277270083091

 Bond Distances (Angstroems)
 ---------------------------
C1-O2=1.4051         C1-H11=1.0953        C1-H12=1.0953        C1-H13=1.0891        O2-C1=1.4051         O2-C3=1.3659         
C3-O2=1.3659         C3-C4=1.3880         C3-C10=1.3937        C4-C3=1.3880         C4-C5=1.3902         C4-H14=1.0791        
C5-C4=1.3902         C5-C6=1.5000         C5-C7=1.3851         C6-C5=1.5000         C6-H15=1.0874        C6-H16=1.0907        
C6-H17=1.0877        C7-C5=1.3851         C7-C8=1.3902         C7-H18=1.0806        C8-C7=1.3902         C8-C9=1.4993         
C8-C10=1.3830        C9-C8=1.4993         C9-H19=1.0905        C9-H20=1.0872        C9-H21=1.0875        C10-C3=1.3937        
C10-C8=1.3830        C10-H22=1.0789       H11-C1=1.0953        H12-C1=1.0953        H13-C1=1.0891        H14-C4=1.0791        
H15-C6=1.0874        H16-C6=1.0907        H17-C6=1.0877        H18-C7=1.0806        H19-C9=1.0905        H20-C9=1.0872        
H21-C9=1.0875        H22-C10=1.0789       
 C  H  Rav=1.0874 sigma=0.0053  Rmin=1.0789  Rmax=1.0953    12
 C  C  Rav=1.4162 sigma=0.0483  Rmin=1.3830  Rmax=1.5000     8
 O  C  Rav=1.3855 sigma=0.0196  Rmin=1.3659  Rmax=1.4051     2

 selected bond angles (degree)
 --------------------
H11-C1-O2=111.63               H12-C1-O2=111.62               H12-C1-H11=109.33              H13-C1-O2=105.75               
H13-C1-H11=109.21              H13-C1-H12=109.21              C3-O2-C1=118.52                C4-C3-O2=124.86                
C10-C3-O2=115.59               C10-C3-C4=119.55               C5-C4-C3=120.16                H14-C4-C3=121.06               
H14-C4-C5=118.77               C6-C5-C4=119.89                C7-C5-C4=119.53                C7-C5-C6=120.57                
H15-C6-C5=110.86               H16-C6-C5=109.94               H16-C6-H15=108.00              H17-C6-C5=111.03               
H17-C6-H15=108.92              H17-C6-H16=107.99              C8-C7-C5=120.97                H18-C7-C5=119.52               
H18-C7-C8=119.51               C9-C8-C7=120.55                C10-C8-C7=119.02               C10-C8-C9=120.42               
H19-C9-C8=109.90               H20-C9-C8=110.88               H20-C9-H19=108.02              H21-C9-C8=110.89               
H21-C9-H19=108.02              H21-C9-H20=109.05              C8-C10-C3=120.77               H22-C10-C3=118.24              
H22-C10-C8=120.99              

 selected dihedral angles (degree)
 ---------------------------------
C3-O2-C1-H11= 61.35           C3-O2-C1-H12=298.66           C3-O2-C1-H13=180.01           C4-C3-O2-C1=359.94            
C10-C3-O2-C1=179.78           C5-C4-C3-O2=179.85            C5-C4-C3-C10=  0.00           H14-C4-C3-O2=  0.00           
H14-C4-C3-C10=180.15          C6-C5-C4-C3=178.99            C6-C5-C4-H14=358.86           C7-C5-C4-C3=  0.04            
C7-C5-C4-H14=179.90           H15-C6-C5-C4=152.38           H15-C6-C5-C7=331.32           H16-C6-C5-C4=271.72           
H16-C6-C5-C7= 90.66           H17-C6-C5-C4= 31.16           H17-C6-C5-C7=210.10           C8-C7-C5-C4=359.93            
C8-C7-C5-C6=180.98            H18-C7-C5-C4=180.06           H18-C7-C5-C6=  1.12           C9-C8-C7-C5=179.06            
C9-C8-C7-H18=358.92           C10-C8-C7-C5=  0.06           C10-C8-C7-H18=179.92          H19-C9-C8-C7=270.53           
H19-C9-C8-C10= 89.51          H20-C9-C8-C7=151.17           H20-C9-C8-C10=330.16          H21-C9-C8-C7= 29.88           
H21-C9-C8-C10=208.86          C8-C10-C3-O2=180.12           C8-C10-C3-C4=359.97           H22-C10-C3-O2=359.97          
H22-C10-C3-C4=179.82          C3-C10-C8-C7=  0.00           C3-C10-C8-C9=181.00           H22-C10-C8-C7=180.15          
H22-C10-C8-C9=  1.15          
           -------------------------------------------------
          |                Final Singlepoint                |
           -------------------------------------------------

          ...................................................
          :                      SETUP                      :
          :.................................................:
          :  # basis functions                  52          :
          :  # atomic orbitals                  52          :
          :  # shells                           32          :
          :  # electrons                        54          :
          :  max. iterations                   250          :
          :  Hamiltonian                  GFN2-xTB          :
          :  restarted?                      false          :
          :  GBSA solvation                  false          :
          :  PC potential                    false          :
          :  electronic temp.          300.0000000     K    :
          :  accuracy                    1.0000000          :
          :  -> integral cutoff          0.2500000E+02      :
          :  -> integral neglect         0.1000000E-07      :
          :  -> SCF convergence          0.1000000E-05 Eh   :
          :  -> wf. convergence          0.1000000E-03 e    :
          :  Broyden damping             0.4000000          :
          :  net charge                          0          :
          :  unpaired electrons                  0          :
          ...................................................

 iter      E             dE          RMSdq      gap      omega  full diag
   1    -29.9158638 -0.299159E+02  0.341E-05    4.31       0.0  T
   2    -29.9158638 -0.280664E-11  0.203E-05    4.31    1052.0  T
   3    -29.9158638 -0.493827E-12  0.130E-05    4.31    1641.9  T

   *** convergence criteria satisfied after 3 iterations ***

         #    Occupation            Energy/Eh            Energy/eV
      -------------------------------------------------------------
         1        2.0000           -0.7072898             -19.2463
       ...           ...                  ...                  ...
        21        2.0000           -0.4573490             -12.4451
        22        2.0000           -0.4416823             -12.0188
        23        2.0000           -0.4270191             -11.6198
        24        2.0000           -0.4248080             -11.5596
        25        2.0000           -0.4146904             -11.2843
        26        2.0000           -0.3830924             -10.4245
        27        2.0000           -0.3685960             -10.0300 (HOMO)
        28                         -0.2101656              -5.7189 (LUMO)
        29                         -0.2021187              -5.4999
        30                         -0.0804341              -2.1887
        31                          0.0381232               1.0374
        32                          0.1023349               2.7847
       ...                                ...                  ...
        52                          0.6719602              18.2850
      -------------------------------------------------------------
                  HL-Gap            0.1584304 Eh            4.3111 eV
             Fermi-level           -0.2893808 Eh           -7.8745 eV

 SCC (total)                   0 d,  0 h,  0 min,  0.113 sec
 SCC setup                      ...        0 min,  0.004 sec (  3.334%)
 Dispersion                     ...        0 min,  0.009 sec (  8.164%)
 classical contributions        ...        0 min,  0.003 sec (  2.915%)
 integral evaluation            ...        0 min,  0.014 sec ( 12.050%)
 iterations                     ...        0 min,  0.042 sec ( 37.407%)
 molecular gradient             ...        0 min,  0.041 sec ( 36.006%)
 printout                       ...        0 min,  0.000 sec (  0.100%)

         :::::::::::::::::::::::::::::::::::::::::::::::::::::
         ::                     SUMMARY                     ::
         :::::::::::::::::::::::::::::::::::::::::::::::::::::
         :: total energy             -29.454389152500 Eh    ::
         :: gradient norm              0.000124431108 Eh/a0 ::
         :: HOMO-LUMO gap              4.311110927680 eV    ::
         ::.................................................::
         :: SCC energy               -29.915821169416 Eh    ::
         :: -> isotropic ES            0.017993476693 Eh    ::
         :: -> anisotropic ES          0.005504477907 Eh    ::
         :: -> anisotropic XC          0.012447595096 Eh    ::
         :: -> dispersion             -0.016877127058 Eh    ::
         :: repulsion energy           0.461432016916 Eh    ::
         :: add. restraining           0.000000000000 Eh    ::
         :: total charge               0.000000000000 e     ::
         :::::::::::::::::::::::::::::::::::::::::::::::::::::

           -------------------------------------------------
          |                Property Printout                |
           -------------------------------------------------

    * Orbital Energies and Occupations

         #    Occupation            Energy/Eh            Energy/eV
      -------------------------------------------------------------
         1        2.0000           -0.7072898             -19.2463
       ...           ...                  ...                  ...
        15        2.0000           -0.4926404             -13.4054
        16        2.0000           -0.4823434             -13.1252
        17        2.0000           -0.4815150             -13.1027
        18        2.0000           -0.4682765             -12.7425
        19        2.0000           -0.4670719             -12.7097
        20        2.0000           -0.4629400             -12.5972
        21        2.0000           -0.4573490             -12.4451
        22        2.0000           -0.4416823             -12.0188
        23        2.0000           -0.4270191             -11.6198
        24        2.0000           -0.4248080             -11.5596
        25        2.0000           -0.4146904             -11.2843
        26        2.0000           -0.3830924             -10.4245
        27        2.0000           -0.3685960             -10.0300 (HOMO)
        28                         -0.2101656              -5.7189 (LUMO)
        29                         -0.2021187              -5.4999
        30                         -0.0804341              -2.1887
        31                          0.0381232               1.0374
        32                          0.1023349               2.7847
        33                          0.1163094               3.1649
        34                          0.1320125               3.5922
        35                          0.1429771               3.8906
        36                          0.1561738               4.2497
        37                          0.1787865               4.8650
        38                          0.1908720               5.1939
       ...                                ...                  ...
        52                          0.6719602              18.2850
      -------------------------------------------------------------
                  HL-Gap            0.1584304 Eh            4.3111 eV
             Fermi-level           -0.2893808 Eh           -7.8745 eV

     #   Z          covCN         q      C6AA      α(0)
     1   6 C        3.644     0.041    20.223     6.464
     2   8 O        1.705    -0.275    18.563     5.817
     3   6 C        2.863     0.139    24.963     8.190
     4   6 C        2.923    -0.082    30.053     8.990
     5   6 C        2.966     0.014    27.692     8.632
     6   6 C        3.758    -0.108    22.610     6.779
     7   6 C        2.929    -0.063    29.576     8.919
     8   6 C        2.965     0.017    27.631     8.622
     9   6 C        3.758    -0.109    22.638     6.783
    10   6 C        2.927    -0.070    29.757     8.946
    11   1 H        0.924     0.037     2.487     2.466
    12   1 H        0.924     0.037     2.488     2.467
    13   1 H        0.925     0.058     2.225     2.332
    14   1 H        0.926     0.030     2.589     2.516
    15   1 H        0.925     0.042     2.421     2.433
    16   1 H        0.924     0.046     2.374     2.409
    17   1 H        0.925     0.041     2.442     2.444
    18   1 H        0.926     0.029     2.595     2.519
    19   1 H        0.924     0.047     2.353     2.399
    20   1 H        0.925     0.044     2.401     2.423
    21   1 H        0.925     0.043     2.409     2.427
    22   1 H        0.926     0.043     2.409     2.427

 Mol. C6AA /au·bohr⁶  :       4733.617308
 Mol. C8AA /au·bohr⁸  :     109364.002078
 Mol. α(0) /au        :        107.404935


Wiberg/Mayer (AO) data.
largest (>0.10) Wiberg bond orders for each atom

 ---------------------------------------------------------------------------
     #   Z sym  total        # sym  WBO       # sym  WBO       # sym  WBO
 ---------------------------------------------------------------------------
     1   6 C    3.950 --     2 O    0.989    13 H    0.980    12 H    0.977
                            11 H    0.977
     2   8 O    2.221 --     3 C    1.051     1 C    0.989
     3   6 C    3.933 --     4 C    1.384    10 C    1.353     2 O    1.051
     4   6 C    3.984 --     5 C    1.403     3 C    1.384    14 H    0.965
     5   6 C    3.989 --     7 C    1.426     4 C    1.403     6 C    1.024
                            10 C    0.104
     6   6 C    3.996 --     5 C    1.024    15 H    0.983    17 H    0.982
                            16 H    0.969
     7   6 C    3.988 --     5 C    1.426     8 C    1.395    18 H    0.968
     8   6 C    3.989 --    10 C    1.438     7 C    1.395     9 C    1.024
     9   6 C    3.996 --     8 C    1.024    20 H    0.982    21 H    0.982
                            19 H    0.968
    10   6 C    3.985 --     8 C    1.438     3 C    1.353    22 H    0.967
                             5 C    0.104
    11   1 H    0.999 --     1 C    0.977
    12   1 H    0.999 --     1 C    0.977
    13   1 H    0.996 --     1 C    0.980
    14   1 H    0.999 --     4 C    0.965
    15   1 H    0.998 --     6 C    0.983
    16   1 H    0.998 --     6 C    0.969
    17   1 H    0.998 --     6 C    0.982
    18   1 H    0.999 --     7 C    0.968
    19   1 H    0.998 --     9 C    0.968
    20   1 H    0.998 --     9 C    0.982
    21   1 H    0.998 --     9 C    0.982
    22   1 H    0.998 --    10 C    0.967
 ---------------------------------------------------------------------------

Topologies differ in total number of bonds
Writing topology from bond orders to xtbtopo.mol

molecular dipole:
                 x           y           z       tot (Debye)
 q only:        0.029       0.353       0.054
   full:        0.103       0.502       0.099       1.327
molecular quadrupole (traceless):
                xx          xy          yy          xz          yz          zz
 q only:        4.362       3.040      -1.148       1.356       0.686      -3.214
  q+dip:        5.240       3.286      -0.290       1.713       0.933      -4.950
   full:        4.782       3.648      -1.392       1.400       0.795      -3.390

           -------------------------------------------------
          |                Geometry Summary                 |
           -------------------------------------------------

      molecular mass/u    :      136.1913170
   center of mass at/Å    :        0.1213219      -0.1691999       0.0018622
  moments of inertia/u·Å² :        0.2870403E+03   0.4600407E+03   0.7376049E+03
rotational constants/cm⁻¹ :        0.5872915E-01   0.3664378E-01   0.2285456E-01

 * 20 selected distances

     #   Z          #   Z                                           value/Å
     1   6 C        2   8 O                                       1.4050699 (max)
     2   8 O        3   6 C                                       1.3658744
     3   6 C        4   6 C                                       1.3880258
     4   6 C        5   6 C                                       1.3901775
     5   6 C        7   6 C                                       1.3850932
     7   6 C        8   6 C                                       1.3901712
     3   6 C       10   6 C                                       1.3937341
     8   6 C       10   6 C                                       1.3830059
     1   6 C       11   1 H                                       1.0952771
     1   6 C       12   1 H                                       1.0952853
     1   6 C       13   1 H                                       1.0890776
     4   6 C       14   1 H                                       1.0791093
     6   6 C       15   1 H                                       1.0873674
     6   6 C       16   1 H                                       1.0906812
     6   6 C       17   1 H                                       1.0876885
     7   6 C       18   1 H                                       1.0806400
     9   6 C       19   1 H                                       1.0904866
     9   6 C       20   1 H                                       1.0872234
     9   6 C       21   1 H                                       1.0875073
    10   6 C       22   1 H                                       1.0789054 (min)

 * 3 distinct bonds (by element types)

   Z      Z             #   av. dist./Å        max./Å        min./Å
   1 H    6 C          12     1.0874374     1.0952853     1.0789054
   6 C    6 C           6     1.3883680     1.3937341     1.3830059
   6 C    8 O           2     1.3854722     1.4050699     1.3658744


optimized geometry written to: xtbopt.xyz


           -------------------------------------------------
          | TOTAL ENERGY              -29.454389152500 Eh   |
          | GRADIENT NORM               0.000124431108 Eh/α |
          | HOMO-LUMO GAP               4.311110927680 eV   |
           -------------------------------------------------

------------------------------------------------------------------------
 * finished run on 2026/07/09 at 00:30:04.531     
------------------------------------------------------------------------
 total:
 * wall-time:     0 d,  0 h,  0 min,  1.362 sec
 *  cpu-time:     0 d,  0 h,  0 min, 21.711 sec
 * ratio c/w:    15.941 speedup
 SCF:
 * wall-time:     0 d,  0 h,  0 min,  0.336 sec
 *  cpu-time:     0 d,  0 h,  0 min,  5.354 sec
 * ratio c/w:    15.944 speedup
 ANC optimizer:
 * wall-time:     0 d,  0 h,  0 min,  0.954 sec
 *  cpu-time:     0 d,  0 h,  0 min, 15.245 sec
 * ratio c/w:    15.986 speedup

