30
DEC_00181 MMFF geometry for GFN2-xTB preoptimization
C  -5.052841192841 -0.245719024185  0.243733302815
C  -3.787544995945  0.555635401488 -0.017850159384
C  -2.539247484412 -0.322356690588  0.074355916369
C  -1.267354138176  0.490868946922 -0.189028543912
C   0.001410944460 -0.362298212893 -0.062970029921
O  -0.028123306110 -1.409776085104 -1.029714146876
C   1.262354040261  0.488221137832 -0.263443353856
C   2.545827147121 -0.327680046158 -0.075234026127
C   3.788378979042  0.547707158711 -0.240705506752
C   5.065185868856 -0.256308474376 -0.053910700963
H  -5.036556323701 -0.689040528872  1.244498998116
H  -5.164737976340 -1.052253554547 -0.487919603569
H  -5.932706029477  0.401399298979  0.173131397798
H  -3.722941278656  1.372857948319  0.709926539454
H  -3.849695378280  1.011216761062 -1.012975348831
H  -2.483384232879 -0.776852004024  1.070978549823
H  -2.616568226108 -1.141136280591 -0.650820500382
H  -1.217761608336  1.328242735013  0.517453217538
H  -1.326529402578  0.915087130856 -1.199376124403
H   0.030052252294 -0.830983597658  0.927351502479
H  -0.053646282106 -1.000693326689 -1.911572523813
H   1.262922186829  0.912380243110 -1.275547003430
H   1.256128765193  1.325651071928  0.444683178964
H   2.578674640763 -1.146569575422 -0.803657504923
H   2.547693775306 -0.782126805562  0.922973554795
H   3.792877284825  1.003227981195 -1.237787356228
H   3.768376707917  1.365011736995  0.489567625175
H   5.106834211717 -0.699659992565  0.946107331552
H   5.940729375630  0.388973505095 -0.176152030993
H   5.132191675731 -1.063026858271 -0.790829891375
