27
REP_00125 MMFF geometry for GFN2-xTB preoptimization
C  -3.627972709223 -0.820209662815 -0.844196528118
C  -2.825249157593  0.421623180498 -0.490519031534
C  -1.508340830584  0.059884521144  0.197056180056
C  -0.702658345272  1.313726862254  0.546937927823
C   0.583150475111  1.003218361540  1.319542678551
N   1.556352239377  0.271528276951  0.528973758393
C   1.753621102317 -1.074764310044  0.623384348080
O   1.170324107082 -1.851507468677  1.364560983241
C   2.821722737741 -1.481745446779 -0.346973755960
C   3.224798168769 -0.191420653377 -1.034915670034
C   2.358662855514  0.857929198611 -0.405463486311
O   2.388997004216  2.042209685160 -0.704621145430
H  -4.565292731331 -0.538818169900 -1.334243164810
H  -3.873505736897 -1.397280641822  0.053039288812
H  -3.068613899802 -1.467631264242 -1.527068751534
H  -3.425169674818  1.062200577986  0.166303948704
H  -2.623519454102  0.992011949552 -1.404674195317
H  -1.715813058415 -0.511079745449  1.110124960478
H  -0.923200104456 -0.587667101587 -0.465979938169
H  -0.464504470914  1.863159972360 -0.371841518079
H  -1.321742470595  1.976582432115  1.163895751612
H   0.349806598376  0.435021854415  2.226905912681
H   1.045394586506  1.949062927091  1.625500248340
H   3.663193419846 -1.926981676330  0.191632297830
H   2.418496287221 -2.205440902292 -1.061212952582
H   4.278898815653  0.042194316989 -0.859764532359
H   3.032164246274 -0.235807073352 -2.110724960282
