26
DEC_00169 MMFF geometry for GFN2-xTB preoptimization
C  -4.292509145475 -1.157765232702 -0.079438470716
C  -2.946091348346 -0.485294707429 -0.297961064360
C  -2.516754724561  0.317630359988  0.932557221084
C  -1.178348882409  1.027128025325  0.728866592606
C   0.001584272013  0.081923095263  0.731274205259
O  -0.012736742790 -1.072355661003  1.133681135645
O   1.098897468757  0.726267175200  0.241088241579
C   2.287229608251 -0.075696730016  0.211223984275
C   3.414549900585  0.772590736554 -0.364298253125
C   4.721127472657  0.003057426718 -0.435238208691
H  -5.073160493411 -0.417224445334  0.121805375803
H  -4.251156141082 -1.852548840743  0.765485109385
H  -4.582656844786 -1.723317792470 -0.970448915267
H  -3.013828579694  0.177408599142 -1.168589916140
H  -2.200032176305 -1.252296935723 -0.532961912097
H  -2.467574657728 -0.341168667069  1.807994459361
H  -3.281262838389  1.074847919575  1.146120245079
H  -1.022070975384  1.741185404399  1.545302005776
H  -1.193342272685  1.579343381988 -0.217542160908
H   2.538028041938 -0.395204335173  1.229538204730
H   2.118439494816 -0.956390024890 -0.419568352603
H   3.545628325494  1.673451074384  0.247148168106
H   3.135309938865  1.125324637631 -1.364400822012
H   5.037443718624 -0.325290128697  0.559962945414
H   4.621593721934 -0.880780049155 -1.073374248299
H   5.511693859112  0.635175714236 -0.851501409024
