20
 energy: -28.413539699817 gnorm: 0.000349160984 xtb: 6.7.1 (edcfbbe)
C            2.61812214444047        0.00025766904085        0.61636993797107
C            1.88427495659237       -1.12188630085280       -0.06835464287073
O            1.98775298680719       -2.27582673472570        0.25648731734199
C            0.96228367383992       -0.67155790437629       -1.19055873851137
C           -0.29762459310089       -0.13605960659485       -0.56008085343650
C           -1.19136145717024       -1.01162906102715        0.04496935199628
C           -2.33855807785522       -0.53371995645210        0.65129242880816
C           -2.60529658960393        0.82545211728580        0.66099300883283
C           -1.71818406998181        1.70345828735272        0.06306956366889
C           -0.56770768959730        1.22560195009859       -0.54069279478197
H            3.36089430105598        0.41035462552359       -0.06594352507674
H            1.92102180998525        0.79319622930812        0.87762673335754
H            3.11893954200470       -0.36452916504372        1.50915674805147
H            0.72753760181450       -1.53236290833505       -1.81865076751432
H            1.44539199761566        0.10171881005999       -1.78749365850535
H           -0.97808627288395       -2.07045889912682        0.04198670545503
H           -3.02627774489075       -1.22312533138750        1.11830800579129
H           -3.50158046931950        1.19902402246843        1.13339175692992
H           -1.92083164137961        2.76456349863090        0.06629943788802
H            0.11928959162929        1.91752865815089       -1.00817601539567
