31
 energy: -35.671824554339 gnorm: 0.000251729610 xtb: 6.7.1 (edcfbbe)
C           -5.37151061693053        0.34563887903436        0.40448223382288
C           -4.17485485914022       -0.08436985599063       -0.43498870590046
C           -2.85279127079940        0.20015202263863        0.27356203425795
C           -1.64777587334779       -0.23505859087713       -0.55650168365402
C           -0.32846642245731        0.04135628044627        0.16051959277846
C            0.87682318514769       -0.41380683337955       -0.65842061924866
C            2.19453807198595       -0.14499695581519        0.06399192531268
C            3.39841564620697       -0.62018312970182       -0.74701848260994
C            4.71190900825603       -0.34214348054732       -0.01596617733205
C            4.96376940314111        1.12832030621208        0.13592529499565
O            5.36127949554385        1.67194677230654        1.12683454101726
H           -6.30227203544234        0.13400852772195       -0.11674704930896
H           -5.38144306662680       -0.18535546333683        1.35398154672536
H           -5.32863450381086        1.41288932840578        0.61105262660875
H           -4.24661195294768       -1.15356180779593       -0.64794605338646
H           -4.19296487166316        0.44433436402723       -1.39085777497458
H           -2.77936397792754        1.26993376717163        0.48322597958261
H           -2.83844626382133       -0.32488828331764        1.23171829697911
H           -1.72469342022454       -1.30389527683736       -0.77064177248762
H           -1.65747616043665        0.29345269666946       -1.51283090956145
H           -0.32619181473555       -0.47648484032160        1.12251621986468
H           -0.24410390436808        1.11157058171805        0.36291688870846
H            0.79006425957178       -1.48371397042593       -0.86315244715818
H            0.87774943341420        0.10622794671850       -1.61938162961890
H            2.29113173034517        0.92575763085360        0.26012496779697
H            2.18706097401910       -0.65513616818913        1.02986076317271
H            3.31025824820448       -1.69244660212934       -0.93324016883766
H            3.40811183145759       -0.11439688581572       -1.71562937873313
H            5.54536153342895       -0.74432368974352       -0.60026953010573
H            4.72242085432787       -0.81724075831676        0.96634457420466
H            4.75870733962894        1.70641348861645       -0.78909953190290
