      -----------------------------------------------------------      
     |                   =====================                   |     
     |                           x T B                           |     
     |                   =====================                   |     
     |                         S. Grimme                         |     
     |          Mulliken Center for Theoretical Chemistry        |     
     |                    University of Bonn                     |     
      -----------------------------------------------------------      

   * xtb version 6.7.1 (edcfbbe) compiled by 'conda@5dfe00f5fb80' on 2026-06-10

   xtb is free software: you can redistribute it and/or modify it under
   the terms of the GNU Lesser General Public License as published by
   the Free Software Foundation, either version 3 of the License, or
   (at your option) any later version.
   
   xtb is distributed in the hope that it will be useful,
   but WITHOUT ANY WARRANTY; without even the implied warranty of
   MERCHANTABILITY or FITNESS FOR A PARTICULAR PURPOSE.  See the
   GNU Lesser General Public License for more details.
   
   Cite this work as:
   * C. Bannwarth, E. Caldeweyher, S. Ehlert, A. Hansen, P. Pracht,
     J. Seibert, S. Spicher, S. Grimme, WIREs Comput. Mol. Sci., 2020, 11,
     e01493. DOI: 10.1002/wcms.1493
   
   for GFN2-xTB:
   * C. Bannwarth, S. Ehlert and S. Grimme., J. Chem. Theory Comput., 2019,
     15, 1652-1671. DOI: 10.1021/acs.jctc.8b01176
   for GFN1-xTB:
   * S. Grimme, C. Bannwarth, P. Shushkov, J. Chem. Theory Comput., 2017,
     13, 1989-2009. DOI: 10.1021/acs.jctc.7b00118
   for GFN0-xTB:
   * P. Pracht, E. Caldeweyher, S. Ehlert, S. Grimme, ChemRxiv, 2019, preprint.
     DOI: 10.26434/chemrxiv.8326202.v1
   for GFN-FF:
   * S. Spicher and S. Grimme, Angew. Chem. Int. Ed., 2020, 59, 15665-15673.
     DOI: 10.1002/anie.202004239
   
   for ALPB and GBSA implicit solvation:
   * S. Ehlert, M. Stahn, S. Spicher, S. Grimme, J. Chem. Theory Comput.,
     2021, 17, 4250-4261. DOI: 10.1021/acs.jctc.1c00471
   
   for ddCOSMO and CPCM-X implicit solvation:
   * M. Stahn, S. Ehlert, S. Grimme, J. Phys. Chem. A,
     2023, XX, XXXX-XXXX. DOI: 10.1021/acs.jpca.3c04382
   
   for DFT-D4:
   * E. Caldeweyher, C. Bannwarth and S. Grimme, J. Chem. Phys., 2017,
     147, 034112. DOI: 10.1063/1.4993215
   * E. Caldeweyher, S. Ehlert, A. Hansen, H. Neugebauer, S. Spicher,
     C. Bannwarth and S. Grimme, J. Chem. Phys., 2019, 150, 154122.
     DOI: 10.1063/1.5090222
   * E. Caldeweyher, J.-M. Mewes, S. Ehlert and S. Grimme, Phys. Chem. Chem. Phys.
     2020, 22, 8499-8512. DOI: 10.1039/D0CP00502A
   
   for sTDA-xTB:
   * S. Grimme and C. Bannwarth, J. Chem. Phys., 2016, 145, 054103.
     DOI: 10.1063/1.4959605
   
   in the mass-spec context:
   * V. Asgeirsson, C. Bauer and S. Grimme, Chem. Sci., 2017, 8, 4879.
     DOI: 10.1039/c7sc00601b
   * J. Koopman and S. Grimme, ACS Omega 2019, 4, 12, 15120-15133.
     DOI: 10.1021/acsomega.9b02011
   
   for metadynamics refer to:
   * S. Grimme, J. Chem. Theory Comput., 2019, 155, 2847-2862
     DOI: 10.1021/acs.jctc.9b00143
   
   for SPH calculations refer to:
   * S. Spicher and S. Grimme, J. Chem. Theory Comput., 2021, 17, 1701-1714
     DOI: 10.1021/acs.jctc.0c01306
   
   for ONIOM refer to:
   * C. Plett, A. Katbashev, S. Ehlert, S. Grimme, M. Bursch,
     Phys. Chem. Chem. Phys., 2023, 25, 17860-17868. DOI: 10.1039/D3CP02178E
   
   for DIPRO refer to:
   * J. Kohn, N. Gildemeister, S. Grimme, D. Fazzi, A. Hansen,
     J. Chem. Phys., 2023, just accepted.
   
   for PTB refer to:
   * S. Grimme, M. Mueller, A. Hansen, J. Chem. Phys., 2023, 158, 124111.
     DOI: 10.1063/5.0137838
   
   with help from (in alphabetical order)
   P. Atkinson, C. Bannwarth, F. Bohle, G. Brandenburg, E. Caldeweyher
   M. Checinski, S. Dohm, S. Ehlert, S. Ehrlich, I. Gerasimov, C. Hölzer
   A. Katbashev, J. Kohn, J. Koopman, C. Lavigne, S. Lehtola, F. März, M. Müller,
   F. Musil, H. Neugebauer, J. Pisarek, C. Plett, P. Pracht, F. Pultar,
   J. Seibert, P. Shushkov, S. Spicher, M. Stahn, M. Steiner, T. Strunk,
   J. Stückrath, T. Rose, and J. Unsleber
   
 * started run on 2026/07/09 at 18:34:08.619     
   ID    Z sym.   atoms
    1    6 C      1-4, 6-9, 11, 12
    2    8 O      5
    3   35 Br     10
    4    1 H      13-25

           -------------------------------------------------
          |                Calculation Setup                |
           -------------------------------------------------

          program call               : /home/ws/xd2484/miniforge3/envs/p3z_dft/bin/xtb xtb_input.xyz --gfn 2 --opt tight --cycles 500 --chrg 0 --uhf 0
          hostname                   : gpu10
          coordinate file            : xtb_input.xyz
          omp threads                :                    16


           -------------------------------------------------
          |                 G F N 2 - x T B                 |
           -------------------------------------------------

        Reference                      10.1021/acs.jctc.8b01176
      * Hamiltonian:
        H0-scaling (s, p, d)           1.850000    2.230000    2.230000
        zeta-weighting                 0.500000
      * Dispersion:
        s8                             2.700000
        a1                             0.520000
        a2                             5.000000
        s9                             5.000000
      * Repulsion:
        kExp                           1.500000    1.000000
        rExp                           1.000000
      * Coulomb:
        alpha                          2.000000
        third order                    shell-resolved
        anisotropic                    true
        a3                             3.000000
        a5                             4.000000
        cn-shift                       1.200000
        cn-exp                         4.000000
        max-rad                        5.000000


          ...................................................
          :                      SETUP                      :
          :.................................................:
          :  # basis functions                  67          :
          :  # atomic orbitals                  66          :
          :  # shells                           38          :
          :  # electrons                        66          :
          :  max. iterations                   250          :
          :  Hamiltonian                  GFN2-xTB          :
          :  restarted?                      false          :
          :  GBSA solvation                  false          :
          :  PC potential                    false          :
          :  electronic temp.          300.0000000     K    :
          :  accuracy                    1.0000000          :
          :  -> integral cutoff          0.2500000E+02      :
          :  -> integral neglect         0.1000000E-07      :
          :  -> SCF convergence          0.1000000E-05 Eh   :
          :  -> wf. convergence          0.1000000E-03 e    :
          :  Broyden damping             0.4000000          :
          :  net charge                          0          :
          :  unpaired electrons                  0          :
          ...................................................

 iter      E             dE          RMSdq      gap      omega  full diag
   1    -36.6034418 -0.366034E+02  0.434E+00    3.86       0.0  T
   2    -36.6563498 -0.529081E-01  0.264E+00    3.80       1.0  T
   3    -36.6522150  0.413488E-02  0.974E-01    3.60       1.0  T
   4    -36.6603289 -0.811395E-02  0.449E-01    3.78       1.0  T
   5    -36.6614636 -0.113468E-02  0.289E-01    3.73       1.0  T
   6    -36.6617869 -0.323329E-03  0.167E-01    3.73       1.0  T
   7    -36.6619957 -0.208774E-03  0.120E-01    3.75       1.0  T
   8    -36.6620613 -0.655947E-04  0.436E-02    3.75       1.0  T
   9    -36.6620725 -0.111869E-04  0.174E-02    3.75       1.2  T
  10    -36.6620726 -0.129745E-06  0.747E-03    3.75       2.7  T
  11    -36.6620736 -0.947535E-06  0.177E-03    3.75      11.3  T
  12    -36.6620736 -0.256625E-07  0.742E-04    3.75      27.0  T
  13    -36.6620736 -0.140142E-08  0.269E-04    3.75      74.2  T

   *** convergence criteria satisfied after 13 iterations ***

         #    Occupation            Energy/Eh            Energy/eV
      -------------------------------------------------------------
         1        2.0000           -0.8333907             -22.6777
       ...           ...                  ...                  ...
        27        2.0000           -0.4486709             -12.2090
        28        2.0000           -0.4419743             -12.0267
        29        2.0000           -0.4375487             -11.9063
        30        2.0000           -0.4238356             -11.5332
        31        2.0000           -0.4196147             -11.4183
        32        2.0000           -0.4069383             -11.0734
        33        2.0000           -0.3855689             -10.4919 (HOMO)
        34                         -0.2477111              -6.7406 (LUMO)
        35                         -0.2372418              -6.4557
        36                         -0.1975435              -5.3754
        37                         -0.1188194              -3.2332
        38                         -0.0078676              -0.2141
       ...                                ...                  ...
        66                          0.6229140              16.9504
      -------------------------------------------------------------
                  HL-Gap            0.1378578 Eh            3.7513 eV
             Fermi-level           -0.3166400 Eh           -8.6162 eV

 SCC (total)                   0 d,  0 h,  0 min,  0.364 sec
 SCC setup                      ...        0 min,  0.003 sec (  0.748%)
 Dispersion                     ...        0 min,  0.006 sec (  1.603%)
 classical contributions        ...        0 min,  0.002 sec (  0.573%)
 integral evaluation            ...        0 min,  0.010 sec (  2.820%)
 iterations                     ...        0 min,  0.293 sec ( 80.535%)
 molecular gradient             ...        0 min,  0.050 sec ( 13.661%)
 printout                       ...        0 min,  0.000 sec (  0.051%)

         :::::::::::::::::::::::::::::::::::::::::::::::::::::
         ::                     SUMMARY                     ::
         :::::::::::::::::::::::::::::::::::::::::::::::::::::
         :: total energy             -36.188755280426 Eh    ::
         :: gradient norm              0.037406443633 Eh/a0 ::
         :: HOMO-LUMO gap              3.751301899885 eV    ::
         ::.................................................::
         :: SCC energy               -36.662257886119 Eh    ::
         :: -> isotropic ES            0.020731231532 Eh    ::
         :: -> anisotropic ES          0.004111171838 Eh    ::
         :: -> anisotropic XC          0.013001369699 Eh    ::
         :: -> dispersion             -0.020193864099 Eh    ::
         :: repulsion energy           0.473502605693 Eh    ::
         :: add. restraining           0.000000000000 Eh    ::
         :: total charge               0.000000000000 e     ::
         :::::::::::::::::::::::::::::::::::::::::::::::::::::

      ----------------------------------------------------------- 
     |                   =====================                   |
     |                        A N C O P T                        |
     |                   =====================                   |
     |               Approximate Normal Coordinate               |
     |                Rational Function Optimizer                |
      ----------------------------------------------------------- 
      ----------------------------------------------------------- 
     |                   =====================                   |
     |                        A N C O P T                        |
     |                   =====================                   |
     |               Approximate Normal Coordinate               |
     |                Rational Function Optimizer                |
      ----------------------------------------------------------- 

          ...................................................
          :                      SETUP                      :
          :.................................................:
          :   optimization level             tight          :
          :   max. optcycles                   500          :
          :   ANC micro-cycles                  20          :
          :   degrees of freedom                69          :
          :.................................................:
          :   RF solver                   davidson          :
          :   write xtbopt.log                true          :
          :   linear?                        false          :
          :   energy convergence         0.1000000E-05 Eh   :
          :   grad. convergence          0.8000000E-03 Eh/α :
          :   maxmium RF displ.          1.0000000          :
          :   Hlow (freq-cutoff)         0.1000000E-01      :
          :   Hmax (freq-cutoff)         5.0000000          :
          :   S6 in model hess.         20.0000000          :
          ...................................................

generating ANC from exact Hessian ...
Using Lindh-Hessian (1995)
 Shifting diagonal of input Hessian by    9.1462825278775389E-003
 Lowest  eigenvalues of input Hessian
    0.000000    0.000000    0.000000    0.000000    0.000000    0.000000
    0.010000    0.010526    0.010682    0.012595    0.014437    0.016451
    0.018124    0.020505    0.021159    0.023062    0.028650    0.028802
 Highest eigenvalues
    1.443526    1.537220    1.673064    1.835584    1.948802    2.040503


........................................................................
.............................. CYCLE    1 ..............................
........................................................................

 iter      E             dE          RMSdq      gap      omega  full diag
   1    -36.6620736 -0.366621E+02  0.144E-04    3.75       0.0  T
   2    -36.6620736 -0.440394E-10  0.984E-05    3.75     203.2  T
   3    -36.6620736 -0.233129E-10  0.729E-05    3.75     274.3  T
     SCC iter.                  ...        0 min,  0.050 sec
     gradient                   ...        0 min,  0.047 sec
 * total energy  :   -36.1887553 Eh     change       -0.5739480E-09 Eh
   gradient norm :     0.0374074 Eh/α   predicted     0.0000000E+00 (-100.00%)
   displ. norm   :     0.0961634 α      lambda       -0.2358926E-02
   maximum displ.:     0.0490716 α      in ANC's #41, #12, #44, ...

........................................................................
.............................. CYCLE    2 ..............................
........................................................................

 iter      E             dE          RMSdq      gap      omega  full diag
   1    -36.6812703 -0.366813E+02  0.962E-02    3.83       0.0  T
   2    -36.6812830 -0.126515E-04  0.570E-02    3.83       1.0  T
   3    -36.6812771  0.585271E-05  0.316E-02    3.82       1.0  T
   4    -36.6812868 -0.967084E-05  0.678E-03    3.82       2.9  T
   5    -36.6812872 -0.384115E-06  0.325E-03    3.82       6.2  T
   6    -36.6812872 -0.143606E-07  0.268E-03    3.82       7.5  T
   7    -36.6812872 -0.371030E-07  0.144E-03    3.82      13.9  T
   8    -36.6812872 -0.712063E-08  0.951E-04    3.82      21.0  T
   9    -36.6812872 -0.311098E-08  0.532E-04    3.82      37.6  T
     SCC iter.                  ...        0 min,  0.186 sec
     gradient                   ...        0 min,  0.047 sec
 * total energy  :   -36.1902356 Eh     change       -0.1480368E-02 Eh
   gradient norm :     0.0137495 Eh/α   predicted    -0.1190375E-02 ( -19.59%)
   displ. norm   :     0.0575855 α      lambda       -0.3199168E-03
   maximum displ.:     0.0316761 α      in ANC's #9, #6, #12, ...

........................................................................
.............................. CYCLE    3 ..............................
........................................................................

 iter      E             dE          RMSdq      gap      omega  full diag
   1    -36.6867073 -0.366867E+02  0.414E-02    3.85       0.0  T
   2    -36.6867144 -0.706448E-05  0.260E-02    3.85       1.0  T
   3    -36.6867160 -0.163133E-05  0.168E-02    3.85       1.2  T
   4    -36.6867175 -0.142511E-05  0.663E-03    3.85       3.0  T
   5    -36.6867176 -0.103606E-06  0.355E-03    3.85       5.6  T
   6    -36.6867176 -0.336244E-07  0.295E-03    3.85       6.8  T
   7    -36.6867176 -0.409961E-07  0.128E-03    3.85      15.6  T
   8    -36.6867176 -0.115194E-07  0.512E-04    3.85      39.1  T
   9    -36.6867176 -0.112485E-08  0.255E-04    3.85      78.4  T
     SCC iter.                  ...        0 min,  0.143 sec
     gradient                   ...        0 min,  0.041 sec
 * total energy  :   -36.1904186 Eh     change       -0.1829558E-03 Eh
   gradient norm :     0.0037892 Eh/α   predicted    -0.1605220E-03 ( -12.26%)
   displ. norm   :     0.0268058 α      lambda       -0.3098215E-04
   maximum displ.:     0.0170905 α      in ANC's #2, #9, #6, ...

........................................................................
.............................. CYCLE    4 ..............................
........................................................................

 iter      E             dE          RMSdq      gap      omega  full diag
   1    -36.6864567 -0.366865E+02  0.146E-02    3.84       0.0  T
   2    -36.6864578 -0.112797E-05  0.997E-03    3.84       2.0  T
   3    -36.6864581 -0.339626E-06  0.584E-03    3.84       3.4  T
   4    -36.6864583 -0.126775E-06  0.248E-03    3.84       8.1  T
   5    -36.6864583 -0.177805E-07  0.129E-03    3.84      15.5  T
   6    -36.6864583 -0.643507E-08  0.103E-03    3.84      19.3  T
   7    -36.6864583 -0.451129E-08  0.511E-04    3.84      39.1  T
   8    -36.6864583 -0.160241E-08  0.176E-04    3.84     114.0  T
     SCC iter.                  ...        0 min,  0.137 sec
     gradient                   ...        0 min,  0.041 sec
 * total energy  :   -36.1904401 Eh     change       -0.2150577E-04 Eh
   gradient norm :     0.0012382 Eh/α   predicted    -0.1629319E-04 ( -24.24%)
   displ. norm   :     0.0362961 α      lambda       -0.9097499E-05
   maximum displ.:     0.0325310 α      in ANC's #2, #9, #27, ...

........................................................................
.............................. CYCLE    5 ..............................
........................................................................

 iter      E             dE          RMSdq      gap      omega  full diag
   1    -36.6854877 -0.366855E+02  0.137E-02    3.84       0.0  T
   2    -36.6854881 -0.417131E-06  0.842E-03    3.84       2.4  T
   3    -36.6854880  0.825408E-07  0.469E-03    3.84       4.3  T
   4    -36.6854883 -0.224993E-06  0.129E-03    3.84      15.4  T
   5    -36.6854883 -0.796826E-08  0.670E-04    3.84      29.9  T
   6    -36.6854883 -0.159819E-08  0.511E-04    3.84      39.1  T
     SCC iter.                  ...        0 min,  0.133 sec
     gradient                   ...        0 min,  0.041 sec
 * total energy  :   -36.1904461 Eh     change       -0.5981517E-05 Eh
   gradient norm :     0.0010588 Eh/α   predicted    -0.4562466E-05 ( -23.72%)
   displ. norm   :     0.0138287 α      lambda       -0.2010648E-05
   maximum displ.:     0.0134091 α      in ANC's #2, #6, #12, ...

........................................................................
.............................. CYCLE    6 ..............................
........................................................................

 iter      E             dE          RMSdq      gap      omega  full diag
   1    -36.6856023 -0.366856E+02  0.454E-03    3.84       0.0  T
   2    -36.6856024 -0.570951E-07  0.277E-03    3.84       7.2  T
   3    -36.6856024 -0.252055E-08  0.153E-03    3.84      13.1  T
   4    -36.6856024 -0.223111E-07  0.521E-04    3.84      38.4  T
   5    -36.6856024 -0.590255E-09  0.281E-04    3.84      71.1  T
     SCC iter.                  ...        0 min,  0.062 sec
     gradient                   ...        0 min,  0.034 sec
 * total energy  :   -36.1904486 Eh     change       -0.2464562E-05 Eh
   gradient norm :     0.0004622 Eh/α   predicted    -0.1008689E-05 ( -59.07%)
   displ. norm   :     0.0173553 α      lambda       -0.1576185E-05
   maximum displ.:     0.0171853 α      in ANC's #2, #27, #16, ...

........................................................................
.............................. CYCLE    7 ..............................
........................................................................

 iter      E             dE          RMSdq      gap      omega  full diag
   1    -36.6858205 -0.366858E+02  0.448E-03    3.84       0.0  T
   2    -36.6858205 -0.403712E-07  0.254E-03    3.84       7.9  T
   3    -36.6858205  0.772975E-08  0.134E-03    3.84      14.9  T
   4    -36.6858205 -0.198388E-07  0.441E-04    3.84      45.3  T
   5    -36.6858205 -0.566850E-09  0.235E-04    3.84      85.1  T
     SCC iter.                  ...        0 min,  0.061 sec
     gradient                   ...        0 min,  0.034 sec
 * total energy  :   -36.1904504 Eh     change       -0.1865120E-05 Eh
   gradient norm :     0.0001843 Eh/α   predicted    -0.7884487E-06 ( -57.73%)
   displ. norm   :     0.0139553 α      lambda       -0.7994915E-06
   maximum displ.:     0.0139314 α      in ANC's #2, #16, #27, ...

........................................................................
.............................. CYCLE    8 ..............................
........................................................................

 iter      E             dE          RMSdq      gap      omega  full diag
   1    -36.6858406 -0.366858E+02  0.317E-03    3.84       0.0  T
   2    -36.6858406 -0.399299E-08  0.172E-03    3.84      11.6  T
   3    -36.6858406  0.202097E-08  0.546E-04    3.84      36.6  T
   4    -36.6858406 -0.327153E-08  0.268E-04    3.84      74.7  T
     SCC iter.                  ...        0 min,  0.051 sec
     gradient                   ...        0 min,  0.032 sec
 * total energy  :   -36.1904515 Eh     change       -0.1087789E-05 Eh
   gradient norm :     0.0002746 Eh/α   predicted    -0.4013105E-06 ( -63.11%)
   displ. norm   :     0.0111362 α      lambda       -0.5621441E-06
   maximum displ.:     0.0110994 α      in ANC's #2, #6, #9, ...

........................................................................
.............................. CYCLE    9 ..............................
........................................................................

 iter      E             dE          RMSdq      gap      omega  full diag
   1    -36.6858032 -0.366858E+02  0.227E-03    3.84       0.0  T
   2    -36.6858032 -0.151448E-08  0.123E-03    3.84      16.3  T
   3    -36.6858032  0.183712E-08  0.407E-04    3.84      49.2  T
   4    -36.6858032 -0.261061E-08  0.172E-04    3.84     116.0  T
     SCC iter.                  ...        0 min,  0.092 sec
     gradient                   ...        0 min,  0.035 sec
 * total energy  :   -36.1904523 Eh     change       -0.8140643E-06 Eh
   gradient norm :     0.0001896 Eh/α   predicted    -0.2918637E-06 ( -64.15%)
   displ. norm   :     0.0103012 α      lambda       -0.4712155E-06
   maximum displ.:     0.0102421 α      in ANC's #2, #6, #12, ...

   *** GEOMETRY OPTIMIZATION CONVERGED AFTER 9 ITERATIONS ***

------------------------------------------------------------------------
 total energy gain   :        -0.0016970 Eh       -1.0649 kcal/mol
 total RMSD          :         0.0408060 a0        0.0216 Å
 total power (kW/mol):        -0.4950652 (step)   -2.7407 (real)
------------------------------------------------------------------------

 ANCopt (total)                0 d,  0 h,  0 min,  1.626 sec
 optimizer setup                ...        0 min,  0.001 sec (  0.044%)
 model hessian                  ...        0 min,  0.006 sec (  0.397%)
 ANC generation                 ...        0 min,  0.018 sec (  1.134%)
 coordinate transformation      ...        0 min,  0.000 sec (  0.007%)
 single point calculation       ...        0 min,  1.566 sec ( 96.344%)
 optimization log               ...        0 min,  0.001 sec (  0.059%)
 hessian update                 ...        0 min,  0.031 sec (  1.885%)
 rational function              ...        0 min,  0.001 sec (  0.040%)

================
 final structure:
================
25
 xtb: 6.7.1 (edcfbbe)
C            4.49728802498591       -0.41488300947847        0.46219402060873
C            3.21412837169521        0.27609248760015        0.01848677356080
C            1.97767989772562       -0.51807838019944        0.43010348266797
C            0.69287267880322        0.17226695969627       -0.01330063937930
O           -0.39694153780278       -0.62637024824318        0.40619991355414
C           -1.65798718932064       -0.21931629032964        0.12648595743419
C           -1.98978257877138        0.94797755472962       -0.55648245661582
C           -3.31755031674486        1.26554844707669       -0.78718435800389
C           -4.31332139681360        0.42068290433598       -0.33770254942192
Br          -6.13870224839833        0.86457817969905       -0.65906484044703
C           -4.00318118756540       -0.74581028911437        0.34402007699323
C           -2.68190074507872       -1.06062194921892        0.57290068396947
H            4.57191720952359       -1.40366145427254        0.01579091393340
H            4.51648408340758       -0.52537341718560        1.54383695778716
H            5.36611452863202        0.16485129678697        0.16049373008484
H            3.22234466472976        0.39542130514428       -1.06736298299243
H            3.16690444158707        1.27381356102363        0.46086571600332
H            1.95403324592643       -0.63672024739316        1.51458717343450
H            2.00945056931962       -1.51475690567243       -0.01302457704120
H            0.68243926119864        0.28196782335515       -1.10676659759483
H            0.62631804149038        1.17112596590573        0.44019918700228
H           -1.22719577332631        1.62035389190453       -0.91528168945344
H           -3.57033694224342        2.17123625021194       -1.31692171041594
H           -4.78887261479394       -1.39894953181706        0.69092400642083
H           -2.41220248816868       -1.96137490454319        1.10041513395798

 Bond Distances (Angstroems)
 ---------------------------
C1-C2=1.5234         C1-H13=1.0874        C1-H14=1.0874        C1-H15=1.0872        C2-C1=1.5234         C2-C3=1.5261         
C2-H16=1.0924        C2-H17=1.0924        C3-C2=1.5261         C3-C4=1.5244         C3-H18=1.0912        C3-H19=1.0912        
C4-C3=1.5244         C4-O5=1.4147         C4-H20=1.0990        C4-H21=1.0990        O5-C4=1.4147         O5-C6=1.3543         
C6-O5=1.3543         C6-C7=1.3925         C6-C12=1.3984        C7-C6=1.3925         C7-C8=1.3846         C7-H22=1.0781        
C8-C7=1.3846         C8-C9=1.3811         C8-H23=1.0793        C9-C8=1.3811         C9-Br10=1.9059       C9-C11=1.3862        
Br10-C9=1.9059       C11-C9=1.3862        C11-C12=1.3774       C11-H24=1.0790       C12-C6=1.3984        C12-C11=1.3774       
C12-H25=1.0781       H13-C1=1.0874        H14-C1=1.0874        H15-C1=1.0872        H16-C2=1.0924        H17-C2=1.0924        
H18-C3=1.0912        H19-C3=1.0912        H20-C4=1.0990        H21-C4=1.0990        H22-C7=1.0781        H23-C8=1.0793        
H24-C11=1.0790       H25-C12=1.0781       
 C  H  Rav=1.0878 sigma=0.0071  Rmin=1.0781  Rmax=1.0990    13
 C  C  Rav=1.4327 sigma=0.0653  Rmin=1.3774  Rmax=1.5261     9
 O  C  Rav=1.3845 sigma=0.0302  Rmin=1.3543  Rmax=1.4147     2
 Br C  Rav=1.9059 sigma=0.0000  Rmin=1.9059  Rmax=1.9059     1

 selected bond angles (degree)
 --------------------
H13-C1-C2=110.53               H14-C1-C2=110.53               H14-C1-H13=108.34              H15-C1-C2=110.51               
H15-C1-H13=108.43              H15-C1-H14=108.43              C3-C2-C1=111.58                H16-C2-C1=109.43               
H16-C2-C3=109.33               H17-C2-C1=109.43               H17-C2-C3=109.33               H17-C2-H16=107.64              
C4-C3-C2=111.64                H18-C3-C2=110.01               H18-C3-C4=108.67               H19-C3-C2=110.01               
H19-C3-C4=108.67               H19-C3-H18=107.75              O5-C4-C3=107.90                H20-C4-C3=110.04               
H20-C4-O5=110.12               H21-C4-C3=110.04               H21-C4-O5=110.12               H21-C4-H20=108.62              
C6-O5-C4=119.10                C7-C6-O5=125.11                C12-C6-O5=115.79               C12-C6-C7=119.11               
C8-C7-C6=120.16                H22-C7-C6=121.16               H22-C7-C8=118.67               C9-C8-C7=119.79                
H23-C8-C7=119.93               H23-C8-C9=120.28               Br10-C9-C8=119.55              C11-C9-C8=120.90               
C11-C9-Br10=119.55             

 selected dihedral angles (degree)
 ---------------------------------
C3-C2-C1-H13= 59.97           C3-C2-C1-H14=300.03           C3-C2-C1-H15=180.00           H16-C2-C1-H13=298.83          
H16-C2-C1-H14=178.90          H16-C2-C1-H15= 58.86          H17-C2-C1-H13=181.10          H17-C2-C1-H14= 61.17          
H17-C2-C1-H15=301.14          C4-C3-C2-C1=180.00            C4-C3-C2-H16=301.19           C4-C3-C2-H17= 58.81           
H18-C3-C2-C1= 59.28           H18-C3-C2-H16=180.47          H18-C3-C2-H17=298.08          H19-C3-C2-C1=300.72           
H19-C3-C2-H16= 61.92          H19-C3-C2-H17=179.53          O5-C4-C3-C2=180.00            O5-C4-C3-H18=301.51           
O5-C4-C3-H19= 58.49           H20-C4-C3-C2= 59.83           H20-C4-C3-H18=181.33          H20-C4-C3-H19=298.32          
H21-C4-C3-C2=300.17           H21-C4-C3-H18= 61.68          H21-C4-C3-H19=178.67          C6-O5-C4-C3=180.00            
C6-O5-C4-H20=300.12           C6-O5-C4-H21= 59.88           C7-C6-O5-C4=  0.00            C12-C6-O5-C4=180.00           
C8-C7-C6-O5=180.00            C8-C7-C6-C12=  0.00           H22-C7-C6-O5=  0.00           H22-C7-C6-C12=180.00          
C9-C8-C7-C6=  0.00            C9-C8-C7-H22=180.00           H23-C8-C7-C6=180.00           H23-C8-C7-H22=  0.00          
Br10-C9-C8-C7=180.00          Br10-C9-C8-H23=  0.00         C11-C9-C8-C7=  0.00           C11-C9-C8-H23=180.00          
           -------------------------------------------------
          |                Final Singlepoint                |
           -------------------------------------------------

          ...................................................
          :                      SETUP                      :
          :.................................................:
          :  # basis functions                  67          :
          :  # atomic orbitals                  66          :
          :  # shells                           38          :
          :  # electrons                        66          :
          :  max. iterations                   250          :
          :  Hamiltonian                  GFN2-xTB          :
          :  restarted?                      false          :
          :  GBSA solvation                  false          :
          :  PC potential                    false          :
          :  electronic temp.          300.0000000     K    :
          :  accuracy                    1.0000000          :
          :  -> integral cutoff          0.2500000E+02      :
          :  -> integral neglect         0.1000000E-07      :
          :  -> SCF convergence          0.1000000E-05 Eh   :
          :  -> wf. convergence          0.1000000E-03 e    :
          :  Broyden damping             0.4000000          :
          :  net charge                          0          :
          :  unpaired electrons                  0          :
          ...................................................

 iter      E             dE          RMSdq      gap      omega  full diag
   1    -36.6858032 -0.366858E+02  0.954E-05    3.84       0.0  T
   2    -36.6858032 -0.328058E-10  0.735E-05    3.84     272.1  T
   3    -36.6858032 -0.182183E-10  0.596E-05    3.84     335.5  T

   *** convergence criteria satisfied after 3 iterations ***

         #    Occupation            Energy/Eh            Energy/eV
      -------------------------------------------------------------
         1        2.0000           -0.8317975             -22.6344
       ...           ...                  ...                  ...
        27        2.0000           -0.4492765             -12.2254
        28        2.0000           -0.4401575             -11.9773
        29        2.0000           -0.4386938             -11.9375
        30        2.0000           -0.4257843             -11.5862
        31        2.0000           -0.4190693             -11.4035
        32        2.0000           -0.4056142             -11.0373
        33        2.0000           -0.3848129             -10.4713 (HOMO)
        34                         -0.2437174              -6.6319 (LUMO)
        35                         -0.2356613              -6.4127
        36                         -0.1996862              -5.4337
        37                         -0.1130953              -3.0775
        38                         -0.0013365              -0.0364
       ...                                ...                  ...
        66                          0.6512878              17.7224
      -------------------------------------------------------------
                  HL-Gap            0.1410956 Eh            3.8394 eV
             Fermi-level           -0.3142652 Eh           -8.5516 eV

 SCC (total)                   0 d,  0 h,  0 min,  0.096 sec
 SCC setup                      ...        0 min,  0.004 sec (  3.888%)
 Dispersion                     ...        0 min,  0.007 sec (  7.338%)
 classical contributions        ...        0 min,  0.003 sec (  3.433%)
 integral evaluation            ...        0 min,  0.011 sec ( 11.011%)
 iterations                     ...        0 min,  0.040 sec ( 41.747%)
 molecular gradient             ...        0 min,  0.031 sec ( 32.406%)
 printout                       ...        0 min,  0.000 sec (  0.144%)

         :::::::::::::::::::::::::::::::::::::::::::::::::::::
         ::                     SUMMARY                     ::
         :::::::::::::::::::::::::::::::::::::::::::::::::::::
         :: total energy             -36.190452323745 Eh    ::
         :: gradient norm              0.000190339311 Eh/a0 ::
         :: HOMO-LUMO gap              3.839405484272 eV    ::
         ::.................................................::
         :: SCC energy               -36.685989498047 Eh    ::
         :: -> isotropic ES            0.020585770370 Eh    ::
         :: -> anisotropic ES          0.003755324203 Eh    ::
         :: -> anisotropic XC          0.012471887801 Eh    ::
         :: -> dispersion             -0.020256985309 Eh    ::
         :: repulsion energy           0.495537174302 Eh    ::
         :: add. restraining           0.000000000000 Eh    ::
         :: total charge              -0.000000000000 e     ::
         :::::::::::::::::::::::::::::::::::::::::::::::::::::

           -------------------------------------------------
          |                Property Printout                |
           -------------------------------------------------

    * Orbital Energies and Occupations

         #    Occupation            Energy/Eh            Energy/eV
      -------------------------------------------------------------
         1        2.0000           -0.8317975             -22.6344
       ...           ...                  ...                  ...
        21        2.0000           -0.4948430             -13.4654
        22        2.0000           -0.4809052             -13.0861
        23        2.0000           -0.4802367             -13.0679
        24        2.0000           -0.4605856             -12.5332
        25        2.0000           -0.4577750             -12.4567
        26        2.0000           -0.4546413             -12.3714
        27        2.0000           -0.4492765             -12.2254
        28        2.0000           -0.4401575             -11.9773
        29        2.0000           -0.4386938             -11.9375
        30        2.0000           -0.4257843             -11.5862
        31        2.0000           -0.4190693             -11.4035
        32        2.0000           -0.4056142             -11.0373
        33        2.0000           -0.3848129             -10.4713 (HOMO)
        34                         -0.2437174              -6.6319 (LUMO)
        35                         -0.2356613              -6.4127
        36                         -0.1996862              -5.4337
        37                         -0.1130953              -3.0775
        38                         -0.0013365              -0.0364
        39                          0.0424153               1.1542
        40                          0.0459043               1.2491
        41                          0.0471146               1.2821
        42                          0.0774606               2.1078
        43                          0.0855994               2.3293
        44                          0.1034027               2.8137
       ...                                ...                  ...
        66                          0.6512878              17.7224
      -------------------------------------------------------------
                  HL-Gap            0.1410956 Eh            3.8394 eV
             Fermi-level           -0.3142652 Eh           -8.5516 eV

     #   Z          covCN         q      C6AA      α(0)
     1   6 C        3.752    -0.105    22.573     6.775
     2   6 C        3.801    -0.056    21.571     6.613
     3   6 C        3.802    -0.067    21.776     6.644
     4   6 C        3.694     0.083    19.364     6.296
     5   8 O        1.706    -0.267    18.431     5.796
     6   6 C        2.863     0.146    24.819     8.166
     7   6 C        2.920    -0.066    29.651     8.929
     8   6 C        2.991    -0.036    28.886     8.816
     9   6 C        2.917     0.072    26.391     8.424
    10  35 Br       1.064    -0.176   189.913    22.220
    11   6 C        2.988    -0.035    28.851     8.811
    12   6 C        2.924    -0.053    29.321     8.880
    13   1 H        0.925     0.039     2.459     2.452
    14   1 H        0.925     0.039     2.459     2.452
    15   1 H        0.925     0.040     2.454     2.450
    16   1 H        0.924     0.033     2.544     2.494
    17   1 H        0.924     0.033     2.544     2.494
    18   1 H        0.924     0.052     2.298     2.371
    19   1 H        0.924     0.052     2.298     2.371
    20   1 H        0.923     0.029     2.597     2.520
    21   1 H        0.923     0.029     2.597     2.520
    22   1 H        0.926     0.042     2.418     2.432
    23   1 H        0.926     0.055     2.264     2.353
    24   1 H        0.926     0.058     2.226     2.333
    25   1 H        0.926     0.059     2.215     2.327

 Mol. C6AA /au·bohr⁶  :       7796.555873
 Mol. C8AA /au·bohr⁸  :     219201.751368
 Mol. α(0) /au        :        137.940977


Wiberg/Mayer (AO) data.
largest (>0.10) Wiberg bond orders for each atom

 ---------------------------------------------------------------------------
     #   Z sym  total        # sym  WBO       # sym  WBO       # sym  WBO
 ---------------------------------------------------------------------------
     1   6 C    3.996 --     2 C    1.020    14 H    0.988    13 H    0.988
                            15 H    0.987
     2   6 C    3.997 --     1 C    1.020     3 C    1.007    17 H    0.978
                            16 H    0.978
     3   6 C    3.992 --     2 C    1.007     4 C    1.002    18 H    0.976
                            19 H    0.976
     4   6 C    3.943 --     3 C    1.002    21 H    0.968    20 H    0.968
                             5 O    0.963
     5   8 O    2.244 --     6 C    1.081     4 C    0.963
     6   6 C    3.938 --     7 C    1.367    12 C    1.338     5 O    1.081
     7   6 C    3.988 --     8 C    1.436     6 C    1.367    22 H    0.965
     8   6 C    3.990 --     7 C    1.436     9 C    1.419    23 H    0.968
                            12 C    0.107
     9   6 C    3.935 --     8 C    1.419    11 C    1.389    10 Br   0.975
    10  35 Br   1.099 --     9 C    0.975
    11   6 C    3.990 --    12 C    1.474     9 C    1.389    24 H    0.968
    12   6 C    3.987 --    11 C    1.474     6 C    1.338    25 H    0.966
                             8 C    0.107
    13   1 H    0.998 --     1 C    0.988
    14   1 H    0.998 --     1 C    0.988
    15   1 H    0.998 --     1 C    0.987
    16   1 H    0.999 --     2 C    0.978
    17   1 H    0.999 --     2 C    0.978
    18   1 H    0.997 --     3 C    0.976
    19   1 H    0.997 --     3 C    0.976
    20   1 H    0.999 --     4 C    0.968
    21   1 H    0.999 --     4 C    0.968
    22   1 H    0.998 --     7 C    0.965
    23   1 H    0.997 --     8 C    0.968
    24   1 H    0.996 --    11 C    0.968
    25   1 H    0.997 --    12 C    0.966
 ---------------------------------------------------------------------------

Topologies differ in total number of bonds
Writing topology from bond orders to xtbtopo.mol

molecular dipole:
                 x           y           z       tot (Debye)
 q only:        1.505      -0.050       0.084
   full:        1.996      -0.029       0.089       5.080
molecular quadrupole (traceless):
                xx          xy          yy          xz          yz          zz
 q only:      -12.872       4.622       7.153      -3.057      -0.909       5.720
  q+dip:      -27.054       8.630      14.836      -6.016      -1.613      12.218
   full:      -25.971       8.177      13.569      -5.748      -0.400      12.402

           -------------------------------------------------
          |                Geometry Summary                 |
           -------------------------------------------------

      molecular mass/u    :      229.1135214
   center of mass at/Å    :       -2.5039456       0.2626820      -0.1812459
  moments of inertia/u·Å² :        0.1292948E+03   0.2928026E+04   0.3044708E+04
rotational constants/cm⁻¹ :        0.1303814E+00   0.5757337E-02   0.5536700E-02

 * 25 selected distances

     #   Z          #   Z                                           value/Å
     1   6 C        2   6 C                                       1.5234246
     2   6 C        3   6 C                                       1.5260868
     3   6 C        4   6 C                                       1.5244389
     4   6 C        5   8 O                                       1.4147429
     5   8 O        6   6 C                                       1.3543151
     6   6 C        7   6 C                                       1.3925191
     7   6 C        8   6 C                                       1.3845729
     8   6 C        9   6 C                                       1.3810837
     9   6 C       10  35 Br                                      1.9058680 (max)
     9   6 C       11   6 C                                       1.3862321
     6   6 C       12   6 C                                       1.3983850
    11   6 C       12   6 C                                       1.3774161
     1   6 C       13   1 H                                       1.0874412
     1   6 C       14   1 H                                       1.0874412
     1   6 C       15   1 H                                       1.0871866
     2   6 C       16   1 H                                       1.0924179
     2   6 C       17   1 H                                       1.0924179
     3   6 C       18   1 H                                       1.0912104
     3   6 C       19   1 H                                       1.0912104
     4   6 C       20   1 H                                       1.0990046
     4   6 C       21   1 H                                       1.0990046
     7   6 C       22   1 H                                       1.0781306
     8   6 C       23   1 H                                       1.0792559
    11   6 C       24   1 H                                       1.0790016
    12   6 C       25   1 H                                       1.0781302 (min)

 * 4 distinct bonds (by element types)

   Z      Z             #   av. dist./Å        max./Å        min./Å
   1 H    6 C          13     1.0878349     1.0990046     1.0781302
   6 C    6 C           9     1.4326843     1.5260868     1.3774161
   6 C    8 O           2     1.3845290     1.4147429     1.3543151
   6 C   35 Br          1     1.9058680     1.9058680     1.9058680


optimized geometry written to: xtbopt.xyz


           -------------------------------------------------
          | TOTAL ENERGY              -36.190452323745 Eh   |
          | GRADIENT NORM               0.000190339311 Eh/α |
          | HOMO-LUMO GAP               3.839405484272 eV   |
           -------------------------------------------------

------------------------------------------------------------------------
 * finished run on 2026/07/09 at 18:34:10.789     
------------------------------------------------------------------------
 total:
 * wall-time:     0 d,  0 h,  0 min,  2.170 sec
 *  cpu-time:     0 d,  0 h,  0 min, 34.324 sec
 * ratio c/w:    15.819 speedup
 SCF:
 * wall-time:     0 d,  0 h,  0 min,  0.365 sec
 *  cpu-time:     0 d,  0 h,  0 min,  5.787 sec
 * ratio c/w:    15.876 speedup
 ANC optimizer:
 * wall-time:     0 d,  0 h,  0 min,  1.728 sec
 *  cpu-time:     0 d,  0 h,  0 min, 27.528 sec
 * ratio c/w:    15.928 speedup

