      -----------------------------------------------------------      
     |                   =====================                   |     
     |                           x T B                           |     
     |                   =====================                   |     
     |                         S. Grimme                         |     
     |          Mulliken Center for Theoretical Chemistry        |     
     |                    University of Bonn                     |     
      -----------------------------------------------------------      

   * xtb version 6.7.1 (edcfbbe) compiled by 'conda@5dfe00f5fb80' on 2026-06-10

   xtb is free software: you can redistribute it and/or modify it under
   the terms of the GNU Lesser General Public License as published by
   the Free Software Foundation, either version 3 of the License, or
   (at your option) any later version.
   
   xtb is distributed in the hope that it will be useful,
   but WITHOUT ANY WARRANTY; without even the implied warranty of
   MERCHANTABILITY or FITNESS FOR A PARTICULAR PURPOSE.  See the
   GNU Lesser General Public License for more details.
   
   Cite this work as:
   * C. Bannwarth, E. Caldeweyher, S. Ehlert, A. Hansen, P. Pracht,
     J. Seibert, S. Spicher, S. Grimme, WIREs Comput. Mol. Sci., 2020, 11,
     e01493. DOI: 10.1002/wcms.1493
   
   for GFN2-xTB:
   * C. Bannwarth, S. Ehlert and S. Grimme., J. Chem. Theory Comput., 2019,
     15, 1652-1671. DOI: 10.1021/acs.jctc.8b01176
   for GFN1-xTB:
   * S. Grimme, C. Bannwarth, P. Shushkov, J. Chem. Theory Comput., 2017,
     13, 1989-2009. DOI: 10.1021/acs.jctc.7b00118
   for GFN0-xTB:
   * P. Pracht, E. Caldeweyher, S. Ehlert, S. Grimme, ChemRxiv, 2019, preprint.
     DOI: 10.26434/chemrxiv.8326202.v1
   for GFN-FF:
   * S. Spicher and S. Grimme, Angew. Chem. Int. Ed., 2020, 59, 15665-15673.
     DOI: 10.1002/anie.202004239
   
   for ALPB and GBSA implicit solvation:
   * S. Ehlert, M. Stahn, S. Spicher, S. Grimme, J. Chem. Theory Comput.,
     2021, 17, 4250-4261. DOI: 10.1021/acs.jctc.1c00471
   
   for ddCOSMO and CPCM-X implicit solvation:
   * M. Stahn, S. Ehlert, S. Grimme, J. Phys. Chem. A,
     2023, XX, XXXX-XXXX. DOI: 10.1021/acs.jpca.3c04382
   
   for DFT-D4:
   * E. Caldeweyher, C. Bannwarth and S. Grimme, J. Chem. Phys., 2017,
     147, 034112. DOI: 10.1063/1.4993215
   * E. Caldeweyher, S. Ehlert, A. Hansen, H. Neugebauer, S. Spicher,
     C. Bannwarth and S. Grimme, J. Chem. Phys., 2019, 150, 154122.
     DOI: 10.1063/1.5090222
   * E. Caldeweyher, J.-M. Mewes, S. Ehlert and S. Grimme, Phys. Chem. Chem. Phys.
     2020, 22, 8499-8512. DOI: 10.1039/D0CP00502A
   
   for sTDA-xTB:
   * S. Grimme and C. Bannwarth, J. Chem. Phys., 2016, 145, 054103.
     DOI: 10.1063/1.4959605
   
   in the mass-spec context:
   * V. Asgeirsson, C. Bauer and S. Grimme, Chem. Sci., 2017, 8, 4879.
     DOI: 10.1039/c7sc00601b
   * J. Koopman and S. Grimme, ACS Omega 2019, 4, 12, 15120-15133.
     DOI: 10.1021/acsomega.9b02011
   
   for metadynamics refer to:
   * S. Grimme, J. Chem. Theory Comput., 2019, 155, 2847-2862
     DOI: 10.1021/acs.jctc.9b00143
   
   for SPH calculations refer to:
   * S. Spicher and S. Grimme, J. Chem. Theory Comput., 2021, 17, 1701-1714
     DOI: 10.1021/acs.jctc.0c01306
   
   for ONIOM refer to:
   * C. Plett, A. Katbashev, S. Ehlert, S. Grimme, M. Bursch,
     Phys. Chem. Chem. Phys., 2023, 25, 17860-17868. DOI: 10.1039/D3CP02178E
   
   for DIPRO refer to:
   * J. Kohn, N. Gildemeister, S. Grimme, D. Fazzi, A. Hansen,
     J. Chem. Phys., 2023, just accepted.
   
   for PTB refer to:
   * S. Grimme, M. Mueller, A. Hansen, J. Chem. Phys., 2023, 158, 124111.
     DOI: 10.1063/5.0137838
   
   with help from (in alphabetical order)
   P. Atkinson, C. Bannwarth, F. Bohle, G. Brandenburg, E. Caldeweyher
   M. Checinski, S. Dohm, S. Ehlert, S. Ehrlich, I. Gerasimov, C. Hölzer
   A. Katbashev, J. Kohn, J. Koopman, C. Lavigne, S. Lehtola, F. März, M. Müller,
   F. Musil, H. Neugebauer, J. Pisarek, C. Plett, P. Pracht, F. Pultar,
   J. Seibert, P. Shushkov, S. Spicher, M. Stahn, M. Steiner, T. Strunk,
   J. Stückrath, T. Rose, and J. Unsleber
   
 * started run on 2026/07/08 at 09:55:21.557     
   ID    Z sym.   atoms
    1    6 C      1, 2, 4-12
    2    8 O      3
    3    1 H      13-26

           -------------------------------------------------
          |                Calculation Setup                |
           -------------------------------------------------

          program call               : /home/ws/xd2484/miniforge3/envs/p3z_dft/bin/xtb xtb_input.xyz --gfn 2 --opt tight --cycles 500 --chrg 0 --uhf 0
          hostname                   : gpu10
          coordinate file            : xtb_input.xyz
          omp threads                :                    16


           -------------------------------------------------
          |                 G F N 2 - x T B                 |
           -------------------------------------------------

        Reference                      10.1021/acs.jctc.8b01176
      * Hamiltonian:
        H0-scaling (s, p, d)           1.850000    2.230000    2.230000
        zeta-weighting                 0.500000
      * Dispersion:
        s8                             2.700000
        a1                             0.520000
        a2                             5.000000
        s9                             5.000000
      * Repulsion:
        kExp                           1.500000    1.000000
        rExp                           1.000000
      * Coulomb:
        alpha                          2.000000
        third order                    shell-resolved
        anisotropic                    true
        a3                             3.000000
        a5                             4.000000
        cn-shift                       1.200000
        cn-exp                         4.000000
        max-rad                        5.000000


          ...................................................
          :                      SETUP                      :
          :.................................................:
          :  # basis functions                  62          :
          :  # atomic orbitals                  62          :
          :  # shells                           38          :
          :  # electrons                        64          :
          :  max. iterations                   250          :
          :  Hamiltonian                  GFN2-xTB          :
          :  restarted?                      false          :
          :  GBSA solvation                  false          :
          :  PC potential                    false          :
          :  electronic temp.          300.0000000     K    :
          :  accuracy                    1.0000000          :
          :  -> integral cutoff          0.2500000E+02      :
          :  -> integral neglect         0.1000000E-07      :
          :  -> SCF convergence          0.1000000E-05 Eh   :
          :  -> wf. convergence          0.1000000E-03 e    :
          :  Broyden damping             0.4000000          :
          :  net charge                          0          :
          :  unpaired electrons                  0          :
          ...................................................

 iter      E             dE          RMSdq      gap      omega  full diag
   1    -35.1936833 -0.351937E+02  0.381E+00    4.55       0.0  T
   2    -35.2532109 -0.595275E-01  0.209E+00    3.55       1.0  T
   3    -35.2565539 -0.334303E-02  0.128E+00    4.17       1.0  T
   4    -35.2661868 -0.963289E-02  0.189E-01    3.75       1.0  T
   5    -35.2664368 -0.249956E-03  0.679E-02    3.78       1.0  T
   6    -35.2664660 -0.292584E-04  0.391E-02    3.78       1.0  T
   7    -35.2664753 -0.925572E-05  0.163E-02    3.78       1.2  T
   8    -35.2664764 -0.110011E-05  0.303E-03    3.78       6.5  T
   9    -35.2664764 -0.399801E-07  0.130E-03    3.78      15.1  T
  10    -35.2664764 -0.149273E-07  0.715E-04    3.78      27.4  T
  11    -35.2664764 -0.272728E-08  0.178E-04    3.78     110.2  T

   *** convergence criteria satisfied after 11 iterations ***

         #    Occupation            Energy/Eh            Energy/eV
      -------------------------------------------------------------
         1        2.0000           -0.7028184             -19.1247
       ...           ...                  ...                  ...
        26        2.0000           -0.4466673             -12.1544
        27        2.0000           -0.4378372             -11.9142
        28        2.0000           -0.4208021             -11.4506
        29        2.0000           -0.4190253             -11.4023
        30        2.0000           -0.4015984             -10.9280
        31        2.0000           -0.3979178             -10.8279
        32        2.0000           -0.3927525             -10.6873 (HOMO)
        33                         -0.2537916              -6.9060 (LUMO)
        34                         -0.2248010              -6.1171
        35                         -0.2235660              -6.0835
        36                         -0.0995390              -2.7086
        37                          0.0443378               1.2065
       ...                                ...                  ...
        62                          0.6321901              17.2028
      -------------------------------------------------------------
                  HL-Gap            0.1389610 Eh            3.7813 eV
             Fermi-level           -0.3232721 Eh           -8.7967 eV

 SCC (total)                   0 d,  0 h,  0 min,  0.297 sec
 SCC setup                      ...        0 min,  0.008 sec (  2.654%)
 Dispersion                     ...        0 min,  0.016 sec (  5.481%)
 classical contributions        ...        0 min,  0.008 sec (  2.707%)
 integral evaluation            ...        0 min,  0.023 sec (  7.906%)
 iterations                     ...        0 min,  0.200 sec ( 67.548%)
 molecular gradient             ...        0 min,  0.040 sec ( 13.629%)
 printout                       ...        0 min,  0.000 sec (  0.065%)

         :::::::::::::::::::::::::::::::::::::::::::::::::::::
         ::                     SUMMARY                     ::
         :::::::::::::::::::::::::::::::::::::::::::::::::::::
         :: total energy             -34.738906574708 Eh    ::
         :: gradient norm              0.057153578386 Eh/a0 ::
         :: HOMO-LUMO gap              3.781320292768 eV    ::
         ::.................................................::
         :: SCC energy               -35.266309993792 Eh    ::
         :: -> isotropic ES            0.029174228777 Eh    ::
         :: -> anisotropic ES          0.005215223272 Eh    ::
         :: -> anisotropic XC          0.020103926684 Eh    ::
         :: -> dispersion             -0.020635827943 Eh    ::
         :: repulsion energy           0.527403419085 Eh    ::
         :: add. restraining           0.000000000000 Eh    ::
         :: total charge               0.000000000000 e     ::
         :::::::::::::::::::::::::::::::::::::::::::::::::::::

      ----------------------------------------------------------- 
     |                   =====================                   |
     |                        A N C O P T                        |
     |                   =====================                   |
     |               Approximate Normal Coordinate               |
     |                Rational Function Optimizer                |
      ----------------------------------------------------------- 
      ----------------------------------------------------------- 
     |                   =====================                   |
     |                        A N C O P T                        |
     |                   =====================                   |
     |               Approximate Normal Coordinate               |
     |                Rational Function Optimizer                |
      ----------------------------------------------------------- 

          ...................................................
          :                      SETUP                      :
          :.................................................:
          :   optimization level             tight          :
          :   max. optcycles                   500          :
          :   ANC micro-cycles                  20          :
          :   degrees of freedom                72          :
          :.................................................:
          :   RF solver                   davidson          :
          :   write xtbopt.log                true          :
          :   linear?                        false          :
          :   energy convergence         0.1000000E-05 Eh   :
          :   grad. convergence          0.8000000E-03 Eh/α :
          :   maxmium RF displ.          1.0000000          :
          :   Hlow (freq-cutoff)         0.1000000E-01      :
          :   Hmax (freq-cutoff)         5.0000000          :
          :   S6 in model hess.         20.0000000          :
          ...................................................

generating ANC from exact Hessian ...
Using Lindh-Hessian (1995)
 Shifting diagonal of input Hessian by    9.3967629931282701E-003
 Lowest  eigenvalues of input Hessian
    0.000000    0.000000    0.000000    0.000000    0.000000    0.000000
    0.010000    0.010430    0.011352    0.012692    0.014144    0.016485
    0.017858    0.020333    0.023311    0.026110    0.028322    0.030771
 Highest eigenvalues
    1.528776    1.558708    1.832614    1.931304    1.945778    2.043759


........................................................................
.............................. CYCLE    1 ..............................
........................................................................

 iter      E             dE          RMSdq      gap      omega  full diag
   1    -35.2664764 -0.352665E+02  0.694E-05    3.78       0.0  T
   2    -35.2664764 -0.327560E-10  0.424E-05    3.78     462.4  T
   3    -35.2664764 -0.195399E-10  0.237E-05    3.78     827.8  T
     SCC iter.                  ...        0 min,  0.043 sec
     gradient                   ...        0 min,  0.035 sec
 * total energy  :   -34.7389066 Eh     change       -0.6112373E-09 Eh
   gradient norm :     0.0571543 Eh/α   predicted     0.0000000E+00 (-100.00%)
   displ. norm   :     0.1506308 α      lambda       -0.4008203E-02
   maximum displ.:     0.0611692 α      in ANC's #43, #7, #39, ...

........................................................................
.............................. CYCLE    2 ..............................
........................................................................

 iter      E             dE          RMSdq      gap      omega  full diag
   1    -35.2945668 -0.352946E+02  0.126E-01    3.98       0.0  T
   2    -35.2946353 -0.685111E-04  0.742E-02    3.95       1.0  T
   3    -35.2946364 -0.113326E-05  0.309E-02    3.95       1.0  T
   4    -35.2946381 -0.171674E-05  0.558E-03    3.94       3.5  T
   5    -35.2946387 -0.548847E-06  0.262E-03    3.94       7.5  T
   6    -35.2946387 -0.616785E-07  0.801E-04    3.94      24.5  T
   7    -35.2946387 -0.180119E-08  0.436E-04    3.94      45.0  T
     SCC iter.                  ...        0 min,  0.110 sec
     gradient                   ...        0 min,  0.042 sec
 * total energy  :   -34.7413590 Eh     change       -0.2452376E-02 Eh
   gradient norm :     0.0133967 Eh/α   predicted    -0.2049949E-02 ( -16.41%)
   displ. norm   :     0.1060146 α      lambda       -0.3873052E-03
   maximum displ.:     0.0556463 α      in ANC's #7, #1, #2, ...

........................................................................
.............................. CYCLE    3 ..............................
........................................................................

 iter      E             dE          RMSdq      gap      omega  full diag
   1    -35.3019448 -0.353019E+02  0.505E-02    3.99       0.0  T
   2    -35.3019542 -0.941043E-05  0.291E-02    3.98       1.0  T
   3    -35.3019543 -0.144580E-06  0.109E-02    3.98       1.8  T
   4    -35.3019545 -0.159101E-06  0.224E-03    3.98       8.7  T
   5    -35.3019546 -0.789579E-07  0.945E-04    3.98      20.7  T
   6    -35.3019546 -0.147630E-07  0.258E-04    3.98      76.1  T
     SCC iter.                  ...        0 min,  0.103 sec
     gradient                   ...        0 min,  0.040 sec
 * total energy  :   -34.7415777 Eh     change       -0.2187594E-03 Eh
   gradient norm :     0.0025177 Eh/α   predicted    -0.1958345E-03 ( -10.48%)
   displ. norm   :     0.0743463 α      lambda       -0.6297143E-04
   maximum displ.:     0.0454669 α      in ANC's #1, #2, #7, ...

........................................................................
.............................. CYCLE    4 ..............................
........................................................................

 iter      E             dE          RMSdq      gap      omega  full diag
   1    -35.3024665 -0.353025E+02  0.229E-02    3.98       0.0  T
   2    -35.3024667 -0.223419E-06  0.134E-02    3.98       1.5  T
   3    -35.3024666  0.104145E-06  0.253E-03    3.98       7.8  T
   4    -35.3024668 -0.129955E-06  0.722E-04    3.98      27.2  T
   5    -35.3024668 -0.999748E-08  0.236E-04    3.98      83.2  T
     SCC iter.                  ...        0 min,  0.068 sec
     gradient                   ...        0 min,  0.042 sec
 * total energy  :   -34.7416264 Eh     change       -0.4868264E-04 Eh
   gradient norm :     0.0022443 Eh/α   predicted    -0.3166036E-04 ( -34.97%)
   displ. norm   :     0.1261499 α      lambda       -0.7178551E-04
   maximum displ.:     0.0770710 α      in ANC's #1, #2, #4, ...

........................................................................
.............................. CYCLE    5 ..............................
........................................................................

 iter      E             dE          RMSdq      gap      omega  full diag
   1    -35.3019641 -0.353020E+02  0.376E-02    3.98       0.0  T
   2    -35.3019642 -0.127173E-06  0.221E-02    3.98       1.0  T
   3    -35.3019641  0.130307E-06  0.274E-03    3.97       7.2  T
   4    -35.3019643 -0.186436E-06  0.654E-04    3.98      30.0  T
   5    -35.3019643 -0.127644E-08  0.306E-04    3.98      64.1  T
     SCC iter.                  ...        0 min,  0.072 sec
     gradient                   ...        0 min,  0.041 sec
 * total energy  :   -34.7416783 Eh     change       -0.5190836E-04 Eh
   gradient norm :     0.0019127 Eh/α   predicted    -0.3646432E-04 ( -29.75%)
   displ. norm   :     0.1655711 α      lambda       -0.4278296E-04
   maximum displ.:     0.1079750 α      in ANC's #1, #2, #4, ...

........................................................................
.............................. CYCLE    6 ..............................
........................................................................

 iter      E             dE          RMSdq      gap      omega  full diag
   1    -35.3011748 -0.353012E+02  0.573E-02    3.97       0.0  T
   2    -35.3011751 -0.270117E-06  0.337E-02    3.97       1.0  T
   3    -35.3011751  0.237407E-07  0.218E-03    3.97       9.0  T
   4    -35.3011752 -0.936098E-07  0.935E-04    3.97      21.0  T
   5    -35.3011752 -0.989003E-08  0.392E-04    3.97      50.1  T
     SCC iter.                  ...        0 min,  0.068 sec
     gradient                   ...        0 min,  0.038 sec
 * total energy  :   -34.7417241 Eh     change       -0.4580234E-04 Eh
   gradient norm :     0.0021433 Eh/α   predicted    -0.2165358E-04 ( -52.72%)
   displ. norm   :     0.0845915 α      lambda       -0.3289491E-04
   maximum displ.:     0.0564998 α      in ANC's #1, #2, #4, ...

........................................................................
.............................. CYCLE    7 ..............................
........................................................................

 iter      E             dE          RMSdq      gap      omega  full diag
   1    -35.3013311 -0.353013E+02  0.344E-02    3.97       0.0  T
   2    -35.3013312 -0.699843E-07  0.202E-02    3.97       1.0  T
   3    -35.3013312 -0.149824E-08  0.120E-03    3.98      16.4  T
   4    -35.3013312 -0.256180E-07  0.524E-04    3.97      37.4  T
   5    -35.3013312 -0.148804E-08  0.195E-04    3.97     100.4  T
     SCC iter.                  ...        0 min,  0.069 sec
     gradient                   ...        0 min,  0.041 sec
 * total energy  :   -34.7417532 Eh     change       -0.2907829E-04 Eh
   gradient norm :     0.0014962 Eh/α   predicted    -0.1656824E-04 ( -43.02%)
   displ. norm   :     0.2285903 α      lambda       -0.5633411E-04
   maximum displ.:     0.1519767 α      in ANC's #1, #2, #3, ...

........................................................................
.............................. CYCLE    8 ..............................
........................................................................

 iter      E             dE          RMSdq      gap      omega  full diag
   1    -35.3014807 -0.353015E+02  0.103E-01    3.98       0.0  T
   2    -35.3014814 -0.665875E-06  0.603E-02    3.98       1.0  T
   3    -35.3014814  0.390605E-07  0.363E-03    3.98       5.4  T
   4    -35.3014816 -0.257833E-06  0.152E-03    3.98      12.9  T
   5    -35.3014816 -0.182717E-07  0.617E-04    3.98      31.8  T
   6    -35.3014816 -0.237636E-08  0.275E-04    3.98      71.2  T
     SCC iter.                  ...        0 min,  0.102 sec
     gradient                   ...        0 min,  0.042 sec
 * total energy  :   -34.7418128 Eh     change       -0.5959960E-04 Eh
   gradient norm :     0.0019898 Eh/α   predicted    -0.2882178E-04 ( -51.64%)
   displ. norm   :     0.2024503 α      lambda       -0.3368308E-04
   maximum displ.:     0.1344592 α      in ANC's #1, #2, #8, ...

........................................................................
.............................. CYCLE    9 ..............................
........................................................................

 iter      E             dE          RMSdq      gap      omega  full diag
   1    -35.3015889 -0.353016E+02  0.843E-02    3.98       0.0  T
   2    -35.3015893 -0.434781E-06  0.494E-02    3.98       1.0  T
   3    -35.3015893  0.559023E-07  0.314E-03    3.98       6.3  T
   4    -35.3015895 -0.230579E-06  0.135E-03    3.98      14.5  T
   5    -35.3015895 -0.136601E-07  0.443E-04    3.98      44.3  T
   6    -35.3015895 -0.923045E-09  0.223E-04    3.98      87.8  T
     SCC iter.                  ...        0 min,  0.091 sec
     gradient                   ...        0 min,  0.044 sec
 * total energy  :   -34.7418537 Eh     change       -0.4090530E-04 Eh
   gradient norm :     0.0016537 Eh/α   predicted    -0.1714979E-04 ( -58.07%)
   displ. norm   :     0.3004145 α      lambda       -0.4599365E-04
   maximum displ.:     0.1961297 α      in ANC's #1, #2, #8, ...

........................................................................
.............................. CYCLE   10 ..............................
........................................................................

 iter      E             dE          RMSdq      gap      omega  full diag
   1    -35.3014900 -0.353015E+02  0.124E-01    3.98       0.0  T
   2    -35.3014909 -0.974437E-06  0.725E-02    3.98       1.0  T
   3    -35.3014908  0.156905E-06  0.469E-03    3.98       4.2  T
   4    -35.3014913 -0.526019E-06  0.198E-03    3.98       9.9  T
   5    -35.3014913 -0.321214E-07  0.615E-04    3.98      31.9  T
   6    -35.3014913 -0.141456E-08  0.312E-04    3.98      62.9  T
     SCC iter.                  ...        0 min,  0.078 sec
     gradient                   ...        0 min,  0.041 sec
 * total energy  :   -34.7419041 Eh     change       -0.5039810E-04 Eh
   gradient norm :     0.0017960 Eh/α   predicted    -0.2392180E-04 ( -52.53%)
   displ. norm   :     0.2930548 α      lambda       -0.3649764E-04
   maximum displ.:     0.1853414 α      in ANC's #1, #2, #8, ...

........................................................................
.............................. CYCLE   11 ..............................
........................................................................

 iter      E             dE          RMSdq      gap      omega  full diag
   1    -35.3017692 -0.353018E+02  0.109E-01    4.00       0.0  T
   2    -35.3017701 -0.893911E-06  0.639E-02    4.00       1.0  T
   3    -35.3017700  0.107575E-06  0.436E-03    4.00       4.5  T
   4    -35.3017704 -0.424358E-06  0.186E-03    4.00      10.5  T
   5    -35.3017704 -0.294302E-07  0.708E-04    4.00      27.7  T
   6    -35.3017704 -0.341411E-08  0.317E-04    4.00      61.8  T
     SCC iter.                  ...        0 min,  0.084 sec
     gradient                   ...        0 min,  0.042 sec
 * total energy  :   -34.7419356 Eh     change       -0.3153722E-04 Eh
   gradient norm :     0.0011213 Eh/α   predicted    -0.1894562E-04 ( -39.93%)
   displ. norm   :     0.0888851 α      lambda       -0.9309309E-05
   maximum displ.:     0.0500492 α      in ANC's #2, #1, #4, ...

........................................................................
.............................. CYCLE   12 ..............................
........................................................................

 iter      E             dE          RMSdq      gap      omega  full diag
   1    -35.3022466 -0.353022E+02  0.333E-02    3.99       0.0  T
   2    -35.3022466 -0.800606E-07  0.196E-02    4.00       1.0  T
   3    -35.3022466  0.129363E-07  0.136E-03    4.00      14.5  T
   4    -35.3022467 -0.406131E-07  0.532E-04    4.00      36.9  T
   5    -35.3022467 -0.185001E-08  0.209E-04    4.00      93.7  T
     SCC iter.                  ...        0 min,  0.081 sec
     gradient                   ...        0 min,  0.042 sec
 * total energy  :   -34.7419444 Eh     change       -0.8744863E-05 Eh
   gradient norm :     0.0006271 Eh/α   predicted    -0.4671319E-05 ( -46.58%)
   displ. norm   :     0.0417668 α      lambda       -0.4205127E-05
   maximum displ.:     0.0310851 α      in ANC's #4, #2, #6, ...

........................................................................
.............................. CYCLE   13 ..............................
........................................................................

 iter      E             dE          RMSdq      gap      omega  full diag
   1    -35.3022996 -0.353023E+02  0.151E-02    4.00       0.0  T
   2    -35.3022996 -0.100671E-07  0.891E-03    4.00       2.2  T
   3    -35.3022996  0.762036E-09  0.493E-04    4.00      39.8  T
   4    -35.3022996 -0.474571E-08  0.174E-04    4.00     112.4  T
     SCC iter.                  ...        0 min,  0.090 sec
     gradient                   ...        0 min,  0.045 sec
 * total energy  :   -34.7419492 Eh     change       -0.4827969E-05 Eh
   gradient norm :     0.0004485 Eh/α   predicted    -0.2106407E-05 ( -56.37%)
   displ. norm   :     0.0329864 α      lambda       -0.3588249E-05
   maximum displ.:     0.0290593 α      in ANC's #4, #2, #1, ...

........................................................................
.............................. CYCLE   14 ..............................
........................................................................

 iter      E             dE          RMSdq      gap      omega  full diag
   1    -35.3021092 -0.353021E+02  0.133E-02    4.00       0.0  T
   2    -35.3021093 -0.117741E-07  0.786E-03    4.00       2.5  T
   3    -35.3021093  0.704588E-08  0.648E-04    4.00      30.3  T
   4    -35.3021093 -0.107975E-07  0.197E-04    4.00      99.5  T
     SCC iter.                  ...        0 min,  0.092 sec
     gradient                   ...        0 min,  0.047 sec
 * total energy  :   -34.7419536 Eh     change       -0.4406208E-05 Eh
   gradient norm :     0.0004994 Eh/α   predicted    -0.1795961E-05 ( -59.24%)
   displ. norm   :     0.0477379 α      lambda       -0.4258450E-05
   maximum displ.:     0.0386088 α      in ANC's #4, #1, #6, ...

........................................................................
.............................. CYCLE   15 ..............................
........................................................................

 iter      E             dE          RMSdq      gap      omega  full diag
   1    -35.3019452 -0.353019E+02  0.181E-02    3.99       0.0  T
   2    -35.3019452 -0.234434E-07  0.107E-02    3.99       1.8  T
   3    -35.3019452  0.123039E-07  0.893E-04    3.99      22.0  T
   4    -35.3019452 -0.206839E-07  0.306E-04    3.99      64.1  T
     SCC iter.                  ...        0 min,  0.068 sec
     gradient                   ...        0 min,  0.048 sec
 * total energy  :   -34.7419588 Eh     change       -0.5243364E-05 Eh
   gradient norm :     0.0004766 Eh/α   predicted    -0.2134961E-05 ( -59.28%)
   displ. norm   :     0.0659357 α      lambda       -0.4746488E-05
   maximum displ.:     0.0507703 α      in ANC's #4, #6, #1, ...

........................................................................
.............................. CYCLE   16 ..............................
........................................................................

 iter      E             dE          RMSdq      gap      omega  full diag
   1    -35.3020269 -0.353020E+02  0.245E-02    4.00       0.0  T
   2    -35.3020269 -0.542571E-07  0.144E-02    4.00       1.4  T
   3    -35.3020269  0.116541E-07  0.113E-03    4.00      17.4  T
   4    -35.3020270 -0.278398E-07  0.460E-04    4.00      42.6  T
   5    -35.3020270 -0.180680E-08  0.166E-04    4.00     118.3  T
     SCC iter.                  ...        0 min,  0.085 sec
     gradient                   ...        0 min,  0.038 sec
 * total energy  :   -34.7419642 Eh     change       -0.5326906E-05 Eh
   gradient norm :     0.0005081 Eh/α   predicted    -0.2379713E-05 ( -55.33%)
   displ. norm   :     0.0870303 α      lambda       -0.4407133E-05
   maximum displ.:     0.0627958 α      in ANC's #4, #2, #6, ...

........................................................................
.............................. CYCLE   17 ..............................
........................................................................

 iter      E             dE          RMSdq      gap      omega  full diag
   1    -35.3017111 -0.353017E+02  0.288E-02    3.99       0.0  T
   2    -35.3017111 -0.462233E-07  0.170E-02    3.99       1.2  T
   3    -35.3017111  0.922311E-08  0.112E-03    3.99      17.5  T
   4    -35.3017112 -0.278289E-07  0.431E-04    3.99      45.5  T
   5    -35.3017112 -0.626500E-09  0.145E-04    3.99     135.3  T
     SCC iter.                  ...        0 min,  0.094 sec
     gradient                   ...        0 min,  0.062 sec
 * total energy  :   -34.7419684 Eh     change       -0.4222343E-05 Eh
   gradient norm :     0.0005758 Eh/α   predicted    -0.2211613E-05 ( -47.62%)
   displ. norm   :     0.0619501 α      lambda       -0.2095973E-05
   maximum displ.:     0.0385704 α      in ANC's #4, #2, #5, ...

........................................................................
.............................. CYCLE   18 ..............................
........................................................................

 iter      E             dE          RMSdq      gap      omega  full diag
   1    -35.3019258 -0.353019E+02  0.215E-02    3.99       0.0  T
   2    -35.3019259 -0.225735E-07  0.127E-02    3.99       1.5  T
   3    -35.3019259 -0.183092E-08  0.593E-04    3.99      33.1  T
   4    -35.3019259 -0.596135E-08  0.255E-04    3.99      77.0  T
     SCC iter.                  ...        0 min,  0.064 sec
     gradient                   ...        0 min,  0.048 sec
 * total energy  :   -34.7419706 Eh     change       -0.2175907E-05 Eh
   gradient norm :     0.0002773 Eh/α   predicted    -0.1050779E-05 ( -51.71%)
   displ. norm   :     0.0635234 α      lambda       -0.1636544E-05
   maximum displ.:     0.0454737 α      in ANC's #2, #1, #4, ...

........................................................................
.............................. CYCLE   19 ..............................
........................................................................

 iter      E             dE          RMSdq      gap      omega  full diag
   1    -35.3020517 -0.353021E+02  0.237E-02    3.99       0.0  T
   2    -35.3020518 -0.179182E-07  0.139E-02    3.99       1.4  T
   3    -35.3020518 -0.245465E-08  0.548E-04    3.99      35.8  T
   4    -35.3020518 -0.600412E-08  0.233E-04    3.99      84.0  T
     SCC iter.                  ...        0 min,  0.062 sec
     gradient                   ...        0 min,  0.037 sec
 * total energy  :   -34.7419723 Eh     change       -0.1714188E-05 Eh
   gradient norm :     0.0002812 Eh/α   predicted    -0.8211885E-06 ( -52.09%)
   displ. norm   :     0.0635234 α      lambda        0.0000000E+00
   maximum displ.:     0.0454737 α      in ANC's #2, #1, #4, ...

........................................................................
.............................. CYCLE   20 ..............................
........................................................................

 iter      E             dE          RMSdq      gap      omega  full diag
   1    -35.3021189 -0.353021E+02  0.237E-02    4.00       0.0  T
   2    -35.3021189 -0.177026E-07  0.139E-02    4.00       1.4  T
   3    -35.3021189 -0.511250E-09  0.588E-04    4.00      33.4  T
   4    -35.3021189 -0.813126E-08  0.238E-04    4.00      82.4  T
     SCC iter.                  ...        0 min,  0.052 sec
     gradient                   ...        0 min,  0.037 sec
 * total energy  :   -34.7419725 Eh     change       -0.2492822E-06 Eh
   gradient norm :     0.0005208 Eh/α   predicted     0.4309619E-08 (-101.73%)
   displ. norm   :     0.0192545 α      lambda       -0.8594005E-06
   maximum displ.:     0.0156155 α      in ANC's #4, #1, #3, ...

   *** GEOMETRY OPTIMIZATION CONVERGED AFTER 20 ITERATIONS ***

------------------------------------------------------------------------
 total energy gain   :        -0.0030660 Eh       -1.9239 kcal/mol
 total RMSD          :         0.3428560 a0        0.1814 Å
 total power (kW/mol):        -0.4024837 (step)   -2.5158 (real)
------------------------------------------------------------------------

 ANCopt (total)                0 d,  0 h,  0 min,  3.200 sec
 optimizer setup                ...        0 min,  0.001 sec (  0.025%)
 model hessian                  ...        0 min,  0.009 sec (  0.279%)
 ANC generation                 ...        0 min,  0.001 sec (  0.034%)
 coordinate transformation      ...        0 min,  0.000 sec (  0.007%)
 single point calculation       ...        0 min,  3.098 sec ( 96.810%)
 optimization log               ...        0 min,  0.002 sec (  0.067%)
 hessian update                 ...        0 min,  0.084 sec (  2.620%)
 rational function              ...        0 min,  0.002 sec (  0.062%)

================
 final structure:
================
26
 xtb: 6.7.1 (edcfbbe)
C            3.50971084190573        1.42614659578166        0.29039503468170
C            2.87570183055428        0.26687939439498       -0.44131793234127
O            3.34246690925546       -0.19768873622944       -1.44904076579676
C            1.60440851288189       -0.25063827814525        0.19644283515902
C            0.95157162420417       -1.35900784859662       -0.62327314764819
C           -0.35384721093903       -1.85101292235132        0.01211892940865
C           -1.38408662237697       -0.75838860794568        0.05982333210075
C           -2.04594750084496       -0.37099229536705       -1.09937917051040
C           -2.97045841753031        0.65713998777995       -1.07563186985642
C           -3.24742838172457        1.31557035709928        0.11099205253268
C           -2.59639198289980        0.93676418794331        1.27190404877843
C           -1.67083453222878       -0.09210686416622        1.24436036425204
H            4.45980034512983        1.68400692206900       -0.16950512890610
H            2.84556563600511        2.28680374657640        0.24529690382690
H            3.66463669030498        1.17438113515051        1.33656830123169
H            0.91177897467972        0.58581167901247        0.31868175563700
H            1.85073232492634       -0.61551801938236        1.19714802220952
H            0.75179510465490       -0.98244383331796       -1.62774337778378
H            1.65016321075641       -2.19205759985540       -0.71771981825868
H           -0.73613164730575       -2.68637341348553       -0.57867224109900
H           -0.15073969285326       -2.21449380128184        1.02176856418600
H           -1.83645113930929       -0.88458141807209       -2.02735051794709
H           -3.47802224230099        0.94540294915533       -1.98478349694128
H           -3.96995946153193        2.11809549627898        0.13094152665542
H           -2.80983457128219        1.44333065261789        2.20216893524478
H           -1.16819860212938       -0.38502946566246        2.15580686118337

 Bond Distances (Angstroems)
 ---------------------------
C1-C2=1.5104         C1-H13=1.0866        C1-H14=1.0881        C1-H15=1.0871        C2-C1=1.5104         C2-O3=1.2038         
C2-C4=1.5135         O3-C2=1.2038         C4-C2=1.5135         C4-C5=1.5253         C4-H16=1.0929        C4-H17=1.0933        
C5-C4=1.5253         C5-C6=1.5329         C5-H18=1.0912        C5-H19=1.0913        C6-C5=1.5329         C6-C7=1.5025         
C6-H20=1.0922        C6-H21=1.0921        C7-C6=1.5025         C7-C8=1.3899         C7-C12=1.3890        C8-C7=1.3899         
C8-C9=1.3829         C8-H22=1.0811        C9-C8=1.3829         C9-C10=1.3850        C9-H23=1.0804        C10-C9=1.3850        
C10-C11=1.3839       C10-H24=1.0800       C11-C10=1.3839       C11-C12=1.3842       C11-H25=1.0805       C12-C7=1.3890        
C12-C11=1.3842       C12-H26=1.0813       H13-C1=1.0866        H14-C1=1.0881        H15-C1=1.0871        H16-C4=1.0929        
H17-C4=1.0933        H18-C5=1.0912        H19-C5=1.0913        H20-C6=1.0922        H21-C6=1.0921        H22-C8=1.0811        
H23-C9=1.0804        H24-C10=1.0800       H25-C11=1.0805       H26-C12=1.0813       
 C  H  Rav=1.0870 sigma=0.0051  Rmin=1.0800  Rmax=1.0933    14
 C  C  Rav=1.4454 sigma=0.0657  Rmin=1.3829  Rmax=1.5329    11
 O  C  Rav=1.2038 sigma=0.0000  Rmin=1.2038  Rmax=1.2038     1

 selected bond angles (degree)
 --------------------
H13-C1-C2=110.13               H14-C1-C2=109.32               H14-C1-H13=109.18              H15-C1-C2=110.38               
H15-C1-H13=109.73              H15-C1-H14=108.06              O3-C2-C1=122.61                C4-C2-C1=114.26                
C4-C2-O3=123.12                C5-C4-C2=112.43                H16-C4-C2=108.53               H16-C4-C5=110.18               
H17-C4-C2=108.09               H17-C4-C5=110.23               H17-C4-H16=107.21              C6-C5-C4=112.02                
H18-C5-C4=108.80               H18-C5-C6=109.66               H19-C5-C4=109.10               H19-C5-C6=109.63               
H19-C5-H18=107.52              C7-C6-C5=111.33                H20-C6-C5=108.62               H20-C6-C7=109.47               
H21-C6-C5=109.37               H21-C6-C7=109.89               H21-C6-H20=108.09              C8-C7-C6=120.18                
C12-C7-C6=121.16               C12-C7-C8=118.64               C9-C8-C7=120.75                H22-C8-C7=119.42               
H22-C8-C9=119.83               C10-C9-C8=120.12               H23-C9-C8=119.87               H23-C9-C10=120.01              
C11-C10-C9=119.64              H24-C10-C9=120.19              H24-C10-C11=120.17             

 selected dihedral angles (degree)
 ---------------------------------
O3-C2-C1-H13=354.50           O3-C2-C1-H14=114.44           O3-C2-C1-H15=233.18           C4-C2-C1-H13=174.84           
C4-C2-C1-H14=294.79           C4-C2-C1-H15= 53.52           C5-C4-C2-C1=176.30            C5-C4-C2-O3=356.64            
H16-C4-C2-C1= 54.16           H16-C4-C2-O3=234.50           H17-C4-C2-C1=298.20           H17-C4-C2-O3=118.54           
C6-C5-C4-C2=181.48            C6-C5-C4-H16=302.68           C6-C5-C4-H17= 60.80           H18-C5-C4-C2=302.88           
H18-C5-C4-H16= 64.08          H18-C5-C4-H17=182.21          H19-C5-C4-C2= 59.91           H19-C5-C4-H16=181.10          
H19-C5-C4-H17=299.23          C7-C6-C5-C4= 63.27            C7-C6-C5-H18=302.37           C7-C6-C5-H19=184.54           
H20-C6-C5-C4=183.88           H20-C6-C5-H18= 62.98          H20-C6-C5-H19=305.15          H21-C6-C5-C4=301.65           
H21-C6-C5-H18=180.74          H21-C6-C5-H19= 62.92          C8-C7-C6-C5= 74.70            C8-C7-C6-H20=314.59           
C8-C7-C6-H21=196.02           C12-C7-C6-C5=256.42           C12-C7-C6-H20=136.31          C12-C7-C6-H21= 17.74          
C9-C8-C7-C6=181.72            C9-C8-C7-C12=  0.05           H22-C8-C7-C6=  2.01           H22-C8-C7-C12=180.33          
C10-C9-C8-C7=  0.02           C10-C9-C8-H22=179.74          H23-C9-C8-C7=180.11           H23-C9-C8-H22=359.83          
C11-C10-C9-C8=359.85          C11-C10-C9-H23=179.76         H24-C10-C9-C8=180.06          H24-C10-C9-H23=359.97         
           -------------------------------------------------
          |                Final Singlepoint                |
           -------------------------------------------------

          ...................................................
          :                      SETUP                      :
          :.................................................:
          :  # basis functions                  62          :
          :  # atomic orbitals                  62          :
          :  # shells                           38          :
          :  # electrons                        64          :
          :  max. iterations                   250          :
          :  Hamiltonian                  GFN2-xTB          :
          :  restarted?                      false          :
          :  GBSA solvation                  false          :
          :  PC potential                    false          :
          :  electronic temp.          300.0000000     K    :
          :  accuracy                    1.0000000          :
          :  -> integral cutoff          0.2500000E+02      :
          :  -> integral neglect         0.1000000E-07      :
          :  -> SCF convergence          0.1000000E-05 Eh   :
          :  -> wf. convergence          0.1000000E-03 e    :
          :  Broyden damping             0.4000000          :
          :  net charge                          0          :
          :  unpaired electrons                  0          :
          ...................................................

 iter      E             dE          RMSdq      gap      omega  full diag
   1    -35.3021189 -0.353021E+02  0.882E-05    4.00       0.0  T
   2    -35.3021189 -0.566160E-10  0.533E-05    4.00     368.1  T
   3    -35.3021189 -0.310010E-10  0.313E-05    4.00     626.2  T

   *** convergence criteria satisfied after 3 iterations ***

         #    Occupation            Energy/Eh            Energy/eV
      -------------------------------------------------------------
         1        2.0000           -0.7092035             -19.2984
       ...           ...                  ...                  ...
        26        2.0000           -0.4469274             -12.1615
        27        2.0000           -0.4381606             -11.9230
        28        2.0000           -0.4202550             -11.4357
        29        2.0000           -0.4195224             -11.4158
        30        2.0000           -0.4036421             -10.9837
        31        2.0000           -0.3977859             -10.8243
        32        2.0000           -0.3931973             -10.6994 (HOMO)
        33                         -0.2463747              -6.7042 (LUMO)
        34                         -0.2221642              -6.0454
        35                         -0.2216055              -6.0302
        36                         -0.0934410              -2.5427
        37                          0.0535831               1.4581
       ...                                ...                  ...
        62                          0.6643061              18.0767
      -------------------------------------------------------------
                  HL-Gap            0.1468226 Eh            3.9952 eV
             Fermi-level           -0.3197860 Eh           -8.7018 eV

 SCC (total)                   0 d,  0 h,  0 min,  0.115 sec
 SCC setup                      ...        0 min,  0.002 sec (  1.753%)
 Dispersion                     ...        0 min,  0.008 sec (  6.623%)
 classical contributions        ...        0 min,  0.004 sec (  3.443%)
 integral evaluation            ...        0 min,  0.013 sec ( 11.014%)
 iterations                     ...        0 min,  0.039 sec ( 33.564%)
 molecular gradient             ...        0 min,  0.050 sec ( 43.464%)
 printout                       ...        0 min,  0.000 sec (  0.115%)

         :::::::::::::::::::::::::::::::::::::::::::::::::::::
         ::                     SUMMARY                     ::
         :::::::::::::::::::::::::::::::::::::::::::::::::::::
         :: total energy             -34.741972533897 Eh    ::
         :: gradient norm              0.000521117922 Eh/a0 ::
         :: HOMO-LUMO gap              3.995245188802 eV    ::
         ::.................................................::
         :: SCC energy               -35.301914531092 Eh    ::
         :: -> isotropic ES            0.027916752146 Eh    ::
         :: -> anisotropic ES          0.004959596002 Eh    ::
         :: -> anisotropic XC          0.019133866115 Eh    ::
         :: -> dispersion             -0.021014978116 Eh    ::
         :: repulsion energy           0.559941997195 Eh    ::
         :: add. restraining           0.000000000000 Eh    ::
         :: total charge              -0.000000000000 e     ::
         :::::::::::::::::::::::::::::::::::::::::::::::::::::

           -------------------------------------------------
          |                Property Printout                |
           -------------------------------------------------

    * Orbital Energies and Occupations

         #    Occupation            Energy/Eh            Energy/eV
      -------------------------------------------------------------
         1        2.0000           -0.7092035             -19.2984
       ...           ...                  ...                  ...
        20        2.0000           -0.4797257             -13.0540
        21        2.0000           -0.4783191             -13.0157
        22        2.0000           -0.4762975             -12.9607
        23        2.0000           -0.4729814             -12.8705
        24        2.0000           -0.4694888             -12.7754
        25        2.0000           -0.4586266             -12.4799
        26        2.0000           -0.4469274             -12.1615
        27        2.0000           -0.4381606             -11.9230
        28        2.0000           -0.4202550             -11.4357
        29        2.0000           -0.4195224             -11.4158
        30        2.0000           -0.4036421             -10.9837
        31        2.0000           -0.3977859             -10.8243
        32        2.0000           -0.3931973             -10.6994 (HOMO)
        33                         -0.2463747              -6.7042 (LUMO)
        34                         -0.2221642              -6.0454
        35                         -0.2216055              -6.0302
        36                         -0.0934410              -2.5427
        37                          0.0535831               1.4581
        38                          0.0948403               2.5807
        39                          0.1157995               3.1511
        40                          0.1250592               3.4030
        41                          0.1311211               3.5680
        42                          0.1435953               3.9074
        43                          0.1516225               4.1259
       ...                                ...                  ...
        62                          0.6643061              18.0767
      -------------------------------------------------------------
                  HL-Gap            0.1468226 Eh            3.9952 eV
             Fermi-level           -0.3197860 Eh           -8.7018 eV

     #   Z          covCN         q      C6AA      α(0)
     1   6 C        3.754    -0.141    23.276     6.880
     2   6 C        2.810     0.240    22.985     7.855
     3   8 O        0.857    -0.355    20.806     6.116
     4   6 C        3.804    -0.087    22.165     6.702
     5   6 C        3.804    -0.051    21.487     6.599
     6   6 C        3.808    -0.065    21.743     6.638
     7   6 C        2.970     0.013    27.712     8.635
     8   6 C        2.926    -0.037    28.926     8.820
     9   6 C        2.919    -0.030    28.761     8.794
    10   6 C        2.920    -0.034    28.840     8.807
    11   6 C        2.919    -0.032    28.797     8.800
    12   6 C        2.925    -0.040    28.992     8.830
    13   1 H        0.925     0.067     2.117     2.275
    14   1 H        0.925     0.065     2.145     2.290
    15   1 H        0.925     0.061     2.192     2.315
    16   1 H        0.924     0.058     2.217     2.329
    17   1 H        0.924     0.057     2.237     2.339
    18   1 H        0.924     0.047     2.351     2.398
    19   1 H        0.924     0.047     2.363     2.404
    20   1 H        0.924     0.041     2.429     2.437
    21   1 H        0.924     0.036     2.509     2.477
    22   1 H        0.926     0.031     2.572     2.508
    23   1 H        0.926     0.029     2.601     2.522
    24   1 H        0.926     0.028     2.620     2.531
    25   1 H        0.926     0.027     2.627     2.535
    26   1 H        0.925     0.026     2.644     2.543

 Mol. C6AA /au·bohr⁶  :       6698.718162
 Mol. C8AA /au·bohr⁸  :     156027.351326
 Mol. α(0) /au        :        127.379017


Wiberg/Mayer (AO) data.
largest (>0.10) Wiberg bond orders for each atom

 ---------------------------------------------------------------------------
     #   Z sym  total        # sym  WBO       # sym  WBO       # sym  WBO
 ---------------------------------------------------------------------------
     1   6 C    3.994 --     2 C    0.999    13 H    0.983    15 H    0.968
                            14 H    0.961
     2   6 C    3.918 --     3 O    1.872     1 C    0.999     4 C    0.989
     3   8 O    2.077 --     2 C    1.872
     4   6 C    3.997 --     5 C    1.009     2 C    0.989    16 H    0.951
                            17 H    0.951
     5   6 C    3.994 --     4 C    1.009     6 C    0.990    18 H    0.976
                            19 H    0.975
     6   6 C    3.997 --     7 C    1.013     5 C    0.990    21 H    0.975
                            20 H    0.969
     7   6 C    3.989 --    12 C    1.414     8 C    1.408     6 C    1.013
                            10 C    0.110
     8   6 C    3.992 --     9 C    1.450     7 C    1.408    22 H    0.969
                            11 C    0.112
     9   6 C    3.993 --     8 C    1.450    10 C    1.435    23 H    0.971
                            12 C    0.110
    10   6 C    3.992 --    11 C    1.441     9 C    1.435    24 H    0.972
                             7 C    0.110
    11   6 C    3.993 --    12 C    1.442    10 C    1.441    25 H    0.971
                             8 C    0.112
    12   6 C    3.992 --    11 C    1.442     7 C    1.414    26 H    0.969
                             9 C    0.110
    13   1 H    0.995 --     1 C    0.983
    14   1 H    0.996 --     1 C    0.961
    15   1 H    0.996 --     1 C    0.968
    16   1 H    0.997 --     4 C    0.951
    17   1 H    0.997 --     4 C    0.951
    18   1 H    0.998 --     5 C    0.976
    19   1 H    0.997 --     5 C    0.975
    20   1 H    0.998 --     6 C    0.969
    21   1 H    0.998 --     6 C    0.975
    22   1 H    0.999 --     8 C    0.969
    23   1 H    0.999 --     9 C    0.971
    24   1 H    0.999 --    10 C    0.972
    25   1 H    0.999 --    11 C    0.971
    26   1 H    0.999 --    12 C    0.969
 ---------------------------------------------------------------------------

Topologies differ in total number of bonds
Writing topology from bond orders to xtbtopo.mol

molecular dipole:
                 x           y           z       tot (Debye)
 q only:       -0.345       0.262       0.821
   full:       -0.430       0.376       1.016       2.962
molecular quadrupole (traceless):
                xx          xy          yy          xz          yz          zz
 q only:       -4.619       3.750       4.879       9.071       0.159      -0.260
  q+dip:       -6.791       1.316       4.877      12.082       0.198       1.914
   full:       -5.840       3.034       5.470      11.802      -0.552       0.370

           -------------------------------------------------
          |                Geometry Summary                 |
           -------------------------------------------------

      molecular mass/u    :      162.2286703
   center of mass at/Å    :       -0.0524571      -0.0236701      -0.1375381
  moments of inertia/u·Å² :        0.2936151E+03   0.1097886E+04   0.1174918E+04
rotational constants/cm⁻¹ :        0.5741406E-01   0.1535462E-01   0.1434792E-01

 * 23 selected distances

     #   Z          #   Z                                           value/Å
     2   6 C        3   8 O                                       1.2038267
     4   6 C        5   6 C                                       1.5253242
     5   6 C        6   6 C                                       1.5329419 (max)
     7   6 C        8   6 C                                       1.3899232
     8   6 C        9   6 C                                       1.3828741
     9   6 C       10   6 C                                       1.3850342
    10   6 C       11   6 C                                       1.3838568
     7   6 C       12   6 C                                       1.3889867
    11   6 C       12   6 C                                       1.3841934
     1   6 C       13   1 H                                       1.0865866
     1   6 C       14   1 H                                       1.0880504
     1   6 C       15   1 H                                       1.0871369
     4   6 C       16   1 H                                       1.0928526
     4   6 C       17   1 H                                       1.0932629
     5   6 C       18   1 H                                       1.0911791
     5   6 C       19   1 H                                       1.0912940
     6   6 C       20   1 H                                       1.0922468
     6   6 C       21   1 H                                       1.0921372
     8   6 C       22   1 H                                       1.0811076
     9   6 C       23   1 H                                       1.0804043
    10   6 C       24   1 H                                       1.0800444 (min)
    11   6 C       25   1 H                                       1.0805370
    12   6 C       26   1 H                                       1.0812869

 * 3 distinct bonds (by element types)

   Z      Z             #   av. dist./Å        max./Å        min./Å
   1 H    6 C          14     1.0870090     1.0932629     1.0800444
   6 C    6 C           8     1.4216418     1.5329419     1.3828741
   6 C    8 O           1     1.2038267     1.2038267     1.2038267


optimized geometry written to: xtbopt.xyz


           -------------------------------------------------
          | TOTAL ENERGY              -34.741972533897 Eh   |
          | GRADIENT NORM               0.000521117922 Eh/α |
          | HOMO-LUMO GAP               3.995245188802 eV   |
           -------------------------------------------------

------------------------------------------------------------------------
 * finished run on 2026/07/08 at 09:55:25.245     
------------------------------------------------------------------------
 total:
 * wall-time:     0 d,  0 h,  0 min,  3.687 sec
 *  cpu-time:     0 d,  0 h,  0 min, 58.811 sec
 * ratio c/w:    15.949 speedup
 SCF:
 * wall-time:     0 d,  0 h,  0 min,  0.297 sec
 *  cpu-time:     0 d,  0 h,  0 min,  4.748 sec
 * ratio c/w:    16.001 speedup
 ANC optimizer:
 * wall-time:     0 d,  0 h,  0 min,  3.321 sec
 *  cpu-time:     0 d,  0 h,  0 min, 53.005 sec
 * ratio c/w:    15.962 speedup

