28
 energy: -37.721525067508 gnorm: 0.000131590074 xtb: 6.7.1 (edcfbbe)
C            5.35537731512563        0.26805776919596        0.03305226231753
C            3.95528150979110        0.75756029826099        0.08998886845585
C            2.87360537932059        0.01125569778114       -0.11407938295910
C            1.52092582451926        0.58749789763664       -0.03474491122410
O            1.26962677329280        1.74643204984702        0.19839016376208
O            0.59189138701955       -0.34978755221013       -0.26568454884147
C           -0.78044419886966        0.05895798573365       -0.22447620899737
C           -1.57790403733036       -0.88893224008679       -1.11345444247630
C           -3.05825226233218       -0.52181571644075       -1.07817849029744
C           -3.58602519263065       -0.55998343671907        0.35295129687226
C           -2.78361976849506        0.38667209952987        1.24064529468850
C           -1.30259972949767        0.02358572909719        1.21148580110990
H            5.84508659365275        0.43432777077764        0.99224240791922
H            5.39501045460033       -0.79096178890729       -0.20864463353742
H            5.91377264971314        0.82757897704808       -0.71683010900196
H            3.81651119536240        1.80734903285308        0.31683931079271
H            2.92483038719355       -1.04214202989392       -0.34429039524759
H           -0.84108044087027        1.08708732885534       -0.60588469744536
H           -1.19490510109629       -0.83945305368531       -2.13422763415372
H           -1.43575357030186       -1.90819772520453       -0.74915057424166
H           -3.19135133773584        0.48253385559667       -1.48644960930097
H           -3.62198268015761       -1.21602426461234       -1.70408320625575
H           -3.50582604057982       -1.57756156360552        0.74175989237539
H           -4.64049928132162       -0.27776475682158        0.36701467345277
H           -3.15104853161362        0.33924847331152        2.26732851153077
H           -2.90955896099249        1.41192590952550        0.88609972365027
H           -0.72693621758772        0.72417729116327        1.81917255426532
H           -1.15413211818017       -0.98162403802509        1.61319662001834
