      -----------------------------------------------------------      
     |                   =====================                   |     
     |                           x T B                           |     
     |                   =====================                   |     
     |                         S. Grimme                         |     
     |          Mulliken Center for Theoretical Chemistry        |     
     |                    University of Bonn                     |     
      -----------------------------------------------------------      

   * xtb version 6.7.1 (edcfbbe) compiled by 'conda@5dfe00f5fb80' on 2026-06-10

   xtb is free software: you can redistribute it and/or modify it under
   the terms of the GNU Lesser General Public License as published by
   the Free Software Foundation, either version 3 of the License, or
   (at your option) any later version.
   
   xtb is distributed in the hope that it will be useful,
   but WITHOUT ANY WARRANTY; without even the implied warranty of
   MERCHANTABILITY or FITNESS FOR A PARTICULAR PURPOSE.  See the
   GNU Lesser General Public License for more details.
   
   Cite this work as:
   * C. Bannwarth, E. Caldeweyher, S. Ehlert, A. Hansen, P. Pracht,
     J. Seibert, S. Spicher, S. Grimme, WIREs Comput. Mol. Sci., 2020, 11,
     e01493. DOI: 10.1002/wcms.1493
   
   for GFN2-xTB:
   * C. Bannwarth, S. Ehlert and S. Grimme., J. Chem. Theory Comput., 2019,
     15, 1652-1671. DOI: 10.1021/acs.jctc.8b01176
   for GFN1-xTB:
   * S. Grimme, C. Bannwarth, P. Shushkov, J. Chem. Theory Comput., 2017,
     13, 1989-2009. DOI: 10.1021/acs.jctc.7b00118
   for GFN0-xTB:
   * P. Pracht, E. Caldeweyher, S. Ehlert, S. Grimme, ChemRxiv, 2019, preprint.
     DOI: 10.26434/chemrxiv.8326202.v1
   for GFN-FF:
   * S. Spicher and S. Grimme, Angew. Chem. Int. Ed., 2020, 59, 15665-15673.
     DOI: 10.1002/anie.202004239
   
   for ALPB and GBSA implicit solvation:
   * S. Ehlert, M. Stahn, S. Spicher, S. Grimme, J. Chem. Theory Comput.,
     2021, 17, 4250-4261. DOI: 10.1021/acs.jctc.1c00471
   
   for ddCOSMO and CPCM-X implicit solvation:
   * M. Stahn, S. Ehlert, S. Grimme, J. Phys. Chem. A,
     2023, XX, XXXX-XXXX. DOI: 10.1021/acs.jpca.3c04382
   
   for DFT-D4:
   * E. Caldeweyher, C. Bannwarth and S. Grimme, J. Chem. Phys., 2017,
     147, 034112. DOI: 10.1063/1.4993215
   * E. Caldeweyher, S. Ehlert, A. Hansen, H. Neugebauer, S. Spicher,
     C. Bannwarth and S. Grimme, J. Chem. Phys., 2019, 150, 154122.
     DOI: 10.1063/1.5090222
   * E. Caldeweyher, J.-M. Mewes, S. Ehlert and S. Grimme, Phys. Chem. Chem. Phys.
     2020, 22, 8499-8512. DOI: 10.1039/D0CP00502A
   
   for sTDA-xTB:
   * S. Grimme and C. Bannwarth, J. Chem. Phys., 2016, 145, 054103.
     DOI: 10.1063/1.4959605
   
   in the mass-spec context:
   * V. Asgeirsson, C. Bauer and S. Grimme, Chem. Sci., 2017, 8, 4879.
     DOI: 10.1039/c7sc00601b
   * J. Koopman and S. Grimme, ACS Omega 2019, 4, 12, 15120-15133.
     DOI: 10.1021/acsomega.9b02011
   
   for metadynamics refer to:
   * S. Grimme, J. Chem. Theory Comput., 2019, 155, 2847-2862
     DOI: 10.1021/acs.jctc.9b00143
   
   for SPH calculations refer to:
   * S. Spicher and S. Grimme, J. Chem. Theory Comput., 2021, 17, 1701-1714
     DOI: 10.1021/acs.jctc.0c01306
   
   for ONIOM refer to:
   * C. Plett, A. Katbashev, S. Ehlert, S. Grimme, M. Bursch,
     Phys. Chem. Chem. Phys., 2023, 25, 17860-17868. DOI: 10.1039/D3CP02178E
   
   for DIPRO refer to:
   * J. Kohn, N. Gildemeister, S. Grimme, D. Fazzi, A. Hansen,
     J. Chem. Phys., 2023, just accepted.
   
   for PTB refer to:
   * S. Grimme, M. Mueller, A. Hansen, J. Chem. Phys., 2023, 158, 124111.
     DOI: 10.1063/5.0137838
   
   with help from (in alphabetical order)
   P. Atkinson, C. Bannwarth, F. Bohle, G. Brandenburg, E. Caldeweyher
   M. Checinski, S. Dohm, S. Ehlert, S. Ehrlich, I. Gerasimov, C. Hölzer
   A. Katbashev, J. Kohn, J. Koopman, C. Lavigne, S. Lehtola, F. März, M. Müller,
   F. Musil, H. Neugebauer, J. Pisarek, C. Plett, P. Pracht, F. Pultar,
   J. Seibert, P. Shushkov, S. Spicher, M. Stahn, M. Steiner, T. Strunk,
   J. Stückrath, T. Rose, and J. Unsleber
   
 * started run on 2026/07/09 at 00:55:57.817     
   ID    Z sym.   atoms
    1    7 N      1
    2    6 C      2-7, 9, 10
    3   17 Cl     8
    4    1 H      11-16

           -------------------------------------------------
          |                Calculation Setup                |
           -------------------------------------------------

          program call               : /home/ws/xd2484/miniforge3/envs/p3z_dft/bin/xtb xtb_input.xyz --gfn 2 --opt tight --cycles 500 --chrg 0 --uhf 0
          hostname                   : gpu10
          coordinate file            : xtb_input.xyz
          omp threads                :                    16


           -------------------------------------------------
          |                 G F N 2 - x T B                 |
           -------------------------------------------------

        Reference                      10.1021/acs.jctc.8b01176
      * Hamiltonian:
        H0-scaling (s, p, d)           1.850000    2.230000    2.230000
        zeta-weighting                 0.500000
      * Dispersion:
        s8                             2.700000
        a1                             0.520000
        a2                             5.000000
        s9                             5.000000
      * Repulsion:
        kExp                           1.500000    1.000000
        rExp                           1.000000
      * Coulomb:
        alpha                          2.000000
        third order                    shell-resolved
        anisotropic                    true
        a3                             3.000000
        a5                             4.000000
        cn-shift                       1.200000
        cn-exp                         4.000000
        max-rad                        5.000000


          ...................................................
          :                      SETUP                      :
          :.................................................:
          :  # basis functions                  52          :
          :  # atomic orbitals                  51          :
          :  # shells                           27          :
          :  # electrons                        50          :
          :  max. iterations                   250          :
          :  Hamiltonian                  GFN2-xTB          :
          :  restarted?                      false          :
          :  GBSA solvation                  false          :
          :  PC potential                    false          :
          :  electronic temp.          300.0000000     K    :
          :  accuracy                    1.0000000          :
          :  -> integral cutoff          0.2500000E+02      :
          :  -> integral neglect         0.1000000E-07      :
          :  -> SCF convergence          0.1000000E-05 Eh   :
          :  -> wf. convergence          0.1000000E-03 e    :
          :  Broyden damping             0.4000000          :
          :  net charge                          0          :
          :  unpaired electrons                  0          :
          ...................................................

 iter      E             dE          RMSdq      gap      omega  full diag
   1    -28.0076410 -0.280076E+02  0.541E+00    4.09       0.0  T
   2    -28.0197506 -0.121096E-01  0.339E+00    4.13       1.0  T
   3    -27.9711713  0.485793E-01  0.232E+00    4.00       1.0  T
   4    -28.0351981 -0.640268E-01  0.503E-01    4.07       1.0  T
   5    -28.0374671 -0.226907E-02  0.177E-01    4.08       1.0  T
   6    -28.0376713 -0.204138E-03  0.702E-02    4.10       1.0  T
   7    -28.0376877 -0.164150E-04  0.298E-02    4.10       1.0  T
   8    -28.0376913 -0.364900E-05  0.196E-02    4.10       1.3  T
   9    -28.0376932 -0.187035E-05  0.123E-02    4.10       2.0  T
  10    -28.0376940 -0.782257E-06  0.812E-03    4.10       3.1  T
  11    -28.0376946 -0.575884E-06  0.224E-03    4.10      11.2  T
  12    -28.0376946 -0.975997E-08  0.132E-03    4.10      19.0  T
  13    -28.0376946 -0.175011E-07  0.407E-04    4.10      61.5  T
  14    -28.0376946 -0.699306E-09  0.190E-04    4.10     131.8  T

   *** convergence criteria satisfied after 14 iterations ***

         #    Occupation            Energy/Eh            Energy/eV
      -------------------------------------------------------------
         1        2.0000           -1.0623519             -28.9081
       ...           ...                  ...                  ...
        19        2.0000           -0.4601440             -12.5212
        20        2.0000           -0.4552696             -12.3885
        21        2.0000           -0.4518683             -12.2960
        22        2.0000           -0.4351362             -11.8407
        23        2.0000           -0.4291821             -11.6786
        24        2.0000           -0.4246489             -11.5553
        25        2.0000           -0.4044177             -11.0048 (HOMO)
        26                         -0.2538878              -6.9086 (LUMO)
        27                         -0.2532270              -6.8907
        28                         -0.2204524              -5.9988
        29                         -0.2189343              -5.9575
        30                         -0.1414434              -3.8489
       ...                                ...                  ...
        51                          1.0267728              27.9399
      -------------------------------------------------------------
                  HL-Gap            0.1505299 Eh            4.0961 eV
             Fermi-level           -0.3291528 Eh           -8.9567 eV

 SCC (total)                   0 d,  0 h,  0 min,  0.294 sec
 SCC setup                      ...        0 min,  0.004 sec (  1.295%)
 Dispersion                     ...        0 min,  0.009 sec (  3.019%)
 classical contributions        ...        0 min,  0.004 sec (  1.502%)
 integral evaluation            ...        0 min,  0.014 sec (  4.648%)
 iterations                     ...        0 min,  0.221 sec ( 75.349%)
 molecular gradient             ...        0 min,  0.041 sec ( 14.131%)
 printout                       ...        0 min,  0.000 sec (  0.047%)

         :::::::::::::::::::::::::::::::::::::::::::::::::::::
         ::                     SUMMARY                     ::
         :::::::::::::::::::::::::::::::::::::::::::::::::::::
         :: total energy             -27.613578920488 Eh    ::
         :: gradient norm              0.060412855586 Eh/a0 ::
         :: HOMO-LUMO gap              4.096126478211 eV    ::
         ::.................................................::
         :: SCC energy               -28.037670822585 Eh    ::
         :: -> isotropic ES            0.013417282348 Eh    ::
         :: -> anisotropic ES          0.000243027206 Eh    ::
         :: -> anisotropic XC          0.028250122093 Eh    ::
         :: -> dispersion             -0.014397425167 Eh    ::
         :: repulsion energy           0.424091902097 Eh    ::
         :: add. restraining           0.000000000000 Eh    ::
         :: total charge               0.000000000000 e     ::
         :::::::::::::::::::::::::::::::::::::::::::::::::::::

      ----------------------------------------------------------- 
     |                   =====================                   |
     |                        A N C O P T                        |
     |                   =====================                   |
     |               Approximate Normal Coordinate               |
     |                Rational Function Optimizer                |
      ----------------------------------------------------------- 
      ----------------------------------------------------------- 
     |                   =====================                   |
     |                        A N C O P T                        |
     |                   =====================                   |
     |               Approximate Normal Coordinate               |
     |                Rational Function Optimizer                |
      ----------------------------------------------------------- 

          ...................................................
          :                      SETUP                      :
          :.................................................:
          :   optimization level             tight          :
          :   max. optcycles                   500          :
          :   ANC micro-cycles                  20          :
          :   degrees of freedom                42          :
          :.................................................:
          :   RF solver                   davidson          :
          :   write xtbopt.log                true          :
          :   linear?                        false          :
          :   energy convergence         0.1000000E-05 Eh   :
          :   grad. convergence          0.8000000E-03 Eh/α :
          :   maxmium RF displ.          1.0000000          :
          :   Hlow (freq-cutoff)         0.1000000E-01      :
          :   Hmax (freq-cutoff)         5.0000000          :
          :   S6 in model hess.         20.0000000          :
          ...................................................

generating ANC from exact Hessian ...
Using Lindh-Hessian (1995)
 Shifting diagonal of input Hessian by    8.6561731402429974E-003
 Lowest  eigenvalues of input Hessian
    0.000000    0.000000    0.000000    0.000000    0.000000    0.000000
    0.010000    0.011453    0.017215    0.020131    0.022888    0.023808
    0.026310    0.034202    0.050392    0.065960    0.072750    0.074994
 Highest eigenvalues
    1.514286    1.600499    1.820941    1.907971    1.968887    2.444289


........................................................................
.............................. CYCLE    1 ..............................
........................................................................

 iter      E             dE          RMSdq      gap      omega  full diag
   1    -28.0376946 -0.280377E+02  0.966E-05    4.10       0.0  T
   2    -28.0376946 -0.155929E-10  0.790E-05    4.10     316.6  T
   3    -28.0376946  0.387246E-12  0.615E-05    4.10     406.4  T
     SCC iter.                  ...        0 min,  0.043 sec
     gradient                   ...        0 min,  0.036 sec
 * total energy  :   -27.6135789 Eh     change       -0.1892886E-09 Eh
   gradient norm :     0.0604137 Eh/α   predicted     0.0000000E+00 (-100.00%)
   displ. norm   :     0.1761672 α      lambda       -0.5757370E-02
   maximum displ.:     0.1043502 α      in ANC's #17, #23, #4, ...

........................................................................
.............................. CYCLE    2 ..............................
........................................................................

 iter      E             dE          RMSdq      gap      omega  full diag
   1    -28.0756062 -0.280756E+02  0.226E-01    4.18       0.0  T
   2    -28.0756105 -0.434765E-05  0.153E-01    4.16       1.0  T
   3    -28.0755860  0.245620E-04  0.102E-01    4.17       1.0  T
   4    -28.0756822 -0.962078E-04  0.816E-03    4.17       3.1  T
   5    -28.0756826 -0.402439E-06  0.338E-03    4.17       7.4  T
   6    -28.0756826 -0.211424E-07  0.173E-03    4.17      14.5  T
   7    -28.0756826 -0.164129E-07  0.531E-04    4.17      47.1  T
   8    -28.0756826 -0.231627E-08  0.187E-04    4.17     133.8  T
     SCC iter.                  ...        0 min,  0.083 sec
     gradient                   ...        0 min,  0.030 sec
 * total energy  :   -27.6166630 Eh     change       -0.3084031E-02 Eh
   gradient norm :     0.0191830 Eh/α   predicted    -0.2968027E-02 (  -3.76%)
   displ. norm   :     0.0808539 α      lambda       -0.3836125E-03
   maximum displ.:     0.0511160 α      in ANC's #4, #2, #8, ...

........................................................................
.............................. CYCLE    3 ..............................
........................................................................

 iter      E             dE          RMSdq      gap      omega  full diag
   1    -28.0781550 -0.280782E+02  0.102E-01    4.18       0.0  T
   2    -28.0781582 -0.327153E-05  0.622E-02    4.17       1.0  T
   3    -28.0781390  0.191844E-04  0.380E-02    4.18       1.0  T
   4    -28.0781622 -0.231683E-04  0.532E-03    4.17       4.7  T
   5    -28.0781624 -0.155638E-06  0.275E-03    4.17       9.1  T
   6    -28.0781624 -0.637410E-07  0.125E-03    4.17      20.1  T
   7    -28.0781624 -0.446828E-08  0.650E-04    4.17      38.5  T
   8    -28.0781624 -0.149172E-08  0.499E-04    4.17      50.1  T
     SCC iter.                  ...        0 min,  0.107 sec
     gradient                   ...        0 min,  0.046 sec
 * total energy  :   -27.6168776 Eh     change       -0.2146292E-03 Eh
   gradient norm :     0.0029638 Eh/α   predicted    -0.1930618E-03 ( -10.05%)
   displ. norm   :     0.0613869 α      lambda       -0.5634212E-04
   maximum displ.:     0.0472120 α      in ANC's #2, #4, #8, ...

........................................................................
.............................. CYCLE    4 ..............................
........................................................................

 iter      E             dE          RMSdq      gap      omega  full diag
   1    -28.0783702 -0.280784E+02  0.856E-02    4.17       0.0  T
   2    -28.0783713 -0.111333E-05  0.485E-02    4.17       1.0  T
   3    -28.0783687  0.264839E-05  0.141E-02    4.17       1.8  T
   4    -28.0783720 -0.331069E-05  0.261E-03    4.17       9.6  T
   5    -28.0783720 -0.188982E-07  0.175E-03    4.17      14.3  T
   6    -28.0783720 -0.210577E-07  0.625E-04    4.17      40.0  T
   7    -28.0783720 -0.122785E-08  0.448E-04    4.17      55.8  T
     SCC iter.                  ...        0 min,  0.108 sec
     gradient                   ...        0 min,  0.046 sec
 * total energy  :   -27.6169224 Eh     change       -0.4478143E-04 Eh
   gradient norm :     0.0032869 Eh/α   predicted    -0.2827749E-04 ( -36.85%)
   displ. norm   :     0.0920063 α      lambda       -0.5979980E-04
   maximum displ.:     0.0745753 α      in ANC's #2, #4, #8, ...

........................................................................
.............................. CYCLE    5 ..............................
........................................................................

 iter      E             dE          RMSdq      gap      omega  full diag
   1    -28.0779930 -0.280780E+02  0.135E-01    4.16       0.0  T
   2    -28.0779957 -0.270932E-05  0.759E-02    4.16       1.0  T
   3    -28.0779946  0.110277E-05  0.121E-02    4.16       2.1  T
   4    -28.0779968 -0.226167E-05  0.336E-03    4.16       7.4  T
   5    -28.0779968 -0.102061E-08  0.217E-03    4.16      11.5  T
   6    -28.0779969 -0.415900E-07  0.776E-04    4.16      32.2  T
   7    -28.0779969 -0.292288E-08  0.513E-04    4.16      48.7  T
     SCC iter.                  ...        0 min,  0.070 sec
     gradient                   ...        0 min,  0.031 sec
 * total energy  :   -27.6169625 Eh     change       -0.4010146E-04 Eh
   gradient norm :     0.0029937 Eh/α   predicted    -0.3015317E-04 ( -24.81%)
   displ. norm   :     0.0491295 α      lambda       -0.1798271E-04
   maximum displ.:     0.0444982 α      in ANC's #2, #4, #8, ...

........................................................................
.............................. CYCLE    6 ..............................
........................................................................

 iter      E             dE          RMSdq      gap      omega  full diag
   1    -28.0780505 -0.280781E+02  0.726E-02    4.16       0.0  T
   2    -28.0780512 -0.771581E-06  0.406E-02    4.16       1.0  T
   3    -28.0780513 -0.510038E-07  0.432E-03    4.16       5.8  T
   4    -28.0780515 -0.249950E-06  0.163E-03    4.16      15.3  T
   5    -28.0780515 -0.513463E-08  0.842E-04    4.16      29.7  T
   6    -28.0780515 -0.545967E-08  0.365E-04    4.16      68.5  T
     SCC iter.                  ...        0 min,  0.082 sec
     gradient                   ...        0 min,  0.040 sec
 * total energy  :   -27.6169761 Eh     change       -0.1362536E-04 Eh
   gradient norm :     0.0018125 Eh/α   predicted    -0.9012533E-05 ( -33.85%)
   displ. norm   :     0.0578115 α      lambda       -0.1195965E-04
   maximum displ.:     0.0551499 α      in ANC's #2, #8, #4, ...

........................................................................
.............................. CYCLE    7 ..............................
........................................................................

 iter      E             dE          RMSdq      gap      omega  full diag
   1    -28.0782330 -0.280782E+02  0.829E-02    4.16       0.0  T
   2    -28.0782340 -0.992683E-06  0.462E-02    4.16       1.0  T
   3    -28.0782343 -0.256490E-06  0.355E-03    4.16       7.0  T
   4    -28.0782344 -0.124000E-06  0.167E-03    4.16      15.0  T
   5    -28.0782344 -0.482674E-08  0.888E-04    4.16      28.2  T
   6    -28.0782344 -0.825617E-08  0.287E-04    4.16      87.0  T
     SCC iter.                  ...        0 min,  0.097 sec
     gradient                   ...        0 min,  0.041 sec
 * total energy  :   -27.6169871 Eh     change       -0.1098080E-04 Eh
   gradient norm :     0.0009119 Eh/α   predicted    -0.5986729E-05 ( -45.48%)
   displ. norm   :     0.0334003 α      lambda       -0.4480691E-05
   maximum displ.:     0.0275316 α      in ANC's #2, #1, #3, ...

........................................................................
.............................. CYCLE    8 ..............................
........................................................................

 iter      E             dE          RMSdq      gap      omega  full diag
   1    -28.0782273 -0.280782E+02  0.564E-02    4.16       0.0  T
   2    -28.0782279 -0.550496E-06  0.314E-02    4.16       1.0  T
   3    -28.0782280 -0.123694E-06  0.292E-03    4.16       8.5  T
   4    -28.0782281 -0.101415E-06  0.108E-03    4.16      23.1  T
   5    -28.0782281  0.692847E-09  0.635E-04    4.16      39.4  T
   6    -28.0782281 -0.358955E-08  0.328E-04    4.16      76.2  T
     SCC iter.                  ...        0 min,  0.089 sec
     gradient                   ...        0 min,  0.042 sec
 * total energy  :   -27.6169826 Eh     change        0.4468218E-05 Eh
   gradient norm :     0.0013729 Eh/α   predicted    -0.2242158E-05 (-150.18%)
   displ. norm   :     0.0158783 α      lambda       -0.9678688E-05
   maximum displ.:     0.0109003 α      in ANC's #1, #3, #6, ...

........................................................................
.............................. CYCLE    9 ..............................
........................................................................

 iter      E             dE          RMSdq      gap      omega  full diag
   1    -28.0782975 -0.280783E+02  0.371E-02    4.16       0.0  T
   2    -28.0782978 -0.289611E-06  0.206E-02    4.16       1.2  T
   3    -28.0782979 -0.740938E-07  0.183E-03    4.16      13.6  T
   4    -28.0782979 -0.453313E-07  0.698E-04    4.16      35.8  T
   5    -28.0782979 -0.310315E-09  0.429E-04    4.16      58.2  T
     SCC iter.                  ...        0 min,  0.075 sec
     gradient                   ...        0 min,  0.039 sec
 * total energy  :   -27.6169895 Eh     change       -0.6861739E-05 Eh
   gradient norm :     0.0004555 Eh/α   predicted    -0.4842000E-05 ( -29.43%)
   displ. norm   :     0.0043584 α      lambda       -0.3074950E-06
   maximum displ.:     0.0035234 α      in ANC's #2, #8, #27, ...

........................................................................
.............................. CYCLE   10 ..............................
........................................................................

 iter      E             dE          RMSdq      gap      omega  full diag
   1    -28.0783608 -0.280784E+02  0.814E-03    4.16       0.0  T
   2    -28.0783608 -0.130535E-07  0.455E-03    4.16       5.5  T
   3    -28.0783608  0.117147E-07  0.100E-03    4.16      25.0  T
   4    -28.0783608 -0.174414E-07  0.296E-04    4.16      84.5  T
   5    -28.0783608 -0.398270E-09  0.203E-04    4.16     123.1  T
     SCC iter.                  ...        0 min,  0.096 sec
     gradient                   ...        0 min,  0.039 sec
 * total energy  :   -27.6169897 Eh     change       -0.2220152E-06 Eh
   gradient norm :     0.0003376 Eh/α   predicted    -0.1538270E-06 ( -30.71%)
   displ. norm   :     0.0024177 α      lambda       -0.7854846E-07
   maximum displ.:     0.0023360 α      in ANC's #2, #4, #27, ...

   *** GEOMETRY OPTIMIZATION CONVERGED AFTER 10 ITERATIONS ***

------------------------------------------------------------------------
 total energy gain   :        -0.0034108 Eh       -2.1403 kcal/mol
 total RMSD          :         0.1098340 a0        0.0581 Å
 total power (kW/mol):        -0.8954961 (step)   -5.6401 (real)
------------------------------------------------------------------------

 ANCopt (total)                0 d,  0 h,  0 min,  1.588 sec
 optimizer setup                ...        0 min,  0.001 sec (  0.043%)
 model hessian                  ...        0 min,  0.002 sec (  0.154%)
 ANC generation                 ...        0 min,  0.000 sec (  0.026%)
 coordinate transformation      ...        0 min,  0.000 sec (  0.005%)
 single point calculation       ...        0 min,  1.541 sec ( 97.037%)
 optimization log               ...        0 min,  0.001 sec (  0.058%)
 hessian update                 ...        0 min,  0.040 sec (  2.509%)
 rational function              ...        0 min,  0.001 sec (  0.089%)

================
 final structure:
================
16
 xtb: 6.7.1 (edcfbbe)
N            3.28686770236878        0.44548075033040       -1.55665228781220
C            2.71613132516750        0.25256752674948       -0.58612538268579
C            1.97172331462252        0.00967662401235        0.62761871087155
C            0.49674186367015       -0.02222703254091        0.30766247780733
C           -0.11823510965919       -1.21392610228598       -0.05286033669149
C           -1.46440034991699       -1.24604174914363       -0.36761706783208
C           -2.20028368729731       -0.07259047749362       -0.32574185546403
Cl          -3.88402035044799       -0.10535077829632       -0.71318099527920
C           -1.60062301537687        1.12679766970381        0.02374373932715
C           -0.25370505217979        1.14581784321691        0.33633676935822
H            2.19985732901247        0.80927998523500        1.33738650250925
H            2.30052354768344       -0.94437319392114        1.04816157072776
H            0.45662135874506       -2.12786260172617       -0.08919858177857
H           -1.94029161961605       -2.17340174439827       -0.64432681585128
H           -2.18188214201935        2.03481611876956        0.04975292430797
H            0.21497488524463        2.08133716178660        0.60504062848546

 Bond Distances (Angstroems)
 ---------------------------
N1-C2=1.1423         C2-N1=1.1423         C2-C3=1.4444         C3-C2=1.4444         C3-C4=1.5096         C3-H11=1.0932        
C3-H12=1.0932        C4-C3=1.5096         C4-C5=1.3886         C4-C10=1.3886        C5-C4=1.3886         C5-C6=1.3828         
C5-H13=1.0803        C6-C5=1.3828         C6-C7=1.3857         C6-H14=1.0784        C7-C6=1.3857         C7-Cl8=1.7280        
C7-C9=1.3857         Cl8-C7=1.7280        C9-C7=1.3857         C9-C10=1.3828        C9-H15=1.0784        C10-C4=1.3886        
C10-C9=1.3828        C10-H16=1.0803       H11-C3=1.0932        H12-C3=1.0932        H13-C5=1.0803        H14-C6=1.0784        
H15-C9=1.0784        H16-C10=1.0803       
 C  H  Rav=1.0840 sigma=0.0066  Rmin=1.0784  Rmax=1.0932     6
 C  C  Rav=1.4086 sigma=0.0428  Rmin=1.3828  Rmax=1.5096     8
 N  C  Rav=1.1423 sigma=0.0000  Rmin=1.1423  Rmax=1.1423     1
 Cl C  Rav=1.7280 sigma=0.0000  Rmin=1.7280  Rmax=1.7280     1

 selected bond angles (degree)
 --------------------
C3-C2-N1=178.95                C4-C3-C2=109.21                H11-C3-C2=108.36               H11-C3-C4=110.91               
H12-C3-C2=108.36               H12-C3-C4=110.91               H12-C3-H11=109.01              C5-C4-C3=120.39                
C10-C4-C3=120.39               C10-C4-C5=119.20               C6-C5-C4=120.67                H13-C5-C4=119.94               
H13-C5-C6=119.39               C7-C6-C5=119.37                H14-C6-C5=120.53               H14-C6-C7=120.11               
Cl8-C7-C6=119.64               C9-C7-C6=120.71                C9-C7-Cl8=119.64               C10-C9-C7=119.37               
H15-C9-C7=120.11               H15-C9-C10=120.53              C9-C10-C4=120.67               H16-C10-C4=119.94              
H16-C10-C9=119.39              

 selected dihedral angles (degree)
 ---------------------------------
C4-C3-C2-N1=  0.27            H11-C3-C2-N1=239.35           H12-C3-C2-N1=121.20           C5-C4-C3-C2= 89.15            
C5-C4-C3-H11=208.51           C5-C4-C3-H12=329.80           C10-C4-C3-C2=270.84           C10-C4-C3-H11= 30.20          
C10-C4-C3-H12=151.49          C6-C5-C4-C3=181.03            C6-C5-C4-C10=359.35           H13-C5-C4-C3=  1.03           
H13-C5-C4-C10=179.36          C7-C6-C5-C4=  0.24            C7-C6-C5-H13=180.24           H14-C6-C5-C4=180.19           
H14-C6-C5-H13=  0.19          Cl8-C7-C6-C5=180.18           Cl8-C7-C6-H14=  0.23          C9-C7-C6-C5=  0.17            
C9-C7-C6-H14=180.22           C10-C9-C7-C6=359.83           C10-C9-C7-Cl8=179.82          H15-C9-C7-C6=179.78           
H15-C9-C7-Cl8=359.77          C9-C10-C4-C3=178.97           C9-C10-C4-C5=  0.65           H16-C10-C4-C3=358.97          
H16-C10-C4-C5=180.64          C4-C10-C9-C7=359.76           C4-C10-C9-H15=179.81          H16-C10-C9-C7=179.76          
H16-C10-C9-H15=359.81         
           -------------------------------------------------
          |                Final Singlepoint                |
           -------------------------------------------------

          ...................................................
          :                      SETUP                      :
          :.................................................:
          :  # basis functions                  52          :
          :  # atomic orbitals                  51          :
          :  # shells                           27          :
          :  # electrons                        50          :
          :  max. iterations                   250          :
          :  Hamiltonian                  GFN2-xTB          :
          :  restarted?                      false          :
          :  GBSA solvation                  false          :
          :  PC potential                    false          :
          :  electronic temp.          300.0000000     K    :
          :  accuracy                    1.0000000          :
          :  -> integral cutoff          0.2500000E+02      :
          :  -> integral neglect         0.1000000E-07      :
          :  -> SCF convergence          0.1000000E-05 Eh   :
          :  -> wf. convergence          0.1000000E-03 e    :
          :  Broyden damping             0.4000000          :
          :  net charge                          0          :
          :  unpaired electrons                  0          :
          ...................................................

 iter      E             dE          RMSdq      gap      omega  full diag
   1    -28.0783608 -0.280784E+02  0.141E-04    4.16       0.0  T
   2    -28.0783608 -0.477591E-10  0.123E-04    4.16     203.1  T
   3    -28.0783608 -0.319638E-10  0.106E-04    4.16     236.1  T

   *** convergence criteria satisfied after 3 iterations ***

         #    Occupation            Energy/Eh            Energy/eV
      -------------------------------------------------------------
         1        2.0000           -1.0615473             -28.8862
       ...           ...                  ...                  ...
        19        2.0000           -0.4598613             -12.5135
        20        2.0000           -0.4558457             -12.4042
        21        2.0000           -0.4520970             -12.3022
        22        2.0000           -0.4330414             -11.7837
        23        2.0000           -0.4318600             -11.7515
        24        2.0000           -0.4242127             -11.5434
        25        2.0000           -0.4049152             -11.0183 (HOMO)
        26                         -0.2521413              -6.8611 (LUMO)
        27                         -0.2504037              -6.8138
        28                         -0.2090021              -5.6872
        29                         -0.2087512              -5.6804
        30                         -0.1428056              -3.8859
       ...                                ...                  ...
        51                          1.1384165              30.9779
      -------------------------------------------------------------
                  HL-Gap            0.1527739 Eh            4.1572 eV
             Fermi-level           -0.3285283 Eh           -8.9397 eV

 SCC (total)                   0 d,  0 h,  0 min,  0.114 sec
 SCC setup                      ...        0 min,  0.004 sec (  3.914%)
 Dispersion                     ...        0 min,  0.009 sec (  7.957%)
 classical contributions        ...        0 min,  0.004 sec (  3.187%)
 integral evaluation            ...        0 min,  0.013 sec ( 11.269%)
 iterations                     ...        0 min,  0.042 sec ( 36.922%)
 molecular gradient             ...        0 min,  0.042 sec ( 36.628%)
 printout                       ...        0 min,  0.000 sec (  0.099%)

         :::::::::::::::::::::::::::::::::::::::::::::::::::::
         ::                     SUMMARY                     ::
         :::::::::::::::::::::::::::::::::::::::::::::::::::::
         :: total energy             -27.616989685369 Eh    ::
         :: gradient norm              0.000337836575 Eh/a0 ::
         :: HOMO-LUMO gap              4.157188639089 eV    ::
         ::.................................................::
         :: SCC energy               -28.078333486491 Eh    ::
         :: -> isotropic ES            0.013978384206 Eh    ::
         :: -> anisotropic ES         -0.000117504932 Eh    ::
         :: -> anisotropic XC          0.027061617693 Eh    ::
         :: -> dispersion             -0.014587610557 Eh    ::
         :: repulsion energy           0.461343801122 Eh    ::
         :: add. restraining           0.000000000000 Eh    ::
         :: total charge               0.000000000000 e     ::
         :::::::::::::::::::::::::::::::::::::::::::::::::::::

           -------------------------------------------------
          |                Property Printout                |
           -------------------------------------------------

    * Orbital Energies and Occupations

         #    Occupation            Energy/Eh            Energy/eV
      -------------------------------------------------------------
         1        2.0000           -1.0615473             -28.8862
       ...           ...                  ...                  ...
        13        2.0000           -0.5144111             -13.9978
        14        2.0000           -0.5117049             -13.9242
        15        2.0000           -0.5093402             -13.8599
        16        2.0000           -0.5028558             -13.6834
        17        2.0000           -0.4829407             -13.1415
        18        2.0000           -0.4706587             -12.8073
        19        2.0000           -0.4598613             -12.5135
        20        2.0000           -0.4558457             -12.4042
        21        2.0000           -0.4520970             -12.3022
        22        2.0000           -0.4330414             -11.7837
        23        2.0000           -0.4318600             -11.7515
        24        2.0000           -0.4242127             -11.5434
        25        2.0000           -0.4049152             -11.0183 (HOMO)
        26                         -0.2521413              -6.8611 (LUMO)
        27                         -0.2504037              -6.8138
        28                         -0.2090021              -5.6872
        29                         -0.2087512              -5.6804
        30                         -0.1428056              -3.8859
        31                         -0.1224446              -3.3319
        32                          0.0093016               0.2531
        33                          0.0144519               0.3933
        34                          0.0145739               0.3966
        35                          0.0276618               0.7527
        36                          0.0744236               2.0252
       ...                                ...                  ...
        51                          1.1384165              30.9779
      -------------------------------------------------------------
                  HL-Gap            0.1527739 Eh            4.1572 eV
             Fermi-level           -0.3285283 Eh           -8.9397 eV

     #   Z          covCN         q      C6AA      α(0)
     1   7 N        0.911    -0.232    26.084     7.387
     2   6 C        1.905     0.119    28.189     8.575
     3   6 C        3.810    -0.058    21.602     6.616
     4   6 C        2.982     0.019    27.585     8.615
     5   6 C        2.926    -0.033    28.834     8.806
     6   6 C        2.954    -0.038    28.938     8.823
     7   6 C        2.889     0.099    25.796     8.327
     8  17 Cl       0.966    -0.174   104.608    15.647
     9   6 C        2.954    -0.038    28.938     8.823
    10   6 C        2.926    -0.033    28.834     8.806
    11   1 H        0.924     0.076     2.022     2.224
    12   1 H        0.924     0.076     2.022     2.224
    13   1 H        0.926     0.048     2.341     2.393
    14   1 H        0.926     0.060     2.193     2.316
    15   1 H        0.926     0.060     2.193     2.316
    16   1 H        0.926     0.048     2.341     2.393

 Mol. C6AA /au·bohr⁶  :       4346.885658
 Mol. C8AA /au·bohr⁸  :     119248.619807
 Mol. α(0) /au        :        104.289772


Wiberg/Mayer (AO) data.
largest (>0.10) Wiberg bond orders for each atom

 ---------------------------------------------------------------------------
     #   Z sym  total        # sym  WBO       # sym  WBO       # sym  WBO
 ---------------------------------------------------------------------------
     1   7 N    3.011 --     2 C    2.851
     2   6 C    3.945 --     1 N    2.851     3 C    1.038
     3   6 C    3.996 --     2 C    1.038     4 C    0.980    12 H    0.941
                            11 H    0.941
     4   6 C    3.987 --     5 C    1.410    10 C    1.410     3 C    0.980
     5   6 C    3.991 --     6 C    1.445     4 C    1.410    13 H    0.968
                             9 C    0.108
     6   6 C    3.989 --     5 C    1.445     7 C    1.402    14 H    0.967
                            10 C    0.108
     7   6 C    3.916 --     9 C    1.402     6 C    1.402     8 Cl   0.977
     8  17 Cl   1.112 --     7 C    0.977
     9   6 C    3.989 --    10 C    1.445     7 C    1.402    15 H    0.967
                             5 C    0.108
    10   6 C    3.991 --     9 C    1.445     4 C    1.410    16 H    0.968
                             6 C    0.108
    11   1 H    0.994 --     3 C    0.941
    12   1 H    0.994 --     3 C    0.941
    13   1 H    0.998 --     5 C    0.968
    14   1 H    0.996 --     6 C    0.967
    15   1 H    0.996 --     9 C    0.967
    16   1 H    0.998 --    10 C    0.968
 ---------------------------------------------------------------------------

Topologies differ in total number of bonds
Writing topology from bond orders to xtbtopo.mol

molecular dipole:
                 x           y           z       tot (Debye)
 q only:        0.309      -0.146       0.995
   full:       -0.121      -0.227       1.334       3.453
molecular quadrupole (traceless):
                xx          xy          yy          xz          yz          zz
 q only:      -11.116      -2.033       8.795       5.271       1.428       2.322
  q+dip:      -11.112      -3.084      11.994      10.431       2.829      -0.882
   full:      -10.878      -3.082      10.755      10.947       2.479       0.123

           -------------------------------------------------
          |                Geometry Summary                 |
           -------------------------------------------------

      molecular mass/u    :      151.5931725
   center of mass at/Å    :       -0.6335397       0.0128149      -0.2982126
  moments of inertia/u·Å² :        0.1445849E+03   0.9562146E+03   0.9902284E+03
rotational constants/cm⁻¹ :        0.1165933E+00   0.1762955E-01   0.1702398E-01

 * 14 selected distances

     #   Z          #   Z                                           value/Å
     1   7 N        2   6 C                                       1.1423127
     4   6 C        5   6 C                                       1.3886398
     5   6 C        6   6 C                                       1.3828465
     6   6 C        7   6 C                                       1.3857366
     7   6 C        8  17 Cl                                      1.7280486 (max)
     7   6 C        9   6 C                                       1.3857364
     4   6 C       10   6 C                                       1.3886403
     9   6 C       10   6 C                                       1.3828465
     3   6 C       11   1 H                                       1.0932434
     3   6 C       12   1 H                                       1.0932416
     5   6 C       13   1 H                                       1.0803058
     6   6 C       14   1 H                                       1.0784422
     9   6 C       15   1 H                                       1.0784416 (min)
    10   6 C       16   1 H                                       1.0803052

 * 4 distinct bonds (by element types)

   Z      Z             #   av. dist./Å        max./Å        min./Å
   1 H    6 C           6     1.0839966     1.0932434     1.0784416
   6 C    6 C           6     1.3857410     1.3886403     1.3828465
   6 C    7 N           1     1.1423127     1.1423127     1.1423127
   6 C   17 Cl          1     1.7280486     1.7280486     1.7280486


optimized geometry written to: xtbopt.xyz


           -------------------------------------------------
          | TOTAL ENERGY              -27.616989685369 Eh   |
          | GRADIENT NORM               0.000337836575 Eh/α |
          | HOMO-LUMO GAP               4.157188639089 eV   |
           -------------------------------------------------

------------------------------------------------------------------------
 * finished run on 2026/07/09 at 00:55:59.875     
------------------------------------------------------------------------
 total:
 * wall-time:     0 d,  0 h,  0 min,  2.057 sec
 *  cpu-time:     0 d,  0 h,  0 min, 32.779 sec
 * ratio c/w:    15.932 speedup
 SCF:
 * wall-time:     0 d,  0 h,  0 min,  0.294 sec
 *  cpu-time:     0 d,  0 h,  0 min,  4.699 sec
 * ratio c/w:    15.995 speedup
 ANC optimizer:
 * wall-time:     0 d,  0 h,  0 min,  1.706 sec
 *  cpu-time:     0 d,  0 h,  0 min, 27.223 sec
 * ratio c/w:    15.956 speedup

