27
DEC_00102 MMFF geometry for GFN2-xTB preoptimization
C   3.706948329777 -1.057277841008 -0.279933759884
C   2.645886437563  0.005217774116 -0.518550460565
C   1.333930281190 -0.344897654178  0.185612779737
C   0.268363955425  0.726370738006 -0.063891878076
C  -1.035127303561  0.503646761272  0.730309181931
C  -1.716552497598 -0.856955335710  0.462415856970
C  -2.116190995210 -1.106546880046 -0.985253934519
C  -1.984579035151  1.689453119691  0.492624160627
O  -3.151475132994  1.553803865995  1.292251210833
H   3.924622358810 -1.161389381443  0.787822168076
H   4.636026883801 -0.786646405474 -0.791278887771
H   3.380561043128 -2.030264390601 -0.660859436836
H   2.474061211016  0.106503435398 -1.596490793185
H   3.017388827389  0.970966037177 -0.156630791713
H   0.984062990100 -1.316968268402 -0.178940046495
H   1.511092767093 -0.443800112724  1.263276254844
H   0.683992301751  1.702728243211  0.218501348087
H   0.052228316024  0.785861701435 -1.137552018435
H  -0.782315923583  0.506277875251  1.800111640307
H  -1.054068531601 -1.667490363689  0.787927985897
H  -2.612294192112 -0.944839393522  1.089492301386
H  -2.830283978036 -0.358541893748 -1.340776878202
H  -1.247685269753 -1.103092094675 -1.649818895462
H  -2.594583180562 -2.087598796698 -1.074024257716
H  -2.285149410447  1.760235957363 -0.557465317632
H  -1.495233778098  2.629205229572  0.770863625768
H  -3.713626474359  2.326038073434  1.110258842028
