27
 energy: -45.956726138565 gnorm: 0.000209725990 xtb: 6.7.1 (edcfbbe)
C            3.86125160486110        0.84873405929922       -0.44051436174754
C            2.87850532674545        0.26539686876519        0.56508446911617
C            1.58360818684368       -0.14381465443312       -0.08280964827176
O            1.14924594137583        0.26443688459176       -1.12360296145278
O            0.95841064246826       -1.07261567072388        0.67767650963459
C           -0.34342998872093       -1.42342450125323        0.38556960008171
C           -0.64115411763826       -2.77330523430883        0.26340161799309
C           -1.93690709439711       -3.17374620276758       -0.00575405118534
C           -2.93721034734613       -2.22938965178674       -0.17398696324310
C           -2.64333717589948       -0.88453144466383       -0.05566202377244
C           -1.34908171934078       -0.46395375759947        0.23587098591089
C           -1.04944055522139        0.98046720932348        0.42393934067898
O           -0.21504019681712        1.42014048551145        1.17789379396487
O           -1.84424015487674        1.74912056850146       -0.32389111480843
C           -1.61606968630246        3.14719275421663       -0.23386687411833
H            4.73848673689388        1.23757761118913        0.06968287765239
H            3.38836038699285        1.65420703894899       -0.99578495849623
H            4.17750620687895        0.08793151912474       -1.15009591140357
H            3.29696558122404       -0.59200341262278        1.09318914011960
H            2.60540744678090        1.01668992587266        1.31183843314634
H            0.15322450901874       -3.49340977976166        0.38307197012701
H           -2.16306029998363       -4.22563377807545       -0.09370681857572
H           -3.94594005445374       -2.54265360529484       -0.39549155652139
H           -3.41504353894596       -0.14064601534202       -0.17687027368408
H           -2.38467091550836        3.62042440887406       -0.83943957924723
H           -0.62314261049305        3.38950232436587       -0.61775248436398
H           -1.68320411413883        3.47730605005017        0.80515194518469
