18
DEC_00052 MMFF geometry for GFN2-xTB preoptimization
C   2.243357775215 -0.444608698337 -0.134442154738
C   1.034405295301  0.288082728313 -0.693355962586
N  -0.036552444343  0.393926085605  0.290830417758
C  -0.097917283912  1.493098215198  1.125173210345
O   0.689966564265  2.429706654967  1.136581674717
C  -1.013639188205 -0.681523942039  0.393940486752
C  -2.175550399049 -0.479079268122 -0.564531917428
H   2.644139766465  0.070973605734  0.744485401808
H   1.982900713903 -1.464181997941  0.167283335699
H   3.034693022905 -0.502846033764 -0.887991878063
H   1.338376991278  1.294563213152 -1.002326899935
H   0.650356593139 -0.224991044406 -1.581429983613
H  -0.958419696905  1.458026653118  1.814057860711
H  -0.514220127192 -1.636764148218  0.200903829881
H  -1.399766229266 -0.711429170147  1.419199058058
H  -2.902286496626 -1.290261720968 -0.458421586629
H  -2.687312833895  0.468444304374 -0.366001281744
H  -1.832532023077 -0.461135436521 -1.603953610993
