      -----------------------------------------------------------      
     |                   =====================                   |     
     |                           x T B                           |     
     |                   =====================                   |     
     |                         S. Grimme                         |     
     |          Mulliken Center for Theoretical Chemistry        |     
     |                    University of Bonn                     |     
      -----------------------------------------------------------      

   * xtb version 6.7.1 (edcfbbe) compiled by 'conda@5dfe00f5fb80' on 2026-06-10

   xtb is free software: you can redistribute it and/or modify it under
   the terms of the GNU Lesser General Public License as published by
   the Free Software Foundation, either version 3 of the License, or
   (at your option) any later version.
   
   xtb is distributed in the hope that it will be useful,
   but WITHOUT ANY WARRANTY; without even the implied warranty of
   MERCHANTABILITY or FITNESS FOR A PARTICULAR PURPOSE.  See the
   GNU Lesser General Public License for more details.
   
   Cite this work as:
   * C. Bannwarth, E. Caldeweyher, S. Ehlert, A. Hansen, P. Pracht,
     J. Seibert, S. Spicher, S. Grimme, WIREs Comput. Mol. Sci., 2020, 11,
     e01493. DOI: 10.1002/wcms.1493
   
   for GFN2-xTB:
   * C. Bannwarth, S. Ehlert and S. Grimme., J. Chem. Theory Comput., 2019,
     15, 1652-1671. DOI: 10.1021/acs.jctc.8b01176
   for GFN1-xTB:
   * S. Grimme, C. Bannwarth, P. Shushkov, J. Chem. Theory Comput., 2017,
     13, 1989-2009. DOI: 10.1021/acs.jctc.7b00118
   for GFN0-xTB:
   * P. Pracht, E. Caldeweyher, S. Ehlert, S. Grimme, ChemRxiv, 2019, preprint.
     DOI: 10.26434/chemrxiv.8326202.v1
   for GFN-FF:
   * S. Spicher and S. Grimme, Angew. Chem. Int. Ed., 2020, 59, 15665-15673.
     DOI: 10.1002/anie.202004239
   
   for ALPB and GBSA implicit solvation:
   * S. Ehlert, M. Stahn, S. Spicher, S. Grimme, J. Chem. Theory Comput.,
     2021, 17, 4250-4261. DOI: 10.1021/acs.jctc.1c00471
   
   for ddCOSMO and CPCM-X implicit solvation:
   * M. Stahn, S. Ehlert, S. Grimme, J. Phys. Chem. A,
     2023, XX, XXXX-XXXX. DOI: 10.1021/acs.jpca.3c04382
   
   for DFT-D4:
   * E. Caldeweyher, C. Bannwarth and S. Grimme, J. Chem. Phys., 2017,
     147, 034112. DOI: 10.1063/1.4993215
   * E. Caldeweyher, S. Ehlert, A. Hansen, H. Neugebauer, S. Spicher,
     C. Bannwarth and S. Grimme, J. Chem. Phys., 2019, 150, 154122.
     DOI: 10.1063/1.5090222
   * E. Caldeweyher, J.-M. Mewes, S. Ehlert and S. Grimme, Phys. Chem. Chem. Phys.
     2020, 22, 8499-8512. DOI: 10.1039/D0CP00502A
   
   for sTDA-xTB:
   * S. Grimme and C. Bannwarth, J. Chem. Phys., 2016, 145, 054103.
     DOI: 10.1063/1.4959605
   
   in the mass-spec context:
   * V. Asgeirsson, C. Bauer and S. Grimme, Chem. Sci., 2017, 8, 4879.
     DOI: 10.1039/c7sc00601b
   * J. Koopman and S. Grimme, ACS Omega 2019, 4, 12, 15120-15133.
     DOI: 10.1021/acsomega.9b02011
   
   for metadynamics refer to:
   * S. Grimme, J. Chem. Theory Comput., 2019, 155, 2847-2862
     DOI: 10.1021/acs.jctc.9b00143
   
   for SPH calculations refer to:
   * S. Spicher and S. Grimme, J. Chem. Theory Comput., 2021, 17, 1701-1714
     DOI: 10.1021/acs.jctc.0c01306
   
   for ONIOM refer to:
   * C. Plett, A. Katbashev, S. Ehlert, S. Grimme, M. Bursch,
     Phys. Chem. Chem. Phys., 2023, 25, 17860-17868. DOI: 10.1039/D3CP02178E
   
   for DIPRO refer to:
   * J. Kohn, N. Gildemeister, S. Grimme, D. Fazzi, A. Hansen,
     J. Chem. Phys., 2023, just accepted.
   
   for PTB refer to:
   * S. Grimme, M. Mueller, A. Hansen, J. Chem. Phys., 2023, 158, 124111.
     DOI: 10.1063/5.0137838
   
   with help from (in alphabetical order)
   P. Atkinson, C. Bannwarth, F. Bohle, G. Brandenburg, E. Caldeweyher
   M. Checinski, S. Dohm, S. Ehlert, S. Ehrlich, I. Gerasimov, C. Hölzer
   A. Katbashev, J. Kohn, J. Koopman, C. Lavigne, S. Lehtola, F. März, M. Müller,
   F. Musil, H. Neugebauer, J. Pisarek, C. Plett, P. Pracht, F. Pultar,
   J. Seibert, P. Shushkov, S. Spicher, M. Stahn, M. Steiner, T. Strunk,
   J. Stückrath, T. Rose, and J. Unsleber
   
 * started run on 2026/07/09 at 17:43:28.582     
   ID    Z sym.   atoms
    1    6 C      1-11
    2    8 O      12
    3    1 H      13-32

           -------------------------------------------------
          |                Calculation Setup                |
           -------------------------------------------------

          program call               : /home/ws/xd2484/miniforge3/envs/p3z_dft/bin/xtb xtb_input.xyz --gfn 2 --opt tight --cycles 500 --chrg 0 --uhf 0
          hostname                   : gpu10
          coordinate file            : xtb_input.xyz
          omp threads                :                    16


           -------------------------------------------------
          |                 G F N 2 - x T B                 |
           -------------------------------------------------

        Reference                      10.1021/acs.jctc.8b01176
      * Hamiltonian:
        H0-scaling (s, p, d)           1.850000    2.230000    2.230000
        zeta-weighting                 0.500000
      * Dispersion:
        s8                             2.700000
        a1                             0.520000
        a2                             5.000000
        s9                             5.000000
      * Repulsion:
        kExp                           1.500000    1.000000
        rExp                           1.000000
      * Coulomb:
        alpha                          2.000000
        third order                    shell-resolved
        anisotropic                    true
        a3                             3.000000
        a5                             4.000000
        cn-shift                       1.200000
        cn-exp                         4.000000
        max-rad                        5.000000


          ...................................................
          :                      SETUP                      :
          :.................................................:
          :  # basis functions                  68          :
          :  # atomic orbitals                  68          :
          :  # shells                           44          :
          :  # electrons                        70          :
          :  max. iterations                   250          :
          :  Hamiltonian                  GFN2-xTB          :
          :  restarted?                      false          :
          :  GBSA solvation                  false          :
          :  PC potential                    false          :
          :  electronic temp.          300.0000000     K    :
          :  accuracy                    1.0000000          :
          :  -> integral cutoff          0.2500000E+02      :
          :  -> integral neglect         0.1000000E-07      :
          :  -> SCF convergence          0.1000000E-05 Eh   :
          :  -> wf. convergence          0.1000000E-03 e    :
          :  Broyden damping             0.4000000          :
          :  net charge                          0          :
          :  unpaired electrons                  0          :
          ...................................................

 iter      E             dE          RMSdq      gap      omega  full diag
   1    -38.2574187 -0.382574E+02  0.306E+00    5.18       0.0  T
   2    -38.3206909 -0.632722E-01  0.182E+00    5.05       1.0  T
   3    -38.3142521  0.643884E-02  0.104E+00    5.14       1.0  T
   4    -38.3238537 -0.960160E-02  0.510E-01    5.01       1.0  T
   5    -38.3285020 -0.464833E-02  0.854E-02    5.04       1.0  T
   6    -38.3285565 -0.544809E-04  0.449E-02    5.04       1.0  T
   7    -38.3285596 -0.310999E-05  0.106E-02    5.04       1.7  T
   8    -38.3285602 -0.648115E-06  0.295E-03    5.04       6.0  T
   9    -38.3285603 -0.201969E-07  0.123E-03    5.04      14.4  T
  10    -38.3285603 -0.392349E-08  0.285E-04    5.04      62.1  T
  11    -38.3285603 -0.229882E-09  0.132E-04    5.04     134.1  T

   *** convergence criteria satisfied after 11 iterations ***

         #    Occupation            Energy/Eh            Energy/eV
      -------------------------------------------------------------
         1        2.0000           -0.6804376             -18.5156
       ...           ...                  ...                  ...
        29        2.0000           -0.4323095             -11.7637
        30        2.0000           -0.4241378             -11.5414
        31        2.0000           -0.4215865             -11.4720
        32        2.0000           -0.4159372             -11.3182
        33        2.0000           -0.4088745             -11.1260
        34        2.0000           -0.4015483             -10.9267
        35        2.0000           -0.3780158             -10.2863 (HOMO)
        36                         -0.1929556              -5.2506 (LUMO)
        37                          0.0180437               0.4910
        38                          0.0478511               1.3021
        39                          0.0587985               1.6000
        40                          0.0811600               2.2085
       ...                                ...                  ...
        68                          0.5887990              16.0220
      -------------------------------------------------------------
                  HL-Gap            0.1850602 Eh            5.0357 eV
             Fermi-level           -0.2854857 Eh           -7.7685 eV

 SCC (total)                   0 d,  0 h,  0 min,  0.272 sec
 SCC setup                      ...        0 min,  0.003 sec (  1.059%)
 Dispersion                     ...        0 min,  0.005 sec (  1.734%)
 classical contributions        ...        0 min,  0.003 sec (  0.919%)
 integral evaluation            ...        0 min,  0.006 sec (  2.168%)
 iterations                     ...        0 min,  0.206 sec ( 75.558%)
 molecular gradient             ...        0 min,  0.050 sec ( 18.477%)
 printout                       ...        0 min,  0.000 sec (  0.073%)

         :::::::::::::::::::::::::::::::::::::::::::::::::::::
         ::                     SUMMARY                     ::
         :::::::::::::::::::::::::::::::::::::::::::::::::::::
         :: total energy             -37.819589916058 Eh    ::
         :: gradient norm              0.036293064589 Eh/a0 ::
         :: HOMO-LUMO gap              5.035744679474 eV    ::
         ::.................................................::
         :: SCC energy               -38.328262610230 Eh    ::
         :: -> isotropic ES            0.030793021933 Eh    ::
         :: -> anisotropic ES          0.008862472058 Eh    ::
         :: -> anisotropic XC          0.017996633024 Eh    ::
         :: -> dispersion             -0.025770847515 Eh    ::
         :: repulsion energy           0.508672694172 Eh    ::
         :: add. restraining           0.000000000000 Eh    ::
         :: total charge              -0.000000000000 e     ::
         :::::::::::::::::::::::::::::::::::::::::::::::::::::

      ----------------------------------------------------------- 
     |                   =====================                   |
     |                        A N C O P T                        |
     |                   =====================                   |
     |               Approximate Normal Coordinate               |
     |                Rational Function Optimizer                |
      ----------------------------------------------------------- 
      ----------------------------------------------------------- 
     |                   =====================                   |
     |                        A N C O P T                        |
     |                   =====================                   |
     |               Approximate Normal Coordinate               |
     |                Rational Function Optimizer                |
      ----------------------------------------------------------- 

          ...................................................
          :                      SETUP                      :
          :.................................................:
          :   optimization level             tight          :
          :   max. optcycles                   500          :
          :   ANC micro-cycles                  20          :
          :   degrees of freedom                90          :
          :.................................................:
          :   RF solver                   davidson          :
          :   write xtbopt.log                true          :
          :   linear?                        false          :
          :   energy convergence         0.1000000E-05 Eh   :
          :   grad. convergence          0.8000000E-03 Eh/α :
          :   maxmium RF displ.          1.0000000          :
          :   Hlow (freq-cutoff)         0.1000000E-01      :
          :   Hmax (freq-cutoff)         5.0000000          :
          :   S6 in model hess.         20.0000000          :
          ...................................................

generating ANC from exact Hessian ...
Using Lindh-Hessian (1995)
 Shifting diagonal of input Hessian by    9.2140932719034993E-003
 Lowest  eigenvalues of input Hessian
    0.000000    0.000000    0.000000    0.000000    0.000000    0.000000
    0.010000    0.010512    0.010715    0.012493    0.013691    0.016084
    0.017279    0.017710    0.018031    0.019503    0.020103    0.023560
 Highest eigenvalues
    1.231442    1.271506    1.289758    1.440876    1.468631    1.832323


........................................................................
.............................. CYCLE    1 ..............................
........................................................................

 iter      E             dE          RMSdq      gap      omega  full diag
   1    -38.3285603 -0.383286E+02  0.280E-05    5.04       0.0  T
   2    -38.3285603 -0.211742E-11  0.158E-05    5.04    1121.1  T
   3    -38.3285603 -0.202505E-11  0.124E-05    5.04    1421.2  T
     SCC iter.                  ...        0 min,  0.045 sec
     gradient                   ...        0 min,  0.035 sec
 * total energy  :   -37.8195899 Eh     change       -0.5900347E-10 Eh
   gradient norm :     0.0362938 Eh/α   predicted     0.0000000E+00 (-100.00%)
   displ. norm   :     0.2527997 α      lambda       -0.4202624E-02
   maximum displ.:     0.1047123 α      in ANC's #19, #21, #7, ...

........................................................................
.............................. CYCLE    2 ..............................
........................................................................

 iter      E             dE          RMSdq      gap      omega  full diag
   1    -38.3494479 -0.383494E+02  0.136E-01    5.20       0.0  T
   2    -38.3494598 -0.118865E-04  0.797E-02    5.20       1.0  T
   3    -38.3494373  0.225043E-04  0.329E-02    5.20       1.0  T
   4    -38.3494634 -0.260961E-04  0.609E-03    5.20       2.9  T
   5    -38.3494641 -0.717164E-06  0.234E-03    5.20       7.5  T
   6    -38.3494641 -0.137193E-07  0.705E-04    5.20      25.1  T
   7    -38.3494641 -0.175773E-08  0.239E-04    5.20      73.9  T
     SCC iter.                  ...        0 min,  0.085 sec
     gradient                   ...        0 min,  0.041 sec
 * total energy  :   -37.8222488 Eh     change       -0.2658861E-02 Eh
   gradient norm :     0.0109196 Eh/α   predicted    -0.2235747E-02 ( -15.91%)
   displ. norm   :     0.1822762 α      lambda       -0.7998646E-03
   maximum displ.:     0.0918703 α      in ANC's #7, #3, #21, ...

........................................................................
.............................. CYCLE    3 ..............................
........................................................................

 iter      E             dE          RMSdq      gap      omega  full diag
   1    -38.3579341 -0.383579E+02  0.632E-02    5.24       0.0  T
   2    -38.3579367 -0.264121E-05  0.373E-02    5.24       1.0  T
   3    -38.3579301  0.657790E-05  0.181E-02    5.24       1.0  T
   4    -38.3579379 -0.781997E-05  0.300E-03    5.24       5.9  T
   5    -38.3579381 -0.146463E-06  0.111E-03    5.24      15.9  T
   6    -38.3579381 -0.329016E-08  0.461E-04    5.24      38.4  T
   7    -38.3579381 -0.732307E-09  0.137E-04    5.24     128.6  T
     SCC iter.                  ...        0 min,  0.121 sec
     gradient                   ...        0 min,  0.032 sec
 * total energy  :   -37.8227142 Eh     change       -0.4653927E-03 Eh
   gradient norm :     0.0051888 Eh/α   predicted    -0.4132201E-03 ( -11.21%)
   displ. norm   :     0.1121219 α      lambda       -0.1845346E-03
   maximum displ.:     0.0663419 α      in ANC's #3, #7, #4, ...

........................................................................
.............................. CYCLE    4 ..............................
........................................................................

 iter      E             dE          RMSdq      gap      omega  full diag
   1    -38.3589578 -0.383590E+02  0.376E-02    5.23       0.0  T
   2    -38.3589585 -0.627450E-06  0.225E-02    5.23       1.0  T
   3    -38.3589569  0.159308E-05  0.851E-03    5.23       2.1  T
   4    -38.3589587 -0.181210E-05  0.166E-03    5.23      10.7  T
   5    -38.3589587 -0.584428E-07  0.533E-04    5.23      33.2  T
   6    -38.3589587 -0.640689E-09  0.174E-04    5.23     101.4  T
     SCC iter.                  ...        0 min,  0.090 sec
     gradient                   ...        0 min,  0.042 sec
 * total energy  :   -37.8228240 Eh     change       -0.1097829E-03 Eh
   gradient norm :     0.0028887 Eh/α   predicted    -0.9343585E-04 ( -14.89%)
   displ. norm   :     0.1139456 α      lambda       -0.1099635E-03
   maximum displ.:     0.0809441 α      in ANC's #3, #4, #11, ...

........................................................................
.............................. CYCLE    5 ..............................
........................................................................

 iter      E             dE          RMSdq      gap      omega  full diag
   1    -38.3582304 -0.383582E+02  0.368E-02    5.22       0.0  T
   2    -38.3582308 -0.446319E-06  0.219E-02    5.22       1.0  T
   3    -38.3582306  0.218338E-06  0.361E-03    5.22       4.9  T
   4    -38.3582309 -0.281852E-06  0.140E-03    5.22      12.6  T
   5    -38.3582309 -0.377338E-07  0.539E-04    5.22      32.8  T
   6    -38.3582309 -0.944297E-09  0.129E-04    5.22     137.0  T
     SCC iter.                  ...        0 min,  0.095 sec
     gradient                   ...        0 min,  0.044 sec
 * total energy  :   -37.8228946 Eh     change       -0.7059800E-04 Eh
   gradient norm :     0.0019340 Eh/α   predicted    -0.5570132E-04 ( -21.10%)
   displ. norm   :     0.1208788 α      lambda       -0.4693743E-04
   maximum displ.:     0.0902914 α      in ANC's #3, #4, #11, ...

........................................................................
.............................. CYCLE    6 ..............................
........................................................................

 iter      E             dE          RMSdq      gap      omega  full diag
   1    -38.3570024 -0.383570E+02  0.350E-02    5.22       0.0  T
   2    -38.3570026 -0.244178E-06  0.207E-02    5.22       1.0  T
   3    -38.3570024  0.166369E-06  0.304E-03    5.22       5.8  T
   4    -38.3570026 -0.213836E-06  0.114E-03    5.22      15.6  T
   5    -38.3570027 -0.229425E-07  0.477E-04    5.22      37.0  T
   6    -38.3570027 -0.118407E-08  0.141E-04    5.22     125.5  T
     SCC iter.                  ...        0 min,  0.094 sec
     gradient                   ...        0 min,  0.050 sec
 * total energy  :   -37.8229375 Eh     change       -0.4290015E-04 Eh
   gradient norm :     0.0020960 Eh/α   predicted    -0.2362198E-04 ( -44.94%)
   displ. norm   :     0.0800603 α      lambda        0.2355180E-04
   maximum displ.:     0.0597725 α      in ANC's #3, #4, #11, ...

........................................................................
.............................. CYCLE    7 ..............................
........................................................................

 iter      E             dE          RMSdq      gap      omega  full diag
   1    -38.3560375 -0.383560E+02  0.233E-02    5.22       0.0  T
   2    -38.3560376 -0.108069E-06  0.137E-02    5.22       1.3  T
   3    -38.3560375  0.807336E-07  0.209E-03    5.22       8.5  T
   4    -38.3560376 -0.102123E-06  0.758E-04    5.22      23.3  T
   5    -38.3560377 -0.103072E-07  0.317E-04    5.22      55.8  T
     SCC iter.                  ...        0 min,  0.069 sec
     gradient                   ...        0 min,  0.037 sec
 * total energy  :   -37.8229348 Eh     change        0.2622409E-05 Eh
   gradient norm :     0.0031752 Eh/α   predicted     0.1185054E-04 ( 351.90%)
   displ. norm   :     0.0266903 α      lambda       -0.2610920E-04
   maximum displ.:     0.0114965 α      in ANC's #11, #4, #3, ...

........................................................................
.............................. CYCLE    8 ..............................
........................................................................

 iter      E             dE          RMSdq      gap      omega  full diag
   1    -38.3571283 -0.383571E+02  0.111E-02    5.22       0.0  T
   2    -38.3571284 -0.869224E-07  0.654E-03    5.22       2.7  T
   3    -38.3571283  0.295101E-07  0.149E-03    5.22      11.8  T
   4    -38.3571284 -0.381860E-07  0.493E-04    5.22      35.9  T
   5    -38.3571284 -0.576294E-08  0.185E-04    5.22      95.4  T
     SCC iter.                  ...        0 min,  0.072 sec
     gradient                   ...        0 min,  0.042 sec
 * total energy  :   -37.8229533 Eh     change       -0.1850130E-04 Eh
   gradient norm :     0.0014766 Eh/α   predicted    -0.1306443E-04 ( -29.39%)
   displ. norm   :     0.0514929 α      lambda       -0.1606909E-04
   maximum displ.:     0.0295526 α      in ANC's #3, #1, #9, ...

........................................................................
.............................. CYCLE    9 ..............................
........................................................................

 iter      E             dE          RMSdq      gap      omega  full diag
   1    -38.3582486 -0.383582E+02  0.144E-02    5.23       0.0  T
   2    -38.3582488 -0.175800E-06  0.848E-03    5.23       2.1  T
   3    -38.3582487  0.395021E-07  0.191E-03    5.23       9.3  T
   4    -38.3582488 -0.578418E-07  0.574E-04    5.23      30.8  T
   5    -38.3582488 -0.738586E-08  0.241E-04    5.23      73.3  T
     SCC iter.                  ...        0 min,  0.074 sec
     gradient                   ...        0 min,  0.043 sec
 * total energy  :   -37.8229660 Eh     change       -0.1263854E-04 Eh
   gradient norm :     0.0009129 Eh/α   predicted    -0.8049581E-05 ( -36.31%)
   displ. norm   :     0.0446111 α      lambda       -0.5668936E-05
   maximum displ.:     0.0331847 α      in ANC's #3, #1, #9, ...

........................................................................
.............................. CYCLE   10 ..............................
........................................................................

 iter      E             dE          RMSdq      gap      omega  full diag
   1    -38.3580037 -0.383580E+02  0.128E-02    5.23       0.0  T
   2    -38.3580037 -0.144853E-07  0.755E-03    5.23       2.3  T
   3    -38.3580037 -0.388309E-08  0.326E-04    5.23      54.2  T
   4    -38.3580037 -0.594405E-09  0.171E-04    5.23     103.6  T
     SCC iter.                  ...        0 min,  0.052 sec
     gradient                   ...        0 min,  0.037 sec
 * total energy  :   -37.8229732 Eh     change       -0.7223545E-05 Eh
   gradient norm :     0.0006558 Eh/α   predicted    -0.2837554E-05 ( -60.72%)
   displ. norm   :     0.0841715 α      lambda       -0.9153472E-05
   maximum displ.:     0.0556458 α      in ANC's #3, #1, #7, ...

........................................................................
.............................. CYCLE   11 ..............................
........................................................................

 iter      E             dE          RMSdq      gap      omega  full diag
   1    -38.3576907 -0.383577E+02  0.224E-02    5.23       0.0  T
   2    -38.3576907 -0.361591E-07  0.132E-02    5.22       1.3  T
   3    -38.3576907 -0.750921E-08  0.679E-04    5.23      26.0  T
   4    -38.3576907 -0.388388E-08  0.426E-04    5.22      41.5  T
     SCC iter.                  ...        0 min,  0.053 sec
     gradient                   ...        0 min,  0.037 sec
 * total energy  :   -37.8229831 Eh     change       -0.9948785E-05 Eh
   gradient norm :     0.0004781 Eh/α   predicted    -0.4593593E-05 ( -53.83%)
   displ. norm   :     0.0867947 α      lambda       -0.5508308E-05
   maximum displ.:     0.0532093 α      in ANC's #3, #1, #7, ...

........................................................................
.............................. CYCLE   12 ..............................
........................................................................

 iter      E             dE          RMSdq      gap      omega  full diag
   1    -38.3575282 -0.383575E+02  0.206E-02    5.22       0.0  T
   2    -38.3575282 -0.351362E-07  0.122E-02    5.22       1.5  T
   3    -38.3575282  0.131934E-07  0.107E-03    5.22      16.6  T
   4    -38.3575283 -0.242858E-07  0.441E-04    5.22      40.0  T
   5    -38.3575283 -0.237759E-08  0.193E-04    5.22      91.8  T
     SCC iter.                  ...        0 min,  0.069 sec
     gradient                   ...        0 min,  0.037 sec
 * total energy  :   -37.8229883 Eh     change       -0.5117226E-05 Eh
   gradient norm :     0.0005344 Eh/α   predicted    -0.2764081E-05 ( -45.98%)
   displ. norm   :     0.0429697 α      lambda       -0.2247737E-05
   maximum displ.:     0.0265463 α      in ANC's #1, #3, #7, ...

........................................................................
.............................. CYCLE   13 ..............................
........................................................................

 iter      E             dE          RMSdq      gap      omega  full diag
   1    -38.3576959 -0.383577E+02  0.845E-03    5.22       0.0  T
   2    -38.3576959 -0.849226E-08  0.501E-03    5.22       3.5  T
   3    -38.3576959 -0.484476E-09  0.365E-04    5.22      48.5  T
   4    -38.3576959 -0.190796E-08  0.188E-04    5.22      93.9  T
     SCC iter.                  ...        0 min,  0.047 sec
     gradient                   ...        0 min,  0.036 sec
 * total energy  :   -37.8229906 Eh     change       -0.2383297E-05 Eh
   gradient norm :     0.0003476 Eh/α   predicted    -0.1126908E-05 ( -52.72%)
   displ. norm   :     0.0350210 α      lambda       -0.2079451E-05
   maximum displ.:     0.0233434 α      in ANC's #1, #2, #4, ...

........................................................................
.............................. CYCLE   14 ..............................
........................................................................

 iter      E             dE          RMSdq      gap      omega  full diag
   1    -38.3579052 -0.383579E+02  0.653E-03    5.23       0.0  T
   2    -38.3579052 -0.501029E-08  0.389E-03    5.23       4.5  T
   3    -38.3579052  0.360401E-08  0.447E-04    5.23      39.5  T
   4    -38.3579052 -0.464316E-08  0.161E-04    5.23     110.1  T
     SCC iter.                  ...        0 min,  0.049 sec
     gradient                   ...        0 min,  0.034 sec
 * total energy  :   -37.8229932 Eh     change       -0.2566405E-05 Eh
   gradient norm :     0.0003061 Eh/α   predicted    -0.1042301E-05 ( -59.39%)
   displ. norm   :     0.0463151 α      lambda       -0.2490671E-05
   maximum displ.:     0.0296520 α      in ANC's #1, #2, #4, ...

........................................................................
.............................. CYCLE   15 ..............................
........................................................................

 iter      E             dE          RMSdq      gap      omega  full diag
   1    -38.3579084 -0.383579E+02  0.939E-03    5.22       0.0  T
   2    -38.3579084 -0.546191E-08  0.558E-03    5.22       3.2  T
   3    -38.3579084 -0.135256E-08  0.189E-04    5.22      93.3  T
   4    -38.3579084 -0.188201E-09  0.965E-05    5.22     183.2  T
     SCC iter.                  ...        0 min,  0.051 sec
     gradient                   ...        0 min,  0.036 sec
 * total energy  :   -37.8229962 Eh     change       -0.2977841E-05 Eh
   gradient norm :     0.0003653 Eh/α   predicted    -0.1250258E-05 ( -58.01%)
   displ. norm   :     0.0504319 α      lambda       -0.2126816E-05
   maximum displ.:     0.0327144 α      in ANC's #1, #2, #4, ...

........................................................................
.............................. CYCLE   16 ..............................
........................................................................

 iter      E             dE          RMSdq      gap      omega  full diag
   1    -38.3578976 -0.383579E+02  0.955E-03    5.22       0.0  T
   2    -38.3578976 -0.606617E-08  0.568E-03    5.22       3.1  T
   3    -38.3578976 -0.121890E-08  0.227E-04    5.22      77.9  T
   4    -38.3578976 -0.485670E-09  0.114E-04    5.22     155.0  T
     SCC iter.                  ...        0 min,  0.049 sec
     gradient                   ...        0 min,  0.032 sec
 * total energy  :   -37.8229985 Eh     change       -0.2351061E-05 Eh
   gradient norm :     0.0002984 Eh/α   predicted    -0.1068187E-05 ( -54.57%)
   displ. norm   :     0.0430701 α      lambda       -0.1327816E-05
   maximum displ.:     0.0290428 α      in ANC's #1, #2, #7, ...

........................................................................
.............................. CYCLE   17 ..............................
........................................................................

 iter      E             dE          RMSdq      gap      omega  full diag
   1    -38.3577891 -0.383578E+02  0.748E-03    5.22       0.0  T
   2    -38.3577891 -0.348117E-08  0.445E-03    5.22       4.0  T
   3    -38.3577891 -0.530854E-09  0.209E-04    5.22      84.7  T
   4    -38.3577891 -0.358405E-09  0.133E-04    5.22     133.1  T
     SCC iter.                  ...        0 min,  0.058 sec
     gradient                   ...        0 min,  0.030 sec
 * total energy  :   -37.8229999 Eh     change       -0.1379007E-05 Eh
   gradient norm :     0.0002306 Eh/α   predicted    -0.6670182E-06 ( -51.63%)
   displ. norm   :     0.0321142 α      lambda       -0.7240818E-06
   maximum displ.:     0.0217399 α      in ANC's #1, #2, #9, ...

........................................................................
.............................. CYCLE   18 ..............................
........................................................................

 iter      E             dE          RMSdq      gap      omega  full diag
   1    -38.3577631 -0.383578E+02  0.514E-03    5.22       0.0  T
   2    -38.3577631 -0.282471E-08  0.307E-03    5.22       5.8  T
   3    -38.3577631  0.200122E-08  0.339E-04    5.22      52.1  T
   4    -38.3577631 -0.273244E-08  0.120E-04    5.22     147.7  T
     SCC iter.                  ...        0 min,  0.047 sec
     gradient                   ...        0 min,  0.029 sec
 * total energy  :   -37.8230007 Eh     change       -0.8051254E-06 Eh
   gradient norm :     0.0001483 Eh/α   predicted    -0.3650223E-06 ( -54.66%)
   displ. norm   :     0.0290424 α      lambda       -0.5086948E-06
   maximum displ.:     0.0192654 α      in ANC's #1, #2, #9, ...

   *** GEOMETRY OPTIMIZATION CONVERGED AFTER 18 ITERATIONS ***

------------------------------------------------------------------------
 total energy gain   :        -0.0034108 Eh       -2.1403 kcal/mol
 total RMSD          :         0.1602096 a0        0.0848 Å
 total power (kW/mol):        -0.4975036 (step)   -3.5326 (real)
------------------------------------------------------------------------

 ANCopt (total)                0 d,  0 h,  0 min,  2.535 sec
 optimizer setup                ...        0 min,  0.001 sec (  0.027%)
 model hessian                  ...        0 min,  0.030 sec (  1.167%)
 ANC generation                 ...        0 min,  0.001 sec (  0.058%)
 coordinate transformation      ...        0 min,  0.000 sec (  0.009%)
 single point calculation       ...        0 min,  2.429 sec ( 95.836%)
 optimization log               ...        0 min,  0.002 sec (  0.091%)
 hessian update                 ...        0 min,  0.068 sec (  2.697%)
 rational function              ...        0 min,  0.002 sec (  0.070%)

================
 final structure:
================
32
 xtb: 6.7.1 (edcfbbe)
C            3.16771406792784        1.35420253329635        0.59174042324055
C            2.64567051597216        0.41363395221537       -0.17967716017371
C            2.90759210743727        0.36134586783637       -1.65467038925547
C            1.76176721637760       -0.66716860587819        0.37345061603965
C            0.30968522064729       -0.56936469371476       -0.11867087019220
C           -0.33914498340523        0.73592557493578        0.33806665222416
C           -1.78716565522480        0.85153167137225       -0.13664394616789
C           -2.40776255410839        2.16695474719321        0.32504743453211
C           -2.58570853757369       -0.34287064566965        0.38483058817473
C           -1.95879517714948       -1.65409117995730       -0.07407605563504
C           -0.50375409206425       -1.76444359602447        0.39083561910981
O            0.09995227676917       -2.94700877497872       -0.09978552778013
H            3.80982489410220        2.12468842485510        0.19818460140902
H            2.97709471319703        1.39313346632830        1.65106468813552
H            3.68695329233471        1.06480786749998       -1.93675958113631
H            3.21110124887673       -0.64175684454325       -1.94968118463102
H            2.00439235758430        0.61123220171351       -2.21050360889620
H            2.14774463078280       -1.64303957007286        0.07153902690485
H            1.76587172432463       -0.62145801286069        1.46458902502538
H            0.30288194357453       -0.62015186215178       -1.21116816159692
H            0.24514625037649        1.57616874162381       -0.04150365179360
H           -0.31490241866735        0.78399591741119        1.42975614828388
H           -1.79910099199883        0.82523925456572       -1.23233470755391
H           -1.83929878413492        3.01180987159571       -0.05660774812856
H           -3.43249523791904        2.25314498273579       -0.02963686098087
H           -2.41523195898117        2.22241055226456        1.41157881302805
H           -2.60505448557237       -0.31247625263714        1.47712131117519
H           -3.61721331732432       -0.28614357971118        0.03058745159641
H           -1.97745519338376       -1.71281038823497       -1.16505456695494
H           -2.53222038100155       -2.50003398005340        0.31753215602442
H           -0.47768611091658       -1.76953528768072        1.49452564445542
H           -0.45040258086136       -3.69787235332909        0.14632382150608

 Bond Distances (Angstroems)
 ---------------------------
C1-C2=1.3237         C1-H13=1.0774        C1-H14=1.0770        C2-C1=1.3237         C2-C3=1.4990         C2-C4=1.5018         
C3-C2=1.4990         C3-H15=1.0871        C3-H16=1.0887        C3-H17=1.0896        C4-C2=1.5018         C4-C5=1.5363         
C4-H18=1.0920        C4-H19=1.0921        C5-C4=1.5363         C5-C6=1.5275         C5-C11=1.5328        C5-H20=1.0937        
C6-C5=1.5275         C6-C7=1.5282         C6-H21=1.0915        C6-H22=1.0930        C7-C6=1.5282         C7-C8=1.5260         
C7-C9=1.5285         C7-H23=1.0961        C8-C7=1.5260         C8-H24=1.0875        C8-H25=1.0878        C8-H26=1.0880        
C9-C7=1.5285         C9-C10=1.5241        C9-H27=1.0929        C9-H28=1.0921        C10-C9=1.5241        C10-C11=1.5315       
C10-H29=1.0927       C10-H30=1.0944       C11-C5=1.5328        C11-C10=1.5315       C11-O12=1.4155       C11-H31=1.1040       
O12-C11=1.4155       O12-H32=0.9629       H13-C1=1.0774        H14-C1=1.0770        H15-C3=1.0871        H16-C3=1.0887        
H17-C3=1.0896        H18-C4=1.0920        H19-C4=1.0921        H20-C5=1.0937        H21-C6=1.0915        H22-C6=1.0930        
H23-C7=1.0961        H24-C8=1.0875        H25-C8=1.0878        H26-C8=1.0880        H27-C9=1.0929        H28-C9=1.0921        
H29-C10=1.0927       H30-C10=1.0944       H31-C11=1.1040       H32-O12=0.9629       
 C  H  Rav=1.0904 sigma=0.0059  Rmin=1.0770  Rmax=1.1040    19
 C  C  Rav=1.5054 sigma=0.0586  Rmin=1.3237  Rmax=1.5363    11
 O  H  Rav=0.9629 sigma=0.0000  Rmin=0.9629  Rmax=0.9629     1
 O  C  Rav=1.4155 sigma=0.0000  Rmin=1.4155  Rmax=1.4155     1

 selected bond angles (degree)
 --------------------
H13-C1-C2=122.02               H14-C1-C2=121.94               H14-C1-H13=116.03              C3-C2-C1=121.96                
C4-C2-C1=121.93                C4-C2-C3=116.11                H15-C3-C2=110.98               H16-C3-C2=110.33               
H16-C3-H15=109.03              H17-C3-C2=110.43               H17-C3-H15=108.27              H17-C3-H16=107.71              
C5-C4-C2=113.11                H18-C4-C2=109.47               H18-C4-C5=107.60               H19-C4-C2=109.61               
H19-C4-C5=108.72               H19-C4-H18=108.20              C6-C5-C4=111.11                C11-C5-C4=110.21               
C11-C5-C6=109.96               H20-C5-C4=108.84               H20-C5-C6=109.62               H20-C5-C11=107.01              
C7-C6-C5=111.98                H21-C6-C5=109.05               H21-C6-C7=109.93               H22-C6-C5=109.07               
H22-C6-C7=109.14               H22-C6-H21=107.55              C8-C7-C6=110.89                C9-C7-C6=109.26                
C9-C7-C8=110.97                H23-C7-C6=108.60               H23-C7-C8=108.58               H23-C7-C9=108.46               
H24-C8-C7=110.54               H25-C8-C7=110.66               H25-C8-H24=108.45              H26-C8-C7=110.42               
H26-C8-H24=108.33              H26-C8-H25=108.37              C10-C9-C7=110.77               H27-C9-C7=109.18               
H27-C9-C10=109.40              H28-C9-C7=110.01               H28-C9-C10=109.60              H28-C9-H27=107.82              
C11-C10-C9=111.19              H29-C10-C9=109.87              H29-C10-C11=108.39             H30-C10-C9=109.98              
H30-C10-C11=109.48             H30-C10-H29=107.86             

 selected dihedral angles (degree)
 ---------------------------------
C3-C2-C1-H13=359.69           C3-C2-C1-H14=179.82           C4-C2-C1-H13=179.39           C4-C2-C1-H14=359.52           
H15-C3-C2-C1=  9.73           H15-C3-C2-C4=190.02           H16-C3-C2-C1=130.69           H16-C3-C2-C4=310.98           
H17-C3-C2-C1=249.65           H17-C3-C2-C4= 69.94           C5-C4-C2-C1=113.13            C5-C4-C2-C3=292.84            
H18-C4-C2-C1=233.10           H18-C4-C2-C3= 52.81           H19-C4-C2-C1=351.63           H19-C4-C2-C3=171.34           
C6-C5-C4-C2=297.50            C6-C5-C4-H18=176.46           C6-C5-C4-H19= 59.50           C11-C5-C4-C2=175.35           
C11-C5-C4-H18= 54.32          C11-C5-C4-H19=297.35          H20-C5-C4-C2= 58.29           H20-C5-C4-H18=297.25          
H20-C5-C4-H19=180.29          C7-C6-C5-C4=180.21            C7-C6-C5-C11=302.50           C7-C6-C5-H20= 59.88           
H21-C6-C5-C4= 58.32           H21-C6-C5-C11=180.61          H21-C6-C5-H20=297.99          H22-C6-C5-C4=301.13           
H22-C6-C5-C11= 63.42          H22-C6-C5-H20=180.80          C8-C7-C6-C5=180.37            C8-C7-C6-H21=301.75           
C8-C7-C6-H22= 59.50           C9-C7-C6-C5= 57.74            C9-C7-C6-H21=179.12           C9-C7-C6-H22=296.87           
H23-C7-C6-C5=299.60           H23-C7-C6-H21= 60.99          H23-C7-C6-H22=178.73          H24-C8-C7-C6= 58.84           
H24-C8-C7-C9=180.48           H24-C8-C7-H23=299.60          H25-C8-C7-C6=179.00           H25-C8-C7-C9=300.64           
H25-C8-C7-H23= 59.76          H26-C8-C7-C6=298.98           H26-C8-C7-C9= 60.62           H26-C8-C7-H23=179.74          
C10-C9-C7-C6=302.81           C10-C9-C7-C8=180.23           C10-C9-C7-H23= 61.04          H27-C9-C7-C6= 63.35           
H27-C9-C7-C8=300.77           H27-C9-C7-H23=181.57          H28-C9-C7-C6=181.48           H28-C9-C7-C8= 58.90           
H28-C9-C7-H23=299.70          C11-C10-C9-C7= 57.79          C11-C10-C9-H27=297.39         C11-C10-C9-H28=179.37         
H29-C10-C9-C7=297.81          H29-C10-C9-H27=177.41         H29-C10-C9-H28= 59.38         H30-C10-C9-C7=179.22          
H30-C10-C9-H27= 58.82         H30-C10-C9-H28=300.80         
           -------------------------------------------------
          |                Final Singlepoint                |
           -------------------------------------------------

          ...................................................
          :                      SETUP                      :
          :.................................................:
          :  # basis functions                  68          :
          :  # atomic orbitals                  68          :
          :  # shells                           44          :
          :  # electrons                        70          :
          :  max. iterations                   250          :
          :  Hamiltonian                  GFN2-xTB          :
          :  restarted?                      false          :
          :  GBSA solvation                  false          :
          :  PC potential                    false          :
          :  electronic temp.          300.0000000     K    :
          :  accuracy                    1.0000000          :
          :  -> integral cutoff          0.2500000E+02      :
          :  -> integral neglect         0.1000000E-07      :
          :  -> SCF convergence          0.1000000E-05 Eh   :
          :  -> wf. convergence          0.1000000E-03 e    :
          :  Broyden damping             0.4000000          :
          :  net charge                          0          :
          :  unpaired electrons                  0          :
          ...................................................

 iter      E             dE          RMSdq      gap      omega  full diag
   1    -38.3577631 -0.383578E+02  0.557E-05    5.22       0.0  T
   2    -38.3577631 -0.490985E-11  0.347E-05    5.22     508.9  T
   3    -38.3577631 -0.817124E-12  0.248E-05    5.22     713.6  T

   *** convergence criteria satisfied after 3 iterations ***

         #    Occupation            Energy/Eh            Energy/eV
      -------------------------------------------------------------
         1        2.0000           -0.6828704             -18.5818
       ...           ...                  ...                  ...
        29        2.0000           -0.4324489             -11.7675
        30        2.0000           -0.4226982             -11.5022
        31        2.0000           -0.4220600             -11.4848
        32        2.0000           -0.4168986             -11.3444
        33        2.0000           -0.4064855             -11.0610
        34        2.0000           -0.4023818             -10.9494
        35        2.0000           -0.3789167             -10.3108 (HOMO)
        36                         -0.1869636              -5.0875 (LUMO)
        37                          0.0301343               0.8200
        38                          0.0614602               1.6724
        39                          0.0697284               1.8974
        40                          0.0840670               2.2876
       ...                                ...                  ...
        68                          0.6449404              17.5497
      -------------------------------------------------------------
                  HL-Gap            0.1919532 Eh            5.2233 eV
             Fermi-level           -0.2829401 Eh           -7.6992 eV

 SCC (total)                   0 d,  0 h,  0 min,  0.101 sec
 SCC setup                      ...        0 min,  0.004 sec (  3.754%)
 Dispersion                     ...        0 min,  0.006 sec (  6.403%)
 classical contributions        ...        0 min,  0.004 sec (  3.642%)
 integral evaluation            ...        0 min,  0.012 sec ( 12.286%)
 iterations                     ...        0 min,  0.039 sec ( 38.167%)
 molecular gradient             ...        0 min,  0.036 sec ( 35.558%)
 printout                       ...        0 min,  0.000 sec (  0.163%)

         :::::::::::::::::::::::::::::::::::::::::::::::::::::
         ::                     SUMMARY                     ::
         :::::::::::::::::::::::::::::::::::::::::::::::::::::
         :: total energy             -37.823000720548 Eh    ::
         :: gradient norm              0.000148251062 Eh/a0 ::
         :: HOMO-LUMO gap              5.223311636412 eV    ::
         ::.................................................::
         :: SCC energy               -38.357453476525 Eh    ::
         :: -> isotropic ES            0.030455263163 Eh    ::
         :: -> anisotropic ES          0.008171723110 Eh    ::
         :: -> anisotropic XC          0.017443277142 Eh    ::
         :: -> dispersion             -0.026128783480 Eh    ::
         :: repulsion energy           0.534452755977 Eh    ::
         :: add. restraining           0.000000000000 Eh    ::
         :: total charge              -0.000000000000 e     ::
         :::::::::::::::::::::::::::::::::::::::::::::::::::::

           -------------------------------------------------
          |                Property Printout                |
           -------------------------------------------------

    * Orbital Energies and Occupations

         #    Occupation            Energy/Eh            Energy/eV
      -------------------------------------------------------------
         1        2.0000           -0.6828704             -18.5818
       ...           ...                  ...                  ...
        23        2.0000           -0.4646932             -12.6449
        24        2.0000           -0.4592746             -12.4975
        25        2.0000           -0.4547288             -12.3738
        26        2.0000           -0.4456158             -12.1258
        27        2.0000           -0.4421989             -12.0328
        28        2.0000           -0.4356428             -11.8544
        29        2.0000           -0.4324489             -11.7675
        30        2.0000           -0.4226982             -11.5022
        31        2.0000           -0.4220600             -11.4848
        32        2.0000           -0.4168986             -11.3444
        33        2.0000           -0.4064855             -11.0610
        34        2.0000           -0.4023818             -10.9494
        35        2.0000           -0.3789167             -10.3108 (HOMO)
        36                         -0.1869636              -5.0875 (LUMO)
        37                          0.0301343               0.8200
        38                          0.0614602               1.6724
        39                          0.0697284               1.8974
        40                          0.0840670               2.2876
        41                          0.0973562               2.6492
        42                          0.1017622               2.7691
        43                          0.1118653               3.0440
        44                          0.1237815               3.3683
        45                          0.1360256               3.7014
        46                          0.1450240               3.9463
       ...                                ...                  ...
        68                          0.6449404              17.5497
      -------------------------------------------------------------
                  HL-Gap            0.1919532 Eh            5.2233 eV
             Fermi-level           -0.2829401 Eh           -7.6992 eV

     #   Z          covCN         q      C6AA      α(0)
     1   6 C        2.845    -0.110    30.787     9.093
     2   6 C        2.937     0.019    27.576     8.612
     3   6 C        3.759    -0.109    22.638     6.783
     4   6 C        3.813    -0.069    21.819     6.649
     5   6 C        3.856    -0.020    20.898     6.502
     6   6 C        3.812    -0.068    21.800     6.646
     7   6 C        3.854    -0.016    20.821     6.490
     8   6 C        3.755    -0.107    22.602     6.779
     9   6 C        3.809    -0.062    21.690     6.630
    10   6 C        3.804    -0.070    21.830     6.652
    11   6 C        3.730     0.116    18.768     6.184
    12   8 O        1.655    -0.449    21.831     6.307
    13   1 H        0.926     0.027     2.624     2.533
    14   1 H        0.926     0.027     2.625     2.534
    15   1 H        0.925     0.039     2.464     2.455
    16   1 H        0.925     0.045     2.383     2.414
    17   1 H        0.925     0.044     2.392     2.419
    18   1 H        0.924     0.060     2.201     2.320
    19   1 H        0.924     0.035     2.519     2.482
    20   1 H        0.924     0.044     2.395     2.420
    21   1 H        0.924     0.038     2.471     2.458
    22   1 H        0.924     0.033     2.542     2.493
    23   1 H        0.924     0.029     2.597     2.520
    24   1 H        0.925     0.037     2.494     2.470
    25   1 H        0.925     0.035     2.522     2.484
    26   1 H        0.925     0.035     2.516     2.481
    27   1 H        0.924     0.032     2.555     2.500
    28   1 H        0.924     0.032     2.553     2.499
    29   1 H        0.924     0.040     2.455     2.450
    30   1 H        0.924     0.023     2.684     2.562
    31   1 H        0.923     0.007     2.938     2.681
    32   1 H        0.805     0.283     0.773     1.381

 Mol. C6AA /au·bohr⁶  :       7743.135398
 Mol. C8AA /au·bohr⁸  :     168302.525475
 Mol. α(0) /au        :        131.880912


Wiberg/Mayer (AO) data.
largest (>0.10) Wiberg bond orders for each atom

 ---------------------------------------------------------------------------
     #   Z sym  total        # sym  WBO       # sym  WBO       # sym  WBO
 ---------------------------------------------------------------------------
     1   6 C    3.986 --     2 C    1.926    14 H    0.976    13 H    0.976
     2   6 C    3.987 --     1 C    1.926     3 C    1.025     4 C    1.013
     3   6 C    3.997 --     2 C    1.025    15 H    0.985    16 H    0.975
                            17 H    0.968
     4   6 C    3.995 --     2 C    1.013     5 C    0.979    19 H    0.974
                            18 H    0.960
     5   6 C    3.994 --     6 C    0.997    11 C    0.981     4 C    0.979
                            20 H    0.964
     6   6 C    3.997 --     5 C    0.997     7 C    0.997    22 H    0.975
                            21 H    0.974
     7   6 C    3.996 --     8 C    1.008     9 C    0.998     6 C    0.997
                            23 H    0.968
     8   6 C    3.996 --     7 C    1.008    26 H    0.987    25 H    0.987
                            24 H    0.986
     9   6 C    3.997 --    10 C    1.007     7 C    0.998    28 H    0.976
                            27 H    0.976
    10   6 C    3.996 --     9 C    1.007    11 C    0.988    29 H    0.976
                            30 H    0.975
    11   6 C    3.953 --    10 C    0.988    12 O    0.983     5 C    0.981
                            31 H    0.960
    12   8 O    1.955 --    11 C    0.983    32 H    0.902
    13   1 H    0.999 --     1 C    0.976
    14   1 H    0.999 --     1 C    0.976
    15   1 H    0.998 --     3 C    0.985
    16   1 H    0.998 --     3 C    0.975
    17   1 H    0.998 --     3 C    0.968
    18   1 H    0.996 --     4 C    0.960
    19   1 H    0.999 --     4 C    0.974
    20   1 H    0.998 --     5 C    0.964
    21   1 H    0.998 --     6 C    0.974
    22   1 H    0.999 --     6 C    0.975
    23   1 H    0.999 --     7 C    0.968
    24   1 H    0.998 --     8 C    0.986
    25   1 H    0.998 --     8 C    0.987
    26   1 H    0.999 --     8 C    0.987
    27   1 H    0.999 --     9 C    0.976
    28   1 H    0.999 --     9 C    0.976
    29   1 H    0.998 --    10 C    0.976
    30   1 H    0.999 --    10 C    0.975
    31   1 H    1.000 --    11 C    0.960
    32   1 H    0.919 --    12 O    0.902
 ---------------------------------------------------------------------------

Topologies differ in total number of bonds
Writing topology from bond orders to xtbtopo.mol

molecular dipole:
                 x           y           z       tot (Debye)
 q only:       -0.510      -0.007       0.026
   full:       -0.739      -0.128       0.134       1.937
molecular quadrupole (traceless):
                xx          xy          yy          xz          yz          zz
 q only:       -0.768       2.072       0.841      -1.465      -1.862      -0.073
  q+dip:       -2.930       5.681       0.468      -1.503      -3.026       2.462
   full:       -2.134       4.737       1.197      -1.686      -3.075       0.938

           -------------------------------------------------
          |                Geometry Summary                 |
           -------------------------------------------------

      molecular mass/u    :      168.2763148
   center of mass at/Å    :        0.0880272      -0.2046354       0.0068180
  moments of inertia/u·Å² :        0.4358621E+03   0.7779837E+03   0.1076651E+04
rotational constants/cm⁻¹ :        0.3867653E-01   0.2166836E-01   0.1565747E-01

 * 30 selected distances

     #   Z          #   Z                                           value/Å
     1   6 C        2   6 C                                       1.3237387
     4   6 C        5   6 C                                       1.5363241 (max)
     5   6 C        6   6 C                                       1.5275382
     6   6 C        7   6 C                                       1.5282275
     7   6 C        8   6 C                                       1.5259875
     7   6 C        9   6 C                                       1.5284645
     9   6 C       10   6 C                                       1.5241113
     5   6 C       11   6 C                                       1.5328061
    10   6 C       11   6 C                                       1.5314913
    11   6 C       12   8 O                                       1.4154968
     1   6 C       13   1 H                                       1.0774234
     1   6 C       14   1 H                                       1.0770420
     3   6 C       15   1 H                                       1.0871233
     3   6 C       16   1 H                                       1.0887444
     3   6 C       17   1 H                                       1.0895704
     4   6 C       18   1 H                                       1.0919952
     4   6 C       19   1 H                                       1.0921033
     5   6 C       20   1 H                                       1.0936984
     6   6 C       21   1 H                                       1.0915487
     6   6 C       22   1 H                                       1.0930163
     7   6 C       23   1 H                                       1.0960713
     8   6 C       24   1 H                                       1.0874705
     8   6 C       25   1 H                                       1.0877992
     8   6 C       26   1 H                                       1.0879714
     9   6 C       27   1 H                                       1.0928849
     9   6 C       28   1 H                                       1.0921119
    10   6 C       29   1 H                                       1.0927170
    10   6 C       30   1 H                                       1.0944373
    11   6 C       31   1 H                                       1.1040097
    12   8 O       32   1 H                                       0.9629416 (min)

 * 4 distinct bonds (by element types)

   Z      Z             #   av. dist./Å        max./Å        min./Å
   1 H    6 C          19     1.0904073     1.1040097     1.0770420
   6 C    6 C           9     1.5065210     1.5363241     1.3237387
   1 H    8 O           1     0.9629416     0.9629416     0.9629416
   6 C    8 O           1     1.4154968     1.4154968     1.4154968


optimized geometry written to: xtbopt.xyz


           -------------------------------------------------
          | TOTAL ENERGY              -37.823000720548 Eh   |
          | GRADIENT NORM               0.000148251062 Eh/α |
          | HOMO-LUMO GAP               5.223311636412 eV   |
           -------------------------------------------------

------------------------------------------------------------------------
 * finished run on 2026/07/09 at 17:43:31.549     
------------------------------------------------------------------------
 total:
 * wall-time:     0 d,  0 h,  0 min,  2.967 sec
 *  cpu-time:     0 d,  0 h,  0 min, 47.218 sec
 * ratio c/w:    15.913 speedup
 SCF:
 * wall-time:     0 d,  0 h,  0 min,  0.273 sec
 *  cpu-time:     0 d,  0 h,  0 min,  4.337 sec
 * ratio c/w:    15.911 speedup
 ANC optimizer:
 * wall-time:     0 d,  0 h,  0 min,  2.642 sec
 *  cpu-time:     0 d,  0 h,  0 min, 42.205 sec
 * ratio c/w:    15.975 speedup

