      -----------------------------------------------------------      
     |                   =====================                   |     
     |                           x T B                           |     
     |                   =====================                   |     
     |                         S. Grimme                         |     
     |          Mulliken Center for Theoretical Chemistry        |     
     |                    University of Bonn                     |     
      -----------------------------------------------------------      

   * xtb version 6.7.1 (edcfbbe) compiled by 'conda@5dfe00f5fb80' on 2026-06-10

   xtb is free software: you can redistribute it and/or modify it under
   the terms of the GNU Lesser General Public License as published by
   the Free Software Foundation, either version 3 of the License, or
   (at your option) any later version.
   
   xtb is distributed in the hope that it will be useful,
   but WITHOUT ANY WARRANTY; without even the implied warranty of
   MERCHANTABILITY or FITNESS FOR A PARTICULAR PURPOSE.  See the
   GNU Lesser General Public License for more details.
   
   Cite this work as:
   * C. Bannwarth, E. Caldeweyher, S. Ehlert, A. Hansen, P. Pracht,
     J. Seibert, S. Spicher, S. Grimme, WIREs Comput. Mol. Sci., 2020, 11,
     e01493. DOI: 10.1002/wcms.1493
   
   for GFN2-xTB:
   * C. Bannwarth, S. Ehlert and S. Grimme., J. Chem. Theory Comput., 2019,
     15, 1652-1671. DOI: 10.1021/acs.jctc.8b01176
   for GFN1-xTB:
   * S. Grimme, C. Bannwarth, P. Shushkov, J. Chem. Theory Comput., 2017,
     13, 1989-2009. DOI: 10.1021/acs.jctc.7b00118
   for GFN0-xTB:
   * P. Pracht, E. Caldeweyher, S. Ehlert, S. Grimme, ChemRxiv, 2019, preprint.
     DOI: 10.26434/chemrxiv.8326202.v1
   for GFN-FF:
   * S. Spicher and S. Grimme, Angew. Chem. Int. Ed., 2020, 59, 15665-15673.
     DOI: 10.1002/anie.202004239
   
   for ALPB and GBSA implicit solvation:
   * S. Ehlert, M. Stahn, S. Spicher, S. Grimme, J. Chem. Theory Comput.,
     2021, 17, 4250-4261. DOI: 10.1021/acs.jctc.1c00471
   
   for ddCOSMO and CPCM-X implicit solvation:
   * M. Stahn, S. Ehlert, S. Grimme, J. Phys. Chem. A,
     2023, XX, XXXX-XXXX. DOI: 10.1021/acs.jpca.3c04382
   
   for DFT-D4:
   * E. Caldeweyher, C. Bannwarth and S. Grimme, J. Chem. Phys., 2017,
     147, 034112. DOI: 10.1063/1.4993215
   * E. Caldeweyher, S. Ehlert, A. Hansen, H. Neugebauer, S. Spicher,
     C. Bannwarth and S. Grimme, J. Chem. Phys., 2019, 150, 154122.
     DOI: 10.1063/1.5090222
   * E. Caldeweyher, J.-M. Mewes, S. Ehlert and S. Grimme, Phys. Chem. Chem. Phys.
     2020, 22, 8499-8512. DOI: 10.1039/D0CP00502A
   
   for sTDA-xTB:
   * S. Grimme and C. Bannwarth, J. Chem. Phys., 2016, 145, 054103.
     DOI: 10.1063/1.4959605
   
   in the mass-spec context:
   * V. Asgeirsson, C. Bauer and S. Grimme, Chem. Sci., 2017, 8, 4879.
     DOI: 10.1039/c7sc00601b
   * J. Koopman and S. Grimme, ACS Omega 2019, 4, 12, 15120-15133.
     DOI: 10.1021/acsomega.9b02011
   
   for metadynamics refer to:
   * S. Grimme, J. Chem. Theory Comput., 2019, 155, 2847-2862
     DOI: 10.1021/acs.jctc.9b00143
   
   for SPH calculations refer to:
   * S. Spicher and S. Grimme, J. Chem. Theory Comput., 2021, 17, 1701-1714
     DOI: 10.1021/acs.jctc.0c01306
   
   for ONIOM refer to:
   * C. Plett, A. Katbashev, S. Ehlert, S. Grimme, M. Bursch,
     Phys. Chem. Chem. Phys., 2023, 25, 17860-17868. DOI: 10.1039/D3CP02178E
   
   for DIPRO refer to:
   * J. Kohn, N. Gildemeister, S. Grimme, D. Fazzi, A. Hansen,
     J. Chem. Phys., 2023, just accepted.
   
   for PTB refer to:
   * S. Grimme, M. Mueller, A. Hansen, J. Chem. Phys., 2023, 158, 124111.
     DOI: 10.1063/5.0137838
   
   with help from (in alphabetical order)
   P. Atkinson, C. Bannwarth, F. Bohle, G. Brandenburg, E. Caldeweyher
   M. Checinski, S. Dohm, S. Ehlert, S. Ehrlich, I. Gerasimov, C. Hölzer
   A. Katbashev, J. Kohn, J. Koopman, C. Lavigne, S. Lehtola, F. März, M. Müller,
   F. Musil, H. Neugebauer, J. Pisarek, C. Plett, P. Pracht, F. Pultar,
   J. Seibert, P. Shushkov, S. Spicher, M. Stahn, M. Steiner, T. Strunk,
   J. Stückrath, T. Rose, and J. Unsleber
   
 * started run on 2026/07/07 at 03:58:59.344     
   ID    Z sym.   atoms
    1    6 C      1-3, 5, 7-9, 12-15
    2    8 O      4, 6, 10
    3    7 N      11
    4    1 H      16-36

           -------------------------------------------------
          |                Calculation Setup                |
           -------------------------------------------------

          program call               : /home/ws/xd2484/miniforge3/envs/p3z_dft/bin/xtb xtb_input.xyz --gfn 2 --opt tight --cycles 500 --chrg 0 --uhf 0
          hostname                   : gpu10
          coordinate file            : xtb_input.xyz
          omp threads                :                    16


           -------------------------------------------------
          |                 G F N 2 - x T B                 |
           -------------------------------------------------

        Reference                      10.1021/acs.jctc.8b01176
      * Hamiltonian:
        H0-scaling (s, p, d)           1.850000    2.230000    2.230000
        zeta-weighting                 0.500000
      * Dispersion:
        s8                             2.700000
        a1                             0.520000
        a2                             5.000000
        s9                             5.000000
      * Repulsion:
        kExp                           1.500000    1.000000
        rExp                           1.000000
      * Coulomb:
        alpha                          2.000000
        third order                    shell-resolved
        anisotropic                    true
        a3                             3.000000
        a5                             4.000000
        cn-shift                       1.200000
        cn-exp                         4.000000
        max-rad                        5.000000


          ...................................................
          :                      SETUP                      :
          :.................................................:
          :  # basis functions                  81          :
          :  # atomic orbitals                  81          :
          :  # shells                           51          :
          :  # electrons                        88          :
          :  max. iterations                   250          :
          :  Hamiltonian                  GFN2-xTB          :
          :  restarted?                      false          :
          :  GBSA solvation                  false          :
          :  PC potential                    false          :
          :  electronic temp.          300.0000000     K    :
          :  accuracy                    1.0000000          :
          :  -> integral cutoff          0.2500000E+02      :
          :  -> integral neglect         0.1000000E-07      :
          :  -> SCF convergence          0.1000000E-05 Eh   :
          :  -> wf. convergence          0.1000000E-03 e    :
          :  Broyden damping             0.4000000          :
          :  net charge                          0          :
          :  unpaired electrons                  0          :
          ...................................................

 iter      E             dE          RMSdq      gap      omega  full diag
   1    -49.8553411 -0.498553E+02  0.362E+00    4.54       0.0  T
   2    -49.9765685 -0.121227E+00  0.188E+00    4.07       1.0  T
   3    -49.9821679 -0.559933E-02  0.106E+00    4.40       1.0  T
   4    -49.9848603 -0.269243E-02  0.181E-01    4.05       1.0  T
   5    -49.9856092 -0.748921E-03  0.749E-02    4.15       1.0  T
   6    -49.9856337 -0.244321E-04  0.379E-02    4.14       1.0  T
   7    -49.9856366 -0.296832E-05  0.831E-03    4.15       2.0  T
   8    -49.9856370 -0.343141E-06  0.293E-03    4.15       5.7  T
   9    -49.9856370 -0.394038E-07  0.126E-03    4.15      13.2  T
  10    -49.9856370 -0.668285E-08  0.419E-04    4.15      39.7  T
  11    -49.9856370 -0.217224E-08  0.166E-04    4.15     100.6  T

   *** convergence criteria satisfied after 11 iterations ***

         #    Occupation            Energy/Eh            Energy/eV
      -------------------------------------------------------------
         1        2.0000           -0.7279701             -19.8091
       ...           ...                  ...                  ...
        38        2.0000           -0.4449583             -12.1079
        39        2.0000           -0.4444809             -12.0949
        40        2.0000           -0.4375668             -11.9068
        41        2.0000           -0.4263930             -11.6027
        42        2.0000           -0.4094759             -11.1424
        43        2.0000           -0.3851292             -10.4799
        44        2.0000           -0.3812080             -10.3732 (HOMO)
        45                         -0.2285779              -6.2199 (LUMO)
        46                         -0.2053501              -5.5879
        47                         -0.0283857              -0.7724
        48                          0.0037848               0.1030
        49                          0.0610293               1.6607
       ...                                ...                  ...
        81                          0.5991811              16.3045
      -------------------------------------------------------------
                  HL-Gap            0.1526301 Eh            4.1533 eV
             Fermi-level           -0.3048929 Eh           -8.2966 eV

 SCC (total)                   0 d,  0 h,  0 min,  0.299 sec
 SCC setup                      ...        0 min,  0.004 sec (  1.300%)
 Dispersion                     ...        0 min,  0.011 sec (  3.553%)
 classical contributions        ...        0 min,  0.005 sec (  1.730%)
 integral evaluation            ...        0 min,  0.017 sec (  5.628%)
 iterations                     ...        0 min,  0.203 sec ( 67.925%)
 molecular gradient             ...        0 min,  0.059 sec ( 19.784%)
 printout                       ...        0 min,  0.000 sec (  0.071%)

         :::::::::::::::::::::::::::::::::::::::::::::::::::::
         ::                     SUMMARY                     ::
         :::::::::::::::::::::::::::::::::::::::::::::::::::::
         :: total energy             -49.426831795987 Eh    ::
         :: gradient norm              0.070485569046 Eh/a0 ::
         :: HOMO-LUMO gap              4.153276999048 eV    ::
         ::.................................................::
         :: SCC energy               -49.985543389657 Eh    ::
         :: -> isotropic ES            0.086998959014 Eh    ::
         :: -> anisotropic ES          0.005595905260 Eh    ::
         :: -> anisotropic XC          0.016592562436 Eh    ::
         :: -> dispersion             -0.026858040785 Eh    ::
         :: repulsion energy           0.558711593670 Eh    ::
         :: add. restraining           0.000000000000 Eh    ::
         :: total charge               0.000000000000 e     ::
         :::::::::::::::::::::::::::::::::::::::::::::::::::::

      ----------------------------------------------------------- 
     |                   =====================                   |
     |                        A N C O P T                        |
     |                   =====================                   |
     |               Approximate Normal Coordinate               |
     |                Rational Function Optimizer                |
      ----------------------------------------------------------- 
      ----------------------------------------------------------- 
     |                   =====================                   |
     |                        A N C O P T                        |
     |                   =====================                   |
     |               Approximate Normal Coordinate               |
     |                Rational Function Optimizer                |
      ----------------------------------------------------------- 

          ...................................................
          :                      SETUP                      :
          :.................................................:
          :   optimization level             tight          :
          :   max. optcycles                   500          :
          :   ANC micro-cycles                  20          :
          :   degrees of freedom               102          :
          :.................................................:
          :   RF solver                   davidson          :
          :   write xtbopt.log                true          :
          :   linear?                        false          :
          :   energy convergence         0.1000000E-05 Eh   :
          :   grad. convergence          0.8000000E-03 Eh/α :
          :   maxmium RF displ.          1.0000000          :
          :   Hlow (freq-cutoff)         0.1000000E-01      :
          :   Hmax (freq-cutoff)         5.0000000          :
          :   S6 in model hess.         20.0000000          :
          ...................................................

generating ANC from exact Hessian ...
Using Lindh-Hessian (1995)
 Shifting diagonal of input Hessian by    9.7478662451753427E-003
 Lowest  eigenvalues of input Hessian
    0.000000    0.000000    0.000000    0.000000    0.000000    0.000000
    0.010000    0.010092    0.010960    0.011724    0.011886    0.012225
    0.013301    0.013616    0.014711    0.016352    0.016683    0.018722
 Highest eigenvalues
    1.322802    1.504516    1.683881    1.715874    2.170790    2.245780


........................................................................
.............................. CYCLE    1 ..............................
........................................................................

 iter      E             dE          RMSdq      gap      omega  full diag
   1    -49.9856370 -0.499856E+02  0.504E-05    4.15       0.0  T
   2    -49.9856370 -0.228013E-10  0.302E-05    4.15     552.2  T
   3    -49.9856370 -0.385114E-11  0.188E-05    4.15     888.8  T
     SCC iter.                  ...        0 min,  0.080 sec
     gradient                   ...        0 min,  0.076 sec
 * total energy  :   -49.4268318 Eh     change       -0.1588703E-09 Eh
   gradient norm :     0.0704870 Eh/α   predicted     0.0000000E+00 (-100.00%)
   displ. norm   :     0.1918855 α      lambda       -0.7182851E-02
   maximum displ.:     0.0749948 α      in ANC's #42, #22, #14, ...

........................................................................
.............................. CYCLE    2 ..............................
........................................................................

 iter      E             dE          RMSdq      gap      omega  full diag
   1    -50.0137553 -0.500138E+02  0.144E-01    4.42       0.0  T
   2    -50.0138908 -0.135564E-03  0.907E-02    4.41       1.0  T
   3    -50.0138998 -0.897210E-05  0.441E-02    4.42       1.0  T
   4    -50.0139082 -0.839716E-05  0.562E-03    4.41       3.0  T
   5    -50.0139086 -0.413970E-06  0.311E-03    4.41       5.4  T
   6    -50.0139087 -0.392596E-07  0.118E-03    4.41      14.1  T
   7    -50.0139087 -0.373244E-08  0.416E-04    4.41      40.0  T
   8    -50.0139087 -0.806750E-09  0.122E-04    4.41     136.8  T
     SCC iter.                  ...        0 min,  0.142 sec
     gradient                   ...        0 min,  0.059 sec
 * total energy  :   -49.4313185 Eh     change       -0.4486673E-02 Eh
   gradient norm :     0.0197614 Eh/α   predicted    -0.3724013E-02 ( -17.00%)
   displ. norm   :     0.1500210 α      lambda       -0.9713879E-03
   maximum displ.:     0.0749984 α      in ANC's #14, #8, #13, ...

........................................................................
.............................. CYCLE    3 ..............................
........................................................................

 iter      E             dE          RMSdq      gap      omega  full diag
   1    -50.0226369 -0.500226E+02  0.609E-02    4.49       0.0  T
   2    -50.0226818 -0.448597E-04  0.376E-02    4.49       1.0  T
   3    -50.0226849 -0.309672E-05  0.205E-02    4.50       1.0  T
   4    -50.0226851 -0.238053E-06  0.279E-03    4.50       6.0  T
   5    -50.0226853 -0.156912E-06  0.115E-03    4.50      14.5  T
   6    -50.0226853 -0.550566E-08  0.549E-04    4.50      30.4  T
   7    -50.0226853 -0.716376E-09  0.166E-04    4.50     100.3  T
     SCC iter.                  ...        0 min,  0.111 sec
     gradient                   ...        0 min,  0.048 sec
 * total energy  :   -49.4319024 Eh     change       -0.5839289E-03 Eh
   gradient norm :     0.0076098 Eh/α   predicted    -0.5051645E-03 ( -13.49%)
   displ. norm   :     0.1082082 α      lambda       -0.1886383E-03
   maximum displ.:     0.0500721 α      in ANC's #14, #8, #2, ...

........................................................................
.............................. CYCLE    4 ..............................
........................................................................

 iter      E             dE          RMSdq      gap      omega  full diag
   1    -50.0236336 -0.500236E+02  0.281E-02    4.50       0.0  T
   2    -50.0236420 -0.838776E-05  0.166E-02    4.51       1.0  T
   3    -50.0236423 -0.322557E-06  0.864E-03    4.51       1.9  T
   4    -50.0236424 -0.424261E-07  0.120E-03    4.51      13.9  T
   5    -50.0236424 -0.221903E-07  0.415E-04    4.51      40.2  T
   6    -50.0236424 -0.937462E-09  0.189E-04    4.51      88.2  T
     SCC iter.                  ...        0 min,  0.110 sec
     gradient                   ...        0 min,  0.045 sec
 * total energy  :   -49.4320398 Eh     change       -0.1373675E-03 Eh
   gradient norm :     0.0036160 Eh/α   predicted    -0.9542411E-04 ( -30.53%)
   displ. norm   :     0.1442898 α      lambda       -0.1417523E-03
   maximum displ.:     0.0640641 α      in ANC's #8, #2, #14, ...

........................................................................
.............................. CYCLE    5 ..............................
........................................................................

 iter      E             dE          RMSdq      gap      omega  full diag
   1    -50.0233303 -0.500233E+02  0.307E-02    4.51       0.0  T
   2    -50.0233351 -0.475825E-05  0.181E-02    4.51       1.0  T
   3    -50.0233352 -0.111957E-06  0.752E-03    4.51       2.2  T
   4    -50.0233353 -0.150326E-06  0.126E-03    4.51      13.3  T
   5    -50.0233354 -0.269167E-07  0.484E-04    4.51      34.4  T
   6    -50.0233354 -0.108222E-08  0.183E-04    4.51      91.1  T
     SCC iter.                  ...        0 min,  0.088 sec
     gradient                   ...        0 min,  0.041 sec
 * total energy  :   -49.4321294 Eh     change       -0.8966252E-04 Eh
   gradient norm :     0.0031910 Eh/α   predicted    -0.7235219E-04 ( -19.31%)
   displ. norm   :     0.0878686 α      lambda       -0.4463772E-04
   maximum displ.:     0.0488525 α      in ANC's #2, #8, #1, ...

........................................................................
.............................. CYCLE    6 ..............................
........................................................................

 iter      E             dE          RMSdq      gap      omega  full diag
   1    -50.0230380 -0.500230E+02  0.156E-02    4.52       0.0  T
   2    -50.0230382 -0.174888E-06  0.924E-03    4.52       1.8  T
   3    -50.0230382  0.753587E-08  0.140E-03    4.52      11.9  T
   4    -50.0230382 -0.346921E-07  0.450E-04    4.52      37.0  T
   5    -50.0230382 -0.165822E-08  0.180E-04    4.52      92.4  T
     SCC iter.                  ...        0 min,  0.076 sec
     gradient                   ...        0 min,  0.054 sec
 * total energy  :   -49.4321620 Eh     change       -0.3258241E-04 Eh
   gradient norm :     0.0026952 Eh/α   predicted    -0.2249312E-04 ( -30.97%)
   displ. norm   :     0.0943447 α      lambda       -0.3731025E-04
   maximum displ.:     0.0588922 α      in ANC's #2, #8, #1, ...

........................................................................
.............................. CYCLE    7 ..............................
........................................................................

 iter      E             dE          RMSdq      gap      omega  full diag
   1    -50.0228796 -0.500229E+02  0.171E-02    4.52       0.0  T
   2    -50.0228799 -0.329726E-06  0.101E-02    4.52       1.7  T
   3    -50.0228799  0.673295E-08  0.187E-03    4.52       8.9  T
   4    -50.0228799 -0.356267E-07  0.384E-04    4.52      43.4  T
   5    -50.0228799 -0.112805E-08  0.189E-04    4.52      88.2  T
     SCC iter.                  ...        0 min,  0.086 sec
     gradient                   ...        0 min,  0.048 sec
 * total energy  :   -49.4321898 Eh     change       -0.2776142E-04 Eh
   gradient norm :     0.0013306 Eh/α   predicted    -0.1885463E-04 ( -32.08%)
   displ. norm   :     0.1436424 α      lambda       -0.2998034E-04
   maximum displ.:     0.0945523 α      in ANC's #2, #8, #1, ...

........................................................................
.............................. CYCLE    8 ..............................
........................................................................

 iter      E             dE          RMSdq      gap      omega  full diag
   1    -50.0228538 -0.500229E+02  0.266E-02    4.52       0.0  T
   2    -50.0228546 -0.731267E-06  0.157E-02    4.52       1.1  T
   3    -50.0228546  0.180417E-08  0.254E-03    4.52       6.6  T
   4    -50.0228546 -0.498978E-07  0.478E-04    4.52      34.9  T
   5    -50.0228546 -0.105324E-08  0.236E-04    4.52      70.5  T
     SCC iter.                  ...        0 min,  0.063 sec
     gradient                   ...        0 min,  0.040 sec
 * total energy  :   -49.4322208 Eh     change       -0.3104261E-04 Eh
   gradient norm :     0.0023356 Eh/α   predicted    -0.1512806E-04 ( -51.27%)
   displ. norm   :     0.0813553 α      lambda       -0.2453825E-04
   maximum displ.:     0.0548894 α      in ANC's #2, #3, #1, ...

........................................................................
.............................. CYCLE    9 ..............................
........................................................................

 iter      E             dE          RMSdq      gap      omega  full diag
   1    -50.0229477 -0.500229E+02  0.145E-02    4.52       0.0  T
   2    -50.0229477 -0.301503E-07  0.858E-03    4.52       1.9  T
   3    -50.0229477 -0.620858E-09  0.625E-04    4.52      26.7  T
   4    -50.0229477 -0.804797E-08  0.245E-04    4.52      68.1  T
     SCC iter.                  ...        0 min,  0.070 sec
     gradient                   ...        0 min,  0.048 sec
 * total energy  :   -49.4322430 Eh     change       -0.2216130E-04 Eh
   gradient norm :     0.0023028 Eh/α   predicted    -0.1235607E-04 ( -44.24%)
   displ. norm   :     0.1764540 α      lambda       -0.5377448E-04
   maximum displ.:     0.1156641 α      in ANC's #2, #3, #1, ...

........................................................................
.............................. CYCLE   10 ..............................
........................................................................

 iter      E             dE          RMSdq      gap      omega  full diag
   1    -50.0230108 -0.500230E+02  0.299E-02    4.52       0.0  T
   2    -50.0230110 -0.194681E-06  0.178E-02    4.52       1.0  T
   3    -50.0230110 -0.579805E-08  0.133E-03    4.53      12.5  T
   4    -50.0230110 -0.304985E-07  0.494E-04    4.52      33.7  T
   5    -50.0230110 -0.909004E-09  0.215E-04    4.52      77.4  T
     SCC iter.                  ...        0 min,  0.088 sec
     gradient                   ...        0 min,  0.049 sec
 * total energy  :   -49.4322866 Eh     change       -0.4366875E-04 Eh
   gradient norm :     0.0016644 Eh/α   predicted    -0.2772506E-04 ( -36.51%)
   displ. norm   :     0.3320336 α      lambda       -0.5010985E-04
   maximum displ.:     0.2210939 α      in ANC's #2, #3, #1, ...

........................................................................
.............................. CYCLE   11 ..............................
........................................................................

 iter      E             dE          RMSdq      gap      omega  full diag
   1    -50.0225107 -0.500225E+02  0.517E-02    4.53       0.0  T
   2    -50.0225118 -0.111215E-05  0.307E-02    4.53       1.0  T
   3    -50.0225117  0.104500E-06  0.363E-03    4.53       4.6  T
   4    -50.0225120 -0.252458E-06  0.969E-04    4.53      17.2  T
   5    -50.0225120 -0.736506E-08  0.463E-04    4.53      36.0  T
     SCC iter.                  ...        0 min,  0.092 sec
     gradient                   ...        0 min,  0.049 sec
 * total energy  :   -49.4323378 Eh     change       -0.5113439E-04 Eh
   gradient norm :     0.0019114 Eh/α   predicted    -0.2628470E-04 ( -48.60%)
   displ. norm   :     0.1834830 α      lambda       -0.2681399E-04
   maximum displ.:     0.1263361 α      in ANC's #2, #3, #1, ...

........................................................................
.............................. CYCLE   12 ..............................
........................................................................

 iter      E             dE          RMSdq      gap      omega  full diag
   1    -50.0229780 -0.500230E+02  0.267E-02    4.53       0.0  T
   2    -50.0229786 -0.530920E-06  0.158E-02    4.53       1.1  T
   3    -50.0229785  0.703020E-07  0.264E-03    4.53       6.3  T
   4    -50.0229786 -0.123375E-06  0.566E-04    4.53      29.5  T
   5    -50.0229786 -0.434095E-08  0.253E-04    4.53      65.9  T
     SCC iter.                  ...        0 min,  0.068 sec
     gradient                   ...        0 min,  0.045 sec
 * total energy  :   -49.4323721 Eh     change       -0.3434385E-04 Eh
   gradient norm :     0.0015851 Eh/α   predicted    -0.1360934E-04 ( -60.37%)
   displ. norm   :     0.2167414 α      lambda       -0.3556678E-04
   maximum displ.:     0.1503989 α      in ANC's #2, #1, #3, ...

........................................................................
.............................. CYCLE   13 ..............................
........................................................................

 iter      E             dE          RMSdq      gap      omega  full diag
   1    -50.0233166 -0.500233E+02  0.334E-02    4.54       0.0  T
   2    -50.0233175 -0.961948E-06  0.198E-02    4.54       1.0  T
   3    -50.0233173  0.202642E-06  0.409E-03    4.54       4.1  T
   4    -50.0233177 -0.323232E-06  0.716E-04    4.54      23.3  T
   5    -50.0233177 -0.565702E-08  0.327E-04    4.54      51.0  T
     SCC iter.                  ...        0 min,  0.075 sec
     gradient                   ...        0 min,  0.042 sec
 * total energy  :   -49.4324143 Eh     change       -0.4216059E-04 Eh
   gradient norm :     0.0009718 Eh/α   predicted    -0.1815824E-04 ( -56.93%)
   displ. norm   :     0.2277075 α      lambda       -0.2815417E-04
   maximum displ.:     0.1590678 α      in ANC's #2, #1, #3, ...

........................................................................
.............................. CYCLE   14 ..............................
........................................................................

 iter      E             dE          RMSdq      gap      omega  full diag
   1    -50.0230269 -0.500230E+02  0.345E-02    4.54       0.0  T
   2    -50.0230274 -0.512602E-06  0.204E-02    4.54       1.0  T
   3    -50.0230273  0.114000E-06  0.287E-03    4.54       5.8  T
   4    -50.0230274 -0.188394E-06  0.608E-04    4.54      27.4  T
   5    -50.0230275 -0.319137E-08  0.293E-04    4.54      57.0  T
     SCC iter.                  ...        0 min,  0.071 sec
     gradient                   ...        0 min,  0.041 sec
 * total energy  :   -49.4324452 Eh     change       -0.3095731E-04 Eh
   gradient norm :     0.0012131 Eh/α   predicted    -0.1440238E-04 ( -53.48%)
   displ. norm   :     0.1705596 α      lambda       -0.1891968E-04
   maximum displ.:     0.1208987 α      in ANC's #2, #1, #3, ...

........................................................................
.............................. CYCLE   15 ..............................
........................................................................

 iter      E             dE          RMSdq      gap      omega  full diag
   1    -50.0233186 -0.500233E+02  0.259E-02    4.54       0.0  T
   2    -50.0233189 -0.327333E-06  0.153E-02    4.54       1.1  T
   3    -50.0233188  0.887146E-07  0.247E-03    4.54       6.8  T
   4    -50.0233190 -0.137837E-06  0.446E-04    4.54      37.3  T
   5    -50.0233190 -0.156803E-08  0.228E-04    4.54      73.1  T
     SCC iter.                  ...        0 min,  0.074 sec
     gradient                   ...        0 min,  0.037 sec
 * total energy  :   -49.4324675 Eh     change       -0.2223971E-04 Eh
   gradient norm :     0.0012019 Eh/α   predicted    -0.9582664E-05 ( -56.91%)
   displ. norm   :     0.1721427 α      lambda       -0.1869271E-04
   maximum displ.:     0.1203066 α      in ANC's #2, #1, #3, ...

........................................................................
.............................. CYCLE   16 ..............................
........................................................................

 iter      E             dE          RMSdq      gap      omega  full diag
   1    -50.0233181 -0.500233E+02  0.262E-02    4.54       0.0  T
   2    -50.0233183 -0.274844E-06  0.156E-02    4.54       1.1  T
   3    -50.0233183  0.381877E-07  0.193E-03    4.54       8.7  T
   4    -50.0233184 -0.752694E-07  0.430E-04    4.54      38.8  T
   5    -50.0233184 -0.127918E-08  0.236E-04    4.54      70.6  T
     SCC iter.                  ...        0 min,  0.092 sec
     gradient                   ...        0 min,  0.047 sec
 * total energy  :   -49.4324917 Eh     change       -0.2418280E-04 Eh
   gradient norm :     0.0008617 Eh/α   predicted    -0.9471142E-05 ( -60.84%)
   displ. norm   :     0.2131822 α      lambda       -0.2363475E-04
   maximum displ.:     0.1466598 α      in ANC's #2, #1, #3, ...

........................................................................
.............................. CYCLE   17 ..............................
........................................................................

 iter      E             dE          RMSdq      gap      omega  full diag
   1    -50.0232194 -0.500232E+02  0.358E-02    4.53       0.0  T
   2    -50.0232196 -0.243591E-06  0.213E-02    4.54       1.0  T
   3    -50.0232196 -0.137623E-07  0.148E-03    4.54      11.2  T
   4    -50.0232197 -0.371685E-07  0.553E-04    4.54      30.1  T
   5    -50.0232197 -0.453525E-09  0.221E-04    4.54      75.6  T
     SCC iter.                  ...        0 min,  0.186 sec
     gradient                   ...        0 min,  0.052 sec
 * total energy  :   -49.4325207 Eh     change       -0.2902851E-04 Eh
   gradient norm :     0.0008159 Eh/α   predicted    -0.1205996E-04 ( -58.45%)
   displ. norm   :     0.2396274 α      lambda       -0.2119978E-04
   maximum displ.:     0.1650001 α      in ANC's #2, #1, #3, ...

........................................................................
.............................. CYCLE   18 ..............................
........................................................................

 iter      E             dE          RMSdq      gap      omega  full diag
   1    -50.0228979 -0.500229E+02  0.405E-02    4.53       0.0  T
   2    -50.0228981 -0.269852E-06  0.240E-02    4.53       1.0  T
   3    -50.0228981 -0.208677E-07  0.158E-03    4.53      10.5  T
   4    -50.0228982 -0.442331E-07  0.640E-04    4.53      26.0  T
   5    -50.0228982 -0.553143E-09  0.234E-04    4.53      71.3  T
     SCC iter.                  ...        0 min,  0.077 sec
     gradient                   ...        0 min,  0.035 sec
 * total energy  :   -49.4325448 Eh     change       -0.2413302E-04 Eh
   gradient norm :     0.0009408 Eh/α   predicted    -0.1087305E-04 ( -54.95%)
   displ. norm   :     0.1957473 α      lambda       -0.1332056E-04
   maximum displ.:     0.1363210 α      in ANC's #2, #1, #3, ...

........................................................................
.............................. CYCLE   19 ..............................
........................................................................

 iter      E             dE          RMSdq      gap      omega  full diag
   1    -50.0232127 -0.500232E+02  0.331E-02    4.53       0.0  T
   2    -50.0232128 -0.136389E-06  0.196E-02    4.53       1.0  T
   3    -50.0232129 -0.263264E-07  0.112E-03    4.53      14.9  T
   4    -50.0232129 -0.169182E-07  0.543E-04    4.53      30.7  T
   5    -50.0232129 -0.374548E-09  0.207E-04    4.53      80.5  T
     SCC iter.                  ...        0 min,  0.214 sec
     gradient                   ...        0 min,  0.079 sec
 * total energy  :   -49.4325599 Eh     change       -0.1511314E-04 Eh
   gradient norm :     0.0009262 Eh/α   predicted    -0.6776233E-05 ( -55.16%)
   displ. norm   :     0.1893568 α      lambda       -0.1071100E-04
   maximum displ.:     0.1337499 α      in ANC's #2, #1, #3, ...

........................................................................
.............................. CYCLE   20 ..............................
........................................................................

 iter      E             dE          RMSdq      gap      omega  full diag
   1    -50.0229020 -0.500229E+02  0.313E-02    4.52       0.0  T
   2    -50.0229021 -0.133342E-06  0.185E-02    4.52       1.0  T
   3    -50.0229022 -0.340481E-07  0.945E-04    4.52      17.6  T
   4    -50.0229022 -0.590205E-08  0.505E-04    4.52      33.0  T
     SCC iter.                  ...        0 min,  0.089 sec
     gradient                   ...        0 min,  0.054 sec
 * total energy  :   -49.4325724 Eh     change       -0.1249484E-04 Eh
   gradient norm :     0.0007515 Eh/α   predicted    -0.5445313E-05 ( -56.42%)
   displ. norm   :     0.1978681 α      lambda       -0.1221738E-04
   maximum displ.:     0.1400923 α      in ANC's #2, #1, #3, ...
 * RMSD in coord.:     0.4881340 α      energy gain  -0.5740637E-02 Eh

generating ANC from exact Hessian ...
Using Lindh-Hessian (1995)
 Shifting diagonal of input Hessian by    9.7336043228310118E-003
 Lowest  eigenvalues of input Hessian
    0.000000    0.000000    0.000000    0.000000    0.000000    0.000000
    0.010000    0.010095    0.011038    0.011797    0.012034    0.012450
    0.013532    0.014034    0.014939    0.016835    0.017101    0.018983
 Highest eigenvalues
    1.329772    1.572620    1.806035    1.850909    2.296502    2.362583


........................................................................
.............................. CYCLE   21 ..............................
........................................................................

 iter      E             dE          RMSdq      gap      omega  full diag
   1    -50.0232322 -0.500232E+02  0.309E-02    4.52       0.0  T
   2    -50.0232323 -0.120303E-06  0.183E-02    4.52       1.0  T
   3    -50.0232323 -0.371625E-07  0.950E-04    4.52      17.5  T
   4    -50.0232323 -0.520784E-08  0.530E-04    4.52      31.4  T
     SCC iter.                  ...        0 min,  0.070 sec
     gradient                   ...        0 min,  0.052 sec
 * total energy  :   -49.4325871 Eh     change       -0.1470537E-04 Eh
   gradient norm :     0.0007488 Eh/α   predicted     0.0000000E+00 (-100.00%)
   displ. norm   :     0.0227512 α      lambda       -0.4460937E-05
   maximum displ.:     0.0139786 α      in ANC's #6, #2, #11, ...

........................................................................
.............................. CYCLE   22 ..............................
........................................................................

 iter      E             dE          RMSdq      gap      omega  full diag
   1    -50.0234236 -0.500234E+02  0.547E-03    4.52       0.0  T
   2    -50.0234237 -0.145618E-07  0.322E-03    4.52       5.2  T
   3    -50.0234237  0.141082E-08  0.433E-04    4.52      38.5  T
   4    -50.0234237 -0.370185E-08  0.124E-04    4.52     134.7  T
     SCC iter.                  ...        0 min,  0.070 sec
     gradient                   ...        0 min,  0.050 sec
 * total energy  :   -49.4325925 Eh     change       -0.5353352E-05 Eh
   gradient norm :     0.0002673 Eh/α   predicted    -0.2242765E-05 ( -58.11%)
   displ. norm   :     0.0746304 α      lambda       -0.9482751E-05
   maximum displ.:     0.0459841 α      in ANC's #6, #2, #11, ...

........................................................................
.............................. CYCLE   23 ..............................
........................................................................

 iter      E             dE          RMSdq      gap      omega  full diag
   1    -50.0235604 -0.500236E+02  0.146E-02    4.52       0.0  T
   2    -50.0235604 -0.350813E-07  0.866E-03    4.52       1.9  T
   3    -50.0235604  0.782288E-08  0.783E-04    4.52      21.3  T
   4    -50.0235604 -0.168764E-07  0.226E-04    4.52      73.6  T
     SCC iter.                  ...        0 min,  0.105 sec
     gradient                   ...        0 min,  0.039 sec
 * total energy  :   -49.4326026 Eh     change       -0.1009388E-04 Eh
   gradient norm :     0.0008792 Eh/α   predicted    -0.4755372E-05 ( -52.89%)
   displ. norm   :     0.0713318 α      lambda       -0.5981177E-05
   maximum displ.:     0.0434305 α      in ANC's #6, #2, #5, ...

........................................................................
.............................. CYCLE   24 ..............................
........................................................................

 iter      E             dE          RMSdq      gap      omega  full diag
   1    -50.0234595 -0.500235E+02  0.129E-02    4.52       0.0  T
   2    -50.0234596 -0.205021E-07  0.758E-03    4.52       2.2  T
   3    -50.0234596 -0.884178E-09  0.498E-04    4.52      33.5  T
   4    -50.0234596 -0.509382E-08  0.198E-04    4.52      84.3  T
     SCC iter.                  ...        0 min,  0.125 sec
     gradient                   ...        0 min,  0.066 sec
 * total energy  :   -49.4326091 Eh     change       -0.6478824E-05 Eh
   gradient norm :     0.0007250 Eh/α   predicted    -0.2997657E-05 ( -53.73%)
   displ. norm   :     0.0711941 α      lambda       -0.4883725E-05
   maximum displ.:     0.0417275 α      in ANC's #6, #2, #5, ...

........................................................................
.............................. CYCLE   25 ..............................
........................................................................

 iter      E             dE          RMSdq      gap      omega  full diag
   1    -50.0233840 -0.500234E+02  0.108E-02    4.52       0.0  T
   2    -50.0233841 -0.164056E-07  0.636E-03    4.52       2.6  T
   3    -50.0233841 -0.416077E-08  0.374E-04    4.52      44.6  T
   4    -50.0233841 -0.136166E-08  0.193E-04    4.52      86.2  T
     SCC iter.                  ...        0 min,  0.096 sec
     gradient                   ...        0 min,  0.056 sec
 * total energy  :   -49.4326143 Eh     change       -0.5249435E-05 Eh
   gradient norm :     0.0003223 Eh/α   predicted    -0.2449133E-05 ( -53.34%)
   displ. norm   :     0.0686292 α      lambda       -0.4223969E-05
   maximum displ.:     0.0429947 α      in ANC's #2, #6, #5, ...

........................................................................
.............................. CYCLE   26 ..............................
........................................................................

 iter      E             dE          RMSdq      gap      omega  full diag
   1    -50.0233341 -0.500233E+02  0.112E-02    4.51       0.0  T
   2    -50.0233341 -0.322667E-07  0.664E-03    4.51       2.5  T
   3    -50.0233341  0.729322E-08  0.846E-04    4.51      19.7  T
   4    -50.0233341 -0.176416E-07  0.260E-04    4.51      64.2  T
     SCC iter.                  ...        0 min,  0.067 sec
     gradient                   ...        0 min,  0.045 sec
 * total energy  :   -49.4326192 Eh     change       -0.4918902E-05 Eh
   gradient norm :     0.0004158 Eh/α   predicted    -0.2116636E-05 ( -56.97%)
   displ. norm   :     0.0653726 α      lambda       -0.4037875E-05
   maximum displ.:     0.0445312 α      in ANC's #2, #6, #5, ...

........................................................................
.............................. CYCLE   27 ..............................
........................................................................

 iter      E             dE          RMSdq      gap      omega  full diag
   1    -50.0233247 -0.500233E+02  0.117E-02    4.51       0.0  T
   2    -50.0233248 -0.485992E-07  0.692E-03    4.51       2.4  T
   3    -50.0233248  0.570034E-08  0.890E-04    4.51      18.7  T
   4    -50.0233248 -0.178964E-07  0.288E-04    4.51      57.8  T
     SCC iter.                  ...        0 min,  0.066 sec
     gradient                   ...        0 min,  0.045 sec
 * total energy  :   -49.4326241 Eh     change       -0.4890591E-05 Eh
   gradient norm :     0.0005116 Eh/α   predicted    -0.2024425E-05 ( -58.61%)
   displ. norm   :     0.0606485 α      lambda       -0.3737811E-05
   maximum displ.:     0.0446435 α      in ANC's #2, #5, #6, ...

........................................................................
.............................. CYCLE   28 ..............................
........................................................................

 iter      E             dE          RMSdq      gap      omega  full diag
   1    -50.0233816 -0.500234E+02  0.117E-02    4.50       0.0  T
   2    -50.0233817 -0.565179E-07  0.694E-03    4.50       2.4  T
   3    -50.0233817  0.894505E-08  0.102E-03    4.50      16.3  T
   4    -50.0233817 -0.239513E-07  0.310E-04    4.50      53.7  T
   5    -50.0233817 -0.225128E-09  0.151E-04    4.50     110.7  T
     SCC iter.                  ...        0 min,  0.079 sec
     gradient                   ...        0 min,  0.043 sec
 * total energy  :   -49.4326286 Eh     change       -0.4467964E-05 Eh
   gradient norm :     0.0003502 Eh/α   predicted    -0.1872167E-05 ( -58.10%)
   displ. norm   :     0.0535842 α      lambda       -0.3159862E-05
   maximum displ.:     0.0415267 α      in ANC's #2, #9, #5, ...

........................................................................
.............................. CYCLE   29 ..............................
........................................................................

 iter      E             dE          RMSdq      gap      omega  full diag
   1    -50.0234379 -0.500234E+02  0.110E-02    4.50       0.0  T
   2    -50.0234379 -0.457964E-07  0.649E-03    4.50       2.6  T
   3    -50.0234379  0.210632E-08  0.794E-04    4.50      21.0  T
   4    -50.0234380 -0.140700E-07  0.276E-04    4.50      60.4  T
     SCC iter.                  ...        0 min,  0.066 sec
     gradient                   ...        0 min,  0.048 sec
 * total energy  :   -49.4326326 Eh     change       -0.3967978E-05 Eh
   gradient norm :     0.0002594 Eh/α   predicted    -0.1586701E-05 ( -60.01%)
   displ. norm   :     0.0543768 α      lambda       -0.3309608E-05
   maximum displ.:     0.0424192 α      in ANC's #2, #9, #11, ...

........................................................................
.............................. CYCLE   30 ..............................
........................................................................

 iter      E             dE          RMSdq      gap      omega  full diag
   1    -50.0234716 -0.500235E+02  0.117E-02    4.50       0.0  T
   2    -50.0234716 -0.362689E-07  0.688E-03    4.50       2.4  T
   3    -50.0234716 -0.155173E-08  0.724E-04    4.49      23.0  T
   4    -50.0234716 -0.115418E-07  0.289E-04    4.50      57.7  T
     SCC iter.                  ...        0 min,  0.050 sec
     gradient                   ...        0 min,  0.032 sec
 * total energy  :   -49.4326370 Eh     change       -0.4437641E-05 Eh
   gradient norm :     0.0002800 Eh/α   predicted    -0.1659020E-05 ( -62.61%)
   displ. norm   :     0.0658183 α      lambda       -0.4152921E-05
   maximum displ.:     0.0506519 α      in ANC's #2, #9, #11, ...

........................................................................
.............................. CYCLE   31 ..............................
........................................................................

 iter      E             dE          RMSdq      gap      omega  full diag
   1    -50.0234850 -0.500235E+02  0.151E-02    4.49       0.0  T
   2    -50.0234851 -0.489759E-07  0.884E-03    4.49       1.9  T
   3    -50.0234851 -0.535329E-08  0.790E-04    4.49      21.1  T
   4    -50.0234851 -0.132105E-07  0.334E-04    4.49      50.0  T
     SCC iter.                  ...        0 min,  0.121 sec
     gradient                   ...        0 min,  0.051 sec
 * total energy  :   -49.4326425 Eh     change       -0.5539481E-05 Eh
   gradient norm :     0.0003935 Eh/α   predicted    -0.2084405E-05 ( -62.37%)
   displ. norm   :     0.0800443 α      lambda       -0.4623465E-05
   maximum displ.:     0.0615537 α      in ANC's #2, #11, #9, ...

........................................................................
.............................. CYCLE   32 ..............................
........................................................................

 iter      E             dE          RMSdq      gap      omega  full diag
   1    -50.0234480 -0.500234E+02  0.191E-02    4.48       0.0  T
   2    -50.0234481 -0.654133E-07  0.112E-02    4.49       1.5  T
   3    -50.0234481 -0.755998E-08  0.955E-04    4.48      17.4  T
   4    -50.0234481 -0.199928E-07  0.401E-04    4.48      41.6  T
     SCC iter.                  ...        0 min,  0.101 sec
     gradient                   ...        0 min,  0.049 sec
 * total energy  :   -49.4326486 Eh     change       -0.6040911E-05 Eh
   gradient norm :     0.0003466 Eh/α   predicted    -0.2322877E-05 ( -61.55%)
   displ. norm   :     0.0767875 α      lambda       -0.3766907E-05
   maximum displ.:     0.0603026 α      in ANC's #2, #11, #8, ...

........................................................................
.............................. CYCLE   33 ..............................
........................................................................

 iter      E             dE          RMSdq      gap      omega  full diag
   1    -50.0234199 -0.500234E+02  0.179E-02    4.48       0.0  T
   2    -50.0234199 -0.563104E-07  0.105E-02    4.48       1.6  T
   3    -50.0234199 -0.583471E-08  0.927E-04    4.48      18.0  T
   4    -50.0234200 -0.191395E-07  0.382E-04    4.48      43.7  T
     SCC iter.                  ...        0 min,  0.070 sec
     gradient                   ...        0 min,  0.051 sec
 * total energy  :   -49.4326536 Eh     change       -0.5041530E-05 Eh
   gradient norm :     0.0002460 Eh/α   predicted    -0.1891507E-05 ( -62.48%)
   displ. norm   :     0.0586847 α      lambda       -0.2732007E-05
   maximum displ.:     0.0474283 α      in ANC's #2, #11, #8, ...

........................................................................
.............................. CYCLE   34 ..............................
........................................................................

 iter      E             dE          RMSdq      gap      omega  full diag
   1    -50.0234202 -0.500234E+02  0.131E-02    4.47       0.0  T
   2    -50.0234202 -0.315807E-07  0.768E-03    4.48       2.2  T
   3    -50.0234202 -0.258156E-08  0.713E-04    4.47      23.4  T
   4    -50.0234202 -0.113105E-07  0.286E-04    4.47      58.3  T
     SCC iter.                  ...        0 min,  0.113 sec
     gradient                   ...        0 min,  0.050 sec
 * total energy  :   -49.4326575 Eh     change       -0.3843643E-05 Eh
   gradient norm :     0.0001775 Eh/α   predicted    -0.1369555E-05 ( -64.37%)
   displ. norm   :     0.0467629 α      lambda       -0.2432342E-05
   maximum displ.:     0.0383691 α      in ANC's #2, #11, #5, ...

........................................................................
.............................. CYCLE   35 ..............................
........................................................................

 iter      E             dE          RMSdq      gap      omega  full diag
   1    -50.0234259 -0.500234E+02  0.958E-03    4.47       0.0  T
   2    -50.0234259 -0.179093E-07  0.562E-03    4.47       3.0  T
   3    -50.0234259 -0.161683E-08  0.520E-04    4.47      32.1  T
   4    -50.0234259 -0.578382E-08  0.213E-04    4.47      78.1  T
     SCC iter.                  ...        0 min,  0.062 sec
     gradient                   ...        0 min,  0.042 sec
 * total energy  :   -49.4326610 Eh     change       -0.3531455E-05 Eh
   gradient norm :     0.0001776 Eh/α   predicted    -0.1218335E-05 ( -65.50%)
   displ. norm   :     0.0493470 α      lambda       -0.2897480E-05
   maximum displ.:     0.0396788 α      in ANC's #2, #4, #5, ...

........................................................................
.............................. CYCLE   36 ..............................
........................................................................

 iter      E             dE          RMSdq      gap      omega  full diag
   1    -50.0234310 -0.500234E+02  0.915E-03    4.47       0.0  T
   2    -50.0234310 -0.154595E-07  0.538E-03    4.47       3.1  T
   3    -50.0234310 -0.186755E-08  0.477E-04    4.47      35.0  T
   4    -50.0234310 -0.449651E-08  0.206E-04    4.47      81.1  T
     SCC iter.                  ...        0 min,  0.053 sec
     gradient                   ...        0 min,  0.038 sec
 * total energy  :   -49.4326652 Eh     change       -0.4197780E-05 Eh
   gradient norm :     0.0002237 Eh/α   predicted    -0.1451113E-05 ( -65.43%)
   displ. norm   :     0.0668882 α      lambda       -0.4059418E-05
   maximum displ.:     0.0520944 α      in ANC's #2, #4, #5, ...

........................................................................
.............................. CYCLE   37 ..............................
........................................................................

 iter      E             dE          RMSdq      gap      omega  full diag
   1    -50.0234116 -0.500234E+02  0.117E-02    4.47       0.0  T
   2    -50.0234116 -0.207852E-07  0.688E-03    4.47       2.4  T
   3    -50.0234116 -0.437552E-08  0.506E-04    4.47      33.0  T
   4    -50.0234116 -0.414634E-08  0.245E-04    4.47      68.1  T
     SCC iter.                  ...        0 min,  0.053 sec
     gradient                   ...        0 min,  0.038 sec
 * total energy  :   -49.4326710 Eh     change       -0.5845124E-05 Eh
   gradient norm :     0.0002705 Eh/α   predicted    -0.2034382E-05 ( -65.20%)
   displ. norm   :     0.0932109 α      lambda       -0.5526413E-05
   maximum displ.:     0.0708512 α      in ANC's #2, #4, #5, ...

........................................................................
.............................. CYCLE   38 ..............................
........................................................................

 iter      E             dE          RMSdq      gap      omega  full diag
   1    -50.0233803 -0.500234E+02  0.155E-02    4.46       0.0  T
   2    -50.0233803 -0.288259E-07  0.917E-03    4.46       1.8  T
   3    -50.0233804 -0.858632E-08  0.586E-04    4.46      28.4  T
   4    -50.0233804 -0.451041E-08  0.307E-04    4.46      54.3  T
     SCC iter.                  ...        0 min,  0.052 sec
     gradient                   ...        0 min,  0.036 sec
 * total energy  :   -49.4326789 Eh     change       -0.7885068E-05 Eh
   gradient norm :     0.0003047 Eh/α   predicted    -0.2774533E-05 ( -64.81%)
   displ. norm   :     0.1198089 α      lambda       -0.6738017E-05
   maximum displ.:     0.0898356 α      in ANC's #2, #4, #5, ...

........................................................................
.............................. CYCLE   39 ..............................
........................................................................

 iter      E             dE          RMSdq      gap      omega  full diag
   1    -50.0233120 -0.500233E+02  0.196E-02    4.46       0.0  T
   2    -50.0233120 -0.383686E-07  0.116E-02    4.46       1.4  T
   3    -50.0233120 -0.146656E-07  0.627E-04    4.46      26.6  T
   4    -50.0233120 -0.312448E-08  0.348E-04    4.46      47.9  T
     SCC iter.                  ...        0 min,  0.053 sec
     gradient                   ...        0 min,  0.037 sec
 * total energy  :   -49.4326885 Eh     change       -0.9586883E-05 Eh
   gradient norm :     0.0003447 Eh/α   predicted    -0.3391563E-05 ( -64.62%)
   displ. norm   :     0.1367247 α      lambda       -0.7353203E-05
   maximum displ.:     0.1018605 α      in ANC's #2, #4, #5, ...

........................................................................
.............................. CYCLE   40 ..............................
........................................................................

 iter      E             dE          RMSdq      gap      omega  full diag
   1    -50.0232464 -0.500232E+02  0.221E-02    4.46       0.0  T
   2    -50.0232464 -0.443284E-07  0.130E-02    4.46       1.3  T
   3    -50.0232464 -0.178764E-07  0.661E-04    4.46      25.2  T
   4    -50.0232465 -0.277182E-08  0.364E-04    4.46      45.7  T
     SCC iter.                  ...        0 min,  0.053 sec
     gradient                   ...        0 min,  0.047 sec
 * total energy  :   -49.4326990 Eh     change       -0.1049827E-04 Eh
   gradient norm :     0.0003948 Eh/α   predicted    -0.3708462E-05 ( -64.68%)
   displ. norm   :     0.1455889 α      lambda       -0.7687392E-05
   maximum displ.:     0.1083860 α      in ANC's #2, #4, #3, ...

........................................................................
.............................. CYCLE   41 ..............................
........................................................................

 iter      E             dE          RMSdq      gap      omega  full diag
   1    -50.0232048 -0.500232E+02  0.234E-02    4.45       0.0  T
   2    -50.0232049 -0.500873E-07  0.138E-02    4.45       1.2  T
   3    -50.0232049 -0.183190E-07  0.705E-04    4.45      23.6  T
   4    -50.0232049 -0.373833E-08  0.379E-04    4.45      44.0  T
     SCC iter.                  ...        0 min,  0.062 sec
     gradient                   ...        0 min,  0.047 sec
 * total energy  :   -49.4327100 Eh     change       -0.1103296E-04 Eh
   gradient norm :     0.0004362 Eh/α   predicted    -0.3881044E-05 ( -64.82%)
   displ. norm   :     0.1525742 α      lambda       -0.8178578E-05
   maximum displ.:     0.1140080 α      in ANC's #2, #4, #5, ...

........................................................................
.............................. CYCLE   42 ..............................
........................................................................

 iter      E             dE          RMSdq      gap      omega  full diag
   1    -50.0231847 -0.500232E+02  0.247E-02    4.45       0.0  T
   2    -50.0231848 -0.589033E-07  0.146E-02    4.45       1.1  T
   3    -50.0231848 -0.177868E-07  0.789E-04    4.45      21.1  T
   4    -50.0231848 -0.669102E-08  0.407E-04    4.45      40.9  T
     SCC iter.                  ...        0 min,  0.060 sec
     gradient                   ...        0 min,  0.050 sec
 * total energy  :   -49.4327218 Eh     change       -0.1178158E-04 Eh
   gradient norm :     0.0004483 Eh/α   predicted    -0.4134769E-05 ( -64.90%)
   displ. norm   :     0.1666645 α      lambda       -0.9116200E-05
   maximum displ.:     0.1254035 α      in ANC's #2, #4, #5, ...
 * RMSD in coord.:     0.2597911 α      energy gain  -0.1493886E-03 Eh

generating ANC from exact Hessian ...
Using Lindh-Hessian (1995)
 Shifting diagonal of input Hessian by    9.7366506552683980E-003
 Lowest  eigenvalues of input Hessian
    0.000000    0.000000    0.000000    0.000000    0.000000    0.000000
    0.010000    0.010113    0.011045    0.011771    0.012112    0.012484
    0.013478    0.013996    0.015024    0.016842    0.017045    0.019030
 Highest eigenvalues
    1.329791    1.571530    1.805828    1.850936    2.294883    2.361793


........................................................................
.............................. CYCLE   43 ..............................
........................................................................

 iter      E             dE          RMSdq      gap      omega  full diag
   1    -50.0231658 -0.500232E+02  0.273E-02    4.44       0.0  T
   2    -50.0231658 -0.797657E-07  0.161E-02    4.44       1.0  T
   3    -50.0231659 -0.147780E-07  0.101E-03    4.44      16.5  T
   4    -50.0231659 -0.165992E-07  0.466E-04    4.44      35.7  T
   5    -50.0231659 -0.495881E-09  0.134E-04    4.44     124.5  T
     SCC iter.                  ...        0 min,  0.081 sec
     gradient                   ...        0 min,  0.048 sec
 * total energy  :   -49.4327350 Eh     change       -0.1315003E-04 Eh
   gradient norm :     0.0004939 Eh/α   predicted     0.0000000E+00 (-100.00%)
   displ. norm   :     0.0178391 α      lambda       -0.2761256E-06
   maximum displ.:     0.0149194 α      in ANC's #2, #8, #9, ...

........................................................................
.............................. CYCLE   44 ..............................
........................................................................

 iter      E             dE          RMSdq      gap      omega  full diag
   1    -50.0235440 -0.500235E+02  0.481E-03    4.44       0.0  T
   2    -50.0235440 -0.151146E-07  0.281E-03    4.44       5.9  T
   3    -50.0235440 -0.569180E-09  0.340E-04    4.44      49.0  T
   4    -50.0235440 -0.123843E-08  0.108E-04    4.44     154.6  T
     SCC iter.                  ...        0 min,  0.076 sec
     gradient                   ...        0 min,  0.048 sec
 * total energy  :   -49.4327377 Eh     change       -0.2762481E-05 Eh
   gradient norm :     0.0002368 Eh/α   predicted    -0.1096916E-05 ( -60.29%)
   displ. norm   :     0.0389539 α      lambda       -0.3599120E-05
   maximum displ.:     0.0297194 α      in ANC's #2, #8, #9, ...

........................................................................
.............................. CYCLE   45 ..............................
........................................................................

 iter      E             dE          RMSdq      gap      omega  full diag
   1    -50.0237634 -0.500238E+02  0.107E-02    4.44       0.0  T
   2    -50.0237635 -0.290726E-07  0.631E-03    4.44       2.6  T
   3    -50.0237635 -0.653479E-09  0.603E-04    4.44      27.7  T
   4    -50.0237635 -0.743174E-08  0.237E-04    4.44      70.4  T
     SCC iter.                  ...        0 min,  0.068 sec
     gradient                   ...        0 min,  0.050 sec
 * total energy  :   -49.4327424 Eh     change       -0.4698526E-05 Eh
   gradient norm :     0.0005208 Eh/α   predicted    -0.1801038E-05 ( -61.67%)
   displ. norm   :     0.0600425 α      lambda       -0.4575185E-05
   maximum displ.:     0.0451626 α      in ANC's #2, #9, #8, ...

........................................................................
.............................. CYCLE   46 ..............................
........................................................................

 iter      E             dE          RMSdq      gap      omega  full diag
   1    -50.0236420 -0.500236E+02  0.164E-02    4.44       0.0  T
   2    -50.0236421 -0.629159E-07  0.967E-03    4.44       1.7  T
   3    -50.0236421  0.516660E-08  0.103E-03    4.44      16.3  T
   4    -50.0236421 -0.255389E-07  0.361E-04    4.44      46.1  T
   5    -50.0236421 -0.318117E-09  0.168E-04    4.44      99.4  T
     SCC iter.                  ...        0 min,  0.074 sec
     gradient                   ...        0 min,  0.037 sec
 * total energy  :   -49.4327482 Eh     change       -0.5722279E-05 Eh
   gradient norm :     0.0004292 Eh/α   predicted    -0.2296970E-05 ( -59.86%)
   displ. norm   :     0.0553394 α      lambda       -0.3245670E-05
   maximum displ.:     0.0434555 α      in ANC's #2, #9, #8, ...

........................................................................
.............................. CYCLE   47 ..............................
........................................................................

 iter      E             dE          RMSdq      gap      omega  full diag
   1    -50.0235056 -0.500235E+02  0.141E-02    4.43       0.0  T
   2    -50.0235057 -0.464056E-07  0.829E-03    4.43       2.0  T
   3    -50.0235057  0.690732E-08  0.928E-04    4.43      18.0  T
   4    -50.0235057 -0.219807E-07  0.298E-04    4.43      55.9  T
     SCC iter.                  ...        0 min,  0.086 sec
     gradient                   ...        0 min,  0.051 sec
 * total energy  :   -49.4327523 Eh     change       -0.4100679E-05 Eh
   gradient norm :     0.0002572 Eh/α   predicted    -0.1626434E-05 ( -60.34%)
   displ. norm   :     0.0364503 α      lambda       -0.1959137E-05
   maximum displ.:     0.0303009 α      in ANC's #2, #9, #4, ...

........................................................................
.............................. CYCLE   48 ..............................
........................................................................

 iter      E             dE          RMSdq      gap      omega  full diag
   1    -50.0233866 -0.500234E+02  0.823E-03    4.43       0.0  T
   2    -50.0233866 -0.157981E-07  0.483E-03    4.43       3.4  T
   3    -50.0233866  0.238662E-08  0.532E-04    4.43      31.3  T
   4    -50.0233866 -0.738114E-08  0.168E-04    4.43      99.5  T
     SCC iter.                  ...        0 min,  0.118 sec
     gradient                   ...        0 min,  0.055 sec
 * total energy  :   -49.4327550 Eh     change       -0.2757278E-05 Eh
   gradient norm :     0.0001713 Eh/α   predicted    -0.9876384E-06 ( -64.18%)
   displ. norm   :     0.0288916 α      lambda       -0.1864993E-05
   maximum displ.:     0.0243748 α      in ANC's #2, #1, #9, ...

........................................................................
.............................. CYCLE   49 ..............................
........................................................................

 iter      E             dE          RMSdq      gap      omega  full diag
   1    -50.0233469 -0.500233E+02  0.528E-03    4.43       0.0  T
   2    -50.0233469 -0.566826E-08  0.310E-03    4.43       5.4  T
   3    -50.0233469  0.880540E-09  0.325E-04    4.43      51.3  T
   4    -50.0233469 -0.270543E-08  0.101E-04    4.43     165.2  T
     SCC iter.                  ...        0 min,  0.063 sec
     gradient                   ...        0 min,  0.044 sec
 * total energy  :   -49.4327577 Eh     change       -0.2674751E-05 Eh
   gradient norm :     0.0002036 Eh/α   predicted    -0.9349707E-06 ( -65.04%)
   displ. norm   :     0.0363401 α      lambda       -0.2501568E-05
   maximum displ.:     0.0294870 α      in ANC's #2, #1, #6, ...

........................................................................
.............................. CYCLE   50 ..............................
........................................................................

 iter      E             dE          RMSdq      gap      omega  full diag
   1    -50.0233355 -0.500233E+02  0.596E-03    4.43       0.0  T
   2    -50.0233355 -0.801165E-08  0.352E-03    4.43       4.7  T
   3    -50.0233355  0.101074E-08  0.371E-04    4.43      44.9  T
   4    -50.0233355 -0.335496E-08  0.119E-04    4.43     139.9  T
     SCC iter.                  ...        0 min,  0.057 sec
     gradient                   ...        0 min,  0.040 sec
 * total energy  :   -49.4327612 Eh     change       -0.3525048E-05 Eh
   gradient norm :     0.0002355 Eh/α   predicted    -0.1252500E-05 ( -64.47%)
   displ. norm   :     0.0508216 α      lambda       -0.3298549E-05
   maximum displ.:     0.0401428 α      in ANC's #2, #1, #6, ...

........................................................................
.............................. CYCLE   51 ..............................
........................................................................

 iter      E             dE          RMSdq      gap      omega  full diag
   1    -50.0233515 -0.500234E+02  0.780E-03    4.43       0.0  T
   2    -50.0233515 -0.137475E-07  0.461E-03    4.43       3.6  T
   3    -50.0233515  0.444572E-09  0.481E-04    4.43      34.7  T
   4    -50.0233515 -0.506027E-08  0.179E-04    4.43      93.2  T
     SCC iter.                  ...        0 min,  0.088 sec
     gradient                   ...        0 min,  0.044 sec
 * total energy  :   -49.4327657 Eh     change       -0.4497402E-05 Eh
   gradient norm :     0.0002393 Eh/α   predicted    -0.1655656E-05 ( -63.19%)
   displ. norm   :     0.0630970 α      lambda       -0.3672721E-05
   maximum displ.:     0.0491438 α      in ANC's #2, #1, #6, ...

........................................................................
.............................. CYCLE   52 ..............................
........................................................................

 iter      E             dE          RMSdq      gap      omega  full diag
   1    -50.0233754 -0.500234E+02  0.945E-03    4.42       0.0  T
   2    -50.0233754 -0.206633E-07  0.558E-03    4.42       3.0  T
   3    -50.0233754 -0.118739E-09  0.563E-04    4.42      29.6  T
   4    -50.0233754 -0.680339E-08  0.217E-04    4.42      76.9  T
     SCC iter.                  ...        0 min,  0.072 sec
     gradient                   ...        0 min,  0.030 sec
 * total energy  :   -49.4327707 Eh     change       -0.5023084E-05 Eh
   gradient norm :     0.0002165 Eh/α   predicted    -0.1844671E-05 ( -63.28%)
   displ. norm   :     0.0681647 α      lambda       -0.3707015E-05
   maximum displ.:     0.0528356 α      in ANC's #2, #1, #6, ...

........................................................................
.............................. CYCLE   53 ..............................
........................................................................

 iter      E             dE          RMSdq      gap      omega  full diag
   1    -50.0233887 -0.500234E+02  0.105E-02    4.42       0.0  T
   2    -50.0233887 -0.240327E-07  0.617E-03    4.42       2.7  T
   3    -50.0233887 -0.138144E-08  0.592E-04    4.42      28.1  T
   4    -50.0233887 -0.719945E-08  0.240E-04    4.42      69.3  T
     SCC iter.                  ...        0 min,  0.044 sec
     gradient                   ...        0 min,  0.033 sec
 * total energy  :   -49.4327760 Eh     change       -0.5256965E-05 Eh
   gradient norm :     0.0001980 Eh/α   predicted    -0.1859103E-05 ( -64.64%)
   displ. norm   :     0.0738127 α      lambda       -0.4070615E-05
   maximum displ.:     0.0567462 α      in ANC's #2, #1, #5, ...

........................................................................
.............................. CYCLE   54 ..............................
........................................................................

 iter      E             dE          RMSdq      gap      omega  full diag
   1    -50.0233966 -0.500234E+02  0.114E-02    4.42       0.0  T
   2    -50.0233967 -0.253187E-07  0.671E-03    4.42       2.5  T
   3    -50.0233967 -0.423589E-08  0.553E-04    4.41      30.1  T
   4    -50.0233967 -0.539289E-08  0.251E-04    4.42      66.5  T
     SCC iter.                  ...        0 min,  0.053 sec
     gradient                   ...        0 min,  0.037 sec
 * total energy  :   -49.4327819 Eh     change       -0.5906096E-05 Eh
   gradient norm :     0.0002210 Eh/α   predicted    -0.2041513E-05 ( -65.43%)
   displ. norm   :     0.0884179 α      lambda       -0.5110380E-05
   maximum displ.:     0.0675012 α      in ANC's #2, #1, #5, ...

........................................................................
.............................. CYCLE   55 ..............................
........................................................................

 iter      E             dE          RMSdq      gap      omega  full diag
   1    -50.0233978 -0.500234E+02  0.145E-02    4.41       0.0  T
   2    -50.0233978 -0.409015E-07  0.852E-03    4.41       2.0  T
   3    -50.0233978 -0.457067E-08  0.743E-04    4.41      22.4  T
   4    -50.0233978 -0.109371E-07  0.312E-04    4.41      53.4  T
     SCC iter.                  ...        0 min,  0.064 sec
     gradient                   ...        0 min,  0.037 sec
 * total energy  :   -49.4327893 Eh     change       -0.7417900E-05 Eh
   gradient norm :     0.0001901 Eh/α   predicted    -0.2566803E-05 ( -65.40%)
   displ. norm   :     0.1131965 α      lambda       -0.6657772E-05
   maximum displ.:     0.0858170 α      in ANC's #2, #1, #5, ...

........................................................................
.............................. CYCLE   56 ..............................
........................................................................

 iter      E             dE          RMSdq      gap      omega  full diag
   1    -50.0233610 -0.500234E+02  0.188E-02    4.41       0.0  T
   2    -50.0233610 -0.655839E-07  0.110E-02    4.41       1.5  T
   3    -50.0233611 -0.131755E-07  0.840E-04    4.40      19.8  T
   4    -50.0233611 -0.115199E-07  0.390E-04    4.40      42.7  T
     SCC iter.                  ...        0 min,  0.053 sec
     gradient                   ...        0 min,  0.035 sec
 * total energy  :   -49.4327989 Eh     change       -0.9599158E-05 Eh
   gradient norm :     0.0002289 Eh/α   predicted    -0.3348189E-05 ( -65.12%)
   displ. norm   :     0.1389186 α      lambda       -0.8079218E-05
   maximum displ.:     0.1055025 α      in ANC's #2, #1, #5, ...

........................................................................
.............................. CYCLE   57 ..............................
........................................................................

 iter      E             dE          RMSdq      gap      omega  full diag
   1    -50.0232918 -0.500233E+02  0.235E-02    4.40       0.0  T
   2    -50.0232919 -0.103829E-06  0.138E-02    4.40       1.2  T
   3    -50.0232919 -0.147908E-07  0.115E-03    4.40      14.5  T
   4    -50.0232920 -0.249578E-07  0.495E-04    4.40      33.7  T
   5    -50.0232920 -0.584592E-09  0.192E-04    4.40      86.9  T
     SCC iter.                  ...        0 min,  0.066 sec
     gradient                   ...        0 min,  0.037 sec
 * total energy  :   -49.4328105 Eh     change       -0.1160629E-04 Eh
   gradient norm :     0.0002611 Eh/α   predicted    -0.4078825E-05 ( -64.86%)
   displ. norm   :     0.1511462 α      lambda       -0.8623969E-05
   maximum displ.:     0.1151022 α      in ANC's #2, #1, #5, ...

........................................................................
.............................. CYCLE   58 ..............................
........................................................................

 iter      E             dE          RMSdq      gap      omega  full diag
   1    -50.0232245 -0.500232E+02  0.257E-02    4.39       0.0  T
   2    -50.0232246 -0.121585E-06  0.150E-02    4.39       1.1  T
   3    -50.0232246 -0.223400E-07  0.118E-03    4.39      14.2  T
   4    -50.0232246 -0.237655E-07  0.535E-04    4.39      31.1  T
   5    -50.0232246 -0.735348E-09  0.208E-04    4.39      80.1  T
     SCC iter.                  ...        0 min,  0.075 sec
     gradient                   ...        0 min,  0.034 sec
 * total energy  :   -49.4328229 Eh     change       -0.1236547E-04 Eh
   gradient norm :     0.0003474 Eh/α   predicted    -0.4357312E-05 ( -64.76%)
   displ. norm   :     0.1484797 α      lambda       -0.8473260E-05
   maximum displ.:     0.1136908 α      in ANC's #2, #1, #5, ...

........................................................................
.............................. CYCLE   59 ..............................
........................................................................

 iter      E             dE          RMSdq      gap      omega  full diag
   1    -50.0231698 -0.500232E+02  0.252E-02    4.38       0.0  T
   2    -50.0231699 -0.108559E-06  0.147E-02    4.38       1.1  T
   3    -50.0231699 -0.222916E-07  0.113E-03    4.38      14.7  T
   4    -50.0231700 -0.212945E-07  0.526E-04    4.38      31.7  T
   5    -50.0231700 -0.663604E-09  0.188E-04    4.38      88.9  T
     SCC iter.                  ...        0 min,  0.060 sec
     gradient                   ...        0 min,  0.033 sec
 * total energy  :   -49.4328351 Eh     change       -0.1222829E-04 Eh
   gradient norm :     0.0003996 Eh/α   predicted    -0.4280270E-05 ( -65.00%)
   displ. norm   :     0.1435381 α      lambda       -0.8377176E-05
   maximum displ.:     0.1105396 α      in ANC's #2, #1, #5, ...

........................................................................
.............................. CYCLE   60 ..............................
........................................................................

 iter      E             dE          RMSdq      gap      omega  full diag
   1    -50.0231673 -0.500232E+02  0.243E-02    4.38       0.0  T
   2    -50.0231673 -0.966254E-07  0.143E-02    4.38       1.2  T
   3    -50.0231674 -0.227573E-07  0.105E-03    4.38      15.8  T
   4    -50.0231674 -0.171326E-07  0.507E-04    4.38      32.9  T
   5    -50.0231674 -0.626045E-09  0.171E-04    4.38      97.2  T
     SCC iter.                  ...        0 min,  0.057 sec
     gradient                   ...        0 min,  0.032 sec
 * total energy  :   -49.4328472 Eh     change       -0.1209933E-04 Eh
   gradient norm :     0.0003943 Eh/α   predicted    -0.4229342E-05 ( -65.04%)
   displ. norm   :     0.1414623 α      lambda       -0.8448614E-05
   maximum displ.:     0.1094921 α      in ANC's #2, #1, #5, ...

........................................................................
.............................. CYCLE   61 ..............................
........................................................................

 iter      E             dE          RMSdq      gap      omega  full diag
   1    -50.0231691 -0.500232E+02  0.239E-02    4.37       0.0  T
   2    -50.0231692 -0.889123E-07  0.140E-02    4.37       1.2  T
   3    -50.0231692 -0.199851E-07  0.104E-03    4.37      16.1  T
   4    -50.0231692 -0.173441E-07  0.494E-04    4.37      33.7  T
   5    -50.0231692 -0.584912E-09  0.158E-04    4.37     105.7  T
     SCC iter.                  ...        0 min,  0.148 sec
     gradient                   ...        0 min,  0.051 sec
 * total energy  :   -49.4328593 Eh     change       -0.1213174E-04 Eh
   gradient norm :     0.0003973 Eh/α   predicted    -0.4264489E-05 ( -64.85%)
   displ. norm   :     0.1441635 α      lambda       -0.8560632E-05
   maximum displ.:     0.1120709 α      in ANC's #2, #1, #4, ...

........................................................................
.............................. CYCLE   62 ..............................
........................................................................

 iter      E             dE          RMSdq      gap      omega  full diag
   1    -50.0231802 -0.500232E+02  0.242E-02    4.37       0.0  T
   2    -50.0231803 -0.862327E-07  0.142E-02    4.37       1.2  T
   3    -50.0231803 -0.210430E-07  0.100E-03    4.36      16.6  T
   4    -50.0231803 -0.152589E-07  0.489E-04    4.36      34.1  T
   5    -50.0231803 -0.597005E-09  0.156E-04    4.36     107.1  T
     SCC iter.                  ...        0 min,  0.144 sec
     gradient                   ...        0 min,  0.058 sec
 * total energy  :   -49.4328715 Eh     change       -0.1215771E-04 Eh
   gradient norm :     0.0003477 Eh/α   predicted    -0.4322076E-05 ( -64.45%)
   displ. norm   :     0.1450732 α      lambda       -0.8247875E-05
   maximum displ.:     0.1131640 α      in ANC's #2, #1, #4, ...

........................................................................
.............................. CYCLE   63 ..............................
........................................................................

 iter      E             dE          RMSdq      gap      omega  full diag
   1    -50.0231755 -0.500232E+02  0.242E-02    4.36       0.0  T
   2    -50.0231756 -0.856572E-07  0.142E-02    4.36       1.2  T
   3    -50.0231756 -0.164119E-07  0.104E-03    4.36      16.1  T
   4    -50.0231757 -0.184848E-07  0.478E-04    4.36      34.9  T
   5    -50.0231757 -0.567788E-09  0.154E-04    4.36     107.9  T
     SCC iter.                  ...        0 min,  0.137 sec
     gradient                   ...        0 min,  0.063 sec
 * total energy  :   -49.4328831 Eh     change       -0.1157108E-04 Eh
   gradient norm :     0.0003879 Eh/α   predicted    -0.4164742E-05 ( -64.01%)
   displ. norm   :     0.1411781 α      lambda       -0.7476110E-05
   maximum displ.:     0.1105408 α      in ANC's #2, #1, #4, ...

........................................................................
.............................. CYCLE   64 ..............................
........................................................................

 iter      E             dE          RMSdq      gap      omega  full diag
   1    -50.0231834 -0.500232E+02  0.230E-02    4.35       0.0  T
   2    -50.0231834 -0.699532E-07  0.135E-02    4.35       1.2  T
   3    -50.0231835 -0.178234E-07  0.878E-04    4.35      19.0  T
   4    -50.0231835 -0.109006E-07  0.434E-04    4.35      38.4  T
     SCC iter.                  ...        0 min,  0.081 sec
     gradient                   ...        0 min,  0.059 sec
 * total energy  :   -49.4328935 Eh     change       -0.1038990E-04 Eh
   gradient norm :     0.0003472 Eh/α   predicted    -0.3773422E-05 ( -63.68%)
   displ. norm   :     0.1326412 α      lambda       -0.6449602E-05
   maximum displ.:     0.1041770 α      in ANC's #2, #1, #4, ...

........................................................................
.............................. CYCLE   65 ..............................
........................................................................

 iter      E             dE          RMSdq      gap      omega  full diag
   1    -50.0232021 -0.500232E+02  0.216E-02    4.35       0.0  T
   2    -50.0232022 -0.653573E-07  0.127E-02    4.35       1.3  T
   3    -50.0232022 -0.897698E-08  0.919E-04    4.35      18.1  T
   4    -50.0232022 -0.161027E-07  0.401E-04    4.35      41.6  T
     SCC iter.                  ...        0 min,  0.071 sec
     gradient                   ...        0 min,  0.063 sec
 * total energy  :   -49.4329025 Eh     change       -0.8988988E-05 Eh
   gradient norm :     0.0003819 Eh/α   predicted    -0.3252743E-05 ( -63.81%)
   displ. norm   :     0.1264245 α      lambda       -0.5750515E-05
   maximum displ.:     0.0995726 α      in ANC's #2, #1, #4, ...

........................................................................
.............................. CYCLE   66 ..............................
........................................................................

 iter      E             dE          RMSdq      gap      omega  full diag
   1    -50.0232413 -0.500232E+02  0.200E-02    4.34       0.0  T
   2    -50.0232413 -0.497826E-07  0.118E-02    4.34       1.4  T
   3    -50.0232413 -0.114498E-07  0.720E-04    4.34      23.1  T
   4    -50.0232413 -0.750637E-08  0.350E-04    4.34      47.7  T
     SCC iter.                  ...        0 min,  0.076 sec
     gradient                   ...        0 min,  0.058 sec
 * total energy  :   -49.4329105 Eh     change       -0.8020276E-05 Eh
   gradient norm :     0.0003279 Eh/α   predicted    -0.2899427E-05 ( -63.85%)
   displ. norm   :     0.1262944 α      lambda       -0.5406422E-05
   maximum displ.:     0.0994574 α      in ANC's #2, #1, #4, ...
 * RMSD in coord.:     0.3603774 α      energy gain  -0.1886507E-03 Eh

generating ANC from exact Hessian ...
Using Lindh-Hessian (1995)
 Shifting diagonal of input Hessian by    9.7392900287183448E-003
 Lowest  eigenvalues of input Hessian
    0.000000    0.000000    0.000000    0.000000    0.000000    0.000000
    0.010000    0.010150    0.011061    0.011698    0.012202    0.012539
    0.013396    0.014005    0.014964    0.016809    0.016975    0.019091
 Highest eigenvalues
    1.329832    1.570333    1.805798    1.852325    2.292341    2.359437


........................................................................
.............................. CYCLE   67 ..............................
........................................................................

 iter      E             dE          RMSdq      gap      omega  full diag
   1    -50.0232582 -0.500233E+02  0.203E-02    4.34       0.0  T
   2    -50.0232583 -0.567205E-07  0.119E-02    4.34       1.4  T
   3    -50.0232583 -0.496330E-08  0.858E-04    4.34      19.4  T
   4    -50.0232583 -0.149632E-07  0.354E-04    4.34      47.1  T
     SCC iter.                  ...        0 min,  0.093 sec
     gradient                   ...        0 min,  0.069 sec
 * total energy  :   -49.4329180 Eh     change       -0.7544519E-05 Eh
   gradient norm :     0.0003161 Eh/α   predicted     0.0000000E+00 (-100.00%)
   displ. norm   :     0.0122814 α      lambda       -0.1141401E-06
   maximum displ.:     0.0100361 α      in ANC's #2, #20, #7, ...

........................................................................
.............................. CYCLE   68 ..............................
........................................................................

 iter      E             dE          RMSdq      gap      omega  full diag
   1    -50.0234153 -0.500234E+02  0.305E-03    4.34       0.0  T
   2    -50.0234153 -0.564370E-08  0.181E-03    4.34       9.2  T
   3    -50.0234153  0.158110E-09  0.259E-04    4.34      64.4  T
   4    -50.0234153 -0.113434E-08  0.767E-05    4.34     217.3  T
     SCC iter.                  ...        0 min,  0.074 sec
     gradient                   ...        0 min,  0.047 sec
 * total energy  :   -49.4329195 Eh     change       -0.1489997E-05 Eh
   gradient norm :     0.0001777 Eh/α   predicted    -0.5634779E-06 ( -62.18%)
   displ. norm   :     0.0355472 α      lambda       -0.2681514E-05
   maximum displ.:     0.0266269 α      in ANC's #2, #20, #7, ...

........................................................................
.............................. CYCLE   69 ..............................
........................................................................

 iter      E             dE          RMSdq      gap      omega  full diag
   1    -50.0235270 -0.500235E+02  0.921E-03    4.34       0.0  T
   2    -50.0235270 -0.197537E-07  0.547E-03    4.34       3.0  T
   3    -50.0235270 -0.484508E-08  0.443E-04    4.34      37.7  T
   4    -50.0235270 -0.226576E-08  0.229E-04    4.34      72.9  T
     SCC iter.                  ...        0 min,  0.066 sec
     gradient                   ...        0 min,  0.045 sec
 * total energy  :   -49.4329228 Eh     change       -0.3324155E-05 Eh
   gradient norm :     0.0003848 Eh/α   predicted    -0.1342123E-05 ( -59.63%)
   displ. norm   :     0.0497867 α      lambda       -0.2748659E-05
   maximum displ.:     0.0376720 α      in ANC's #2, #10, #20, ...

........................................................................
.............................. CYCLE   70 ..............................
........................................................................

 iter      E             dE          RMSdq      gap      omega  full diag
   1    -50.0234560 -0.500235E+02  0.129E-02    4.34       0.0  T
   2    -50.0234561 -0.402821E-07  0.764E-03    4.34       2.2  T
   3    -50.0234561 -0.730721E-08  0.702E-04    4.34      23.7  T
   4    -50.0234561 -0.748963E-08  0.337E-04    4.34      49.5  T
     SCC iter.                  ...        0 min,  0.101 sec
     gradient                   ...        0 min,  0.052 sec
 * total energy  :   -49.4329261 Eh     change       -0.3221883E-05 Eh
   gradient norm :     0.0003566 Eh/α   predicted    -0.1379629E-05 ( -57.18%)
   displ. norm   :     0.0388055 α      lambda       -0.1577333E-05
   maximum displ.:     0.0306011 α      in ANC's #2, #10, #20, ...

........................................................................
.............................. CYCLE   71 ..............................
........................................................................

 iter      E             dE          RMSdq      gap      omega  full diag
   1    -50.0234111 -0.500234E+02  0.100E-02    4.34       0.0  T
   2    -50.0234112 -0.297442E-07  0.589E-03    4.34       2.8  T
   3    -50.0234112 -0.340319E-08  0.596E-04    4.34      28.0  T
   4    -50.0234112 -0.610530E-08  0.265E-04    4.34      62.9  T
     SCC iter.                  ...        0 min,  0.070 sec
     gradient                   ...        0 min,  0.050 sec
 * total energy  :   -49.4329281 Eh     change       -0.2036613E-05 Eh
   gradient norm :     0.0002525 Eh/α   predicted    -0.7952009E-06 ( -60.95%)
   displ. norm   :     0.0296613 α      lambda       -0.1261421E-05
   maximum displ.:     0.0236964 α      in ANC's #2, #10, #8, ...

........................................................................
.............................. CYCLE   72 ..............................
........................................................................

 iter      E             dE          RMSdq      gap      omega  full diag
   1    -50.0233611 -0.500234E+02  0.797E-03    4.34       0.0  T
   2    -50.0233611 -0.217207E-07  0.467E-03    4.34       3.6  T
   3    -50.0233611 -0.424237E-09  0.520E-04    4.34      32.0  T
   4    -50.0233611 -0.554008E-08  0.199E-04    4.34      83.9  T
     SCC iter.                  ...        0 min,  0.059 sec
     gradient                   ...        0 min,  0.045 sec
 * total energy  :   -49.4329298 Eh     change       -0.1729162E-05 Eh
   gradient norm :     0.0001202 Eh/α   predicted    -0.6347859E-06 ( -63.29%)
   displ. norm   :     0.0324735 α      lambda       -0.1429293E-05
   maximum displ.:     0.0254495 α      in ANC's #2, #10, #8, ...

........................................................................
.............................. CYCLE   73 ..............................
........................................................................

 iter      E             dE          RMSdq      gap      omega  full diag
   1    -50.0233271 -0.500233E+02  0.903E-03    4.34       0.0  T
   2    -50.0233271 -0.240584E-07  0.528E-03    4.34       3.2  T
   3    -50.0233271 -0.195045E-08  0.475E-04    4.34      35.1  T
   4    -50.0233271 -0.422749E-08  0.200E-04    4.34      83.5  T
     SCC iter.                  ...        0 min,  0.067 sec
     gradient                   ...        0 min,  0.045 sec
 * total energy  :   -49.4329317 Eh     change       -0.1870643E-05 Eh
   gradient norm :     0.0001391 Eh/α   predicted    -0.7159503E-06 ( -61.73%)
   displ. norm   :     0.0341848 α      lambda       -0.1273205E-05
   maximum displ.:     0.0270676 α      in ANC's #2, #8, #11, ...

........................................................................
.............................. CYCLE   74 ..............................
........................................................................

 iter      E             dE          RMSdq      gap      omega  full diag
   1    -50.0233102 -0.500233E+02  0.950E-03    4.34       0.0  T
   2    -50.0233102 -0.245601E-07  0.556E-03    4.34       3.0  T
   3    -50.0233102 -0.260002E-09  0.550E-04    4.34      30.3  T
   4    -50.0233102 -0.684006E-08  0.209E-04    4.34      79.9  T
     SCC iter.                  ...        0 min,  0.049 sec
     gradient                   ...        0 min,  0.036 sec
 * total energy  :   -49.4329333 Eh     change       -0.1565654E-05 Eh
   gradient norm :     0.0001818 Eh/α   predicted    -0.6387726E-06 ( -59.20%)
   displ. norm   :     0.0258813 α      lambda       -0.8014288E-06
   maximum displ.:     0.0211528 α      in ANC's #2, #11, #8, ...

........................................................................
.............................. CYCLE   75 ..............................
........................................................................

 iter      E             dE          RMSdq      gap      omega  full diag
   1    -50.0233257 -0.500233E+02  0.655E-03    4.34       0.0  T
   2    -50.0233257 -0.973861E-08  0.383E-03    4.34       4.3  T
   3    -50.0233257 -0.114260E-08  0.334E-04    4.34      49.9  T
   4    -50.0233257 -0.221691E-08  0.147E-04    4.34     113.3  T
     SCC iter.                  ...        0 min,  0.166 sec
     gradient                   ...        0 min,  0.079 sec
 * total energy  :   -49.4329343 Eh     change       -0.1001764E-05 Eh
   gradient norm :     0.0001386 Eh/α   predicted    -0.4011165E-06 ( -59.96%)
   displ. norm   :     0.0184406 α      lambda       -0.5477063E-06
   maximum displ.:     0.0153522 α      in ANC's #2, #11, #8, ...

........................................................................
.............................. CYCLE   76 ..............................
........................................................................

 iter      E             dE          RMSdq      gap      omega  full diag
   1    -50.0233424 -0.500233E+02  0.429E-03    4.34       0.0  T
   2    -50.0233424 -0.490464E-08  0.252E-03    4.34       6.6  T
   3    -50.0233424 -0.225199E-09  0.239E-04    4.34      69.6  T
   4    -50.0233424 -0.123522E-08  0.982E-05    4.34     169.7  T
     SCC iter.                  ...        0 min,  0.047 sec
     gradient                   ...        0 min,  0.040 sec
 * total energy  :   -49.4329350 Eh     change       -0.7658960E-06 Eh
   gradient norm :     0.0000960 Eh/α   predicted    -0.2742511E-06 ( -64.19%)
   displ. norm   :     0.0191922 α      lambda       -0.6305194E-06
   maximum displ.:     0.0153154 α      in ANC's #2, #3, #4, ...

   *** GEOMETRY OPTIMIZATION CONVERGED AFTER 76 ITERATIONS ***

------------------------------------------------------------------------
 total energy gain   :        -0.0061032 Eh       -3.8298 kcal/mol
 total RMSD          :         0.9499756 a0        0.5027 Å
 total power (kW/mol):        -0.2108423 (step)   -1.2382 (real)
------------------------------------------------------------------------

 ANCopt (total)                0 d,  0 h,  0 min, 12.941 sec
 optimizer setup                ...        0 min,  0.001 sec (  0.005%)
 model hessian                  ...        0 min,  0.078 sec (  0.603%)
 ANC generation                 ...        0 min,  0.007 sec (  0.058%)
 coordinate transformation      ...        0 min,  0.001 sec (  0.008%)
 single point calculation       ...        0 min, 12.511 sec ( 96.676%)
 optimization log               ...        0 min,  0.011 sec (  0.083%)
 hessian update                 ...        0 min,  0.306 sec (  2.368%)
 rational function              ...        0 min,  0.007 sec (  0.055%)

================
 final structure:
================
36
 xtb: 6.7.1 (edcfbbe)
C            5.50750253033590       -0.63438105884696        1.52468394597324
C            4.66583363695617       -0.11524390871278        0.36664210232633
C            3.32417618439848       -0.82958045618881        0.29649921200628
O            2.58676912354179       -0.30248660863641       -0.80727240605782
C            1.30517139018531       -0.65016805832577       -0.89631459934279
O            0.75676574162410       -1.39605957425361       -0.12439795122170
C            0.64481631510503       -0.00381857158184       -2.09459898169078
C           -0.87172606799378       -0.08142916292644       -1.95127675958052
C           -1.31279875157849        0.87399474473070       -0.84397834432595
O           -0.66727203740870        1.87679820430486       -0.59419406350860
N           -2.45665000079898        0.58461521594007       -0.18495293660916
C           -3.24838119601116       -0.61230748397737       -0.37378916368371
C           -2.74122125973507       -1.77216529224028        0.48544337402846
C           -2.87759848532196        1.48030118275021        0.87892874588404
C           -3.92392734680260        2.47949400246863        0.39340964197871
H            6.46064982193006       -0.11358181262906        1.56011220843454
H            4.99407469991829       -0.47814088965747        2.47042115552000
H            5.70036182428859       -1.69873743318832        1.41138980770249
H            4.48585152786197        0.95438295443252        0.48330798384752
H            5.19256831885160       -0.26475690995703       -0.57718215125019
H            3.45762099357959       -1.90846121621215        0.15224902826232
H            2.74474493276023       -0.67923290917321        1.21424335887238
H            0.97145055677058        1.03541924558883       -2.14381778654895
H            0.98430532204801       -0.52071468378340       -2.99417200708445
H           -1.14807035234144       -1.10828809437484       -1.72720540584374
H           -1.35486228852867        0.22957870352268       -2.88041334607258
H           -3.25203535853779       -0.89106886355155       -1.42923943076869
H           -4.27941043021102       -0.37450925448704       -0.09768418182948
H           -3.29201668772235       -2.67963282516543        0.25191417549250
H           -2.87555128011104       -1.54845688814012        1.54086769651492
H           -1.68144133440038       -1.94299366016231        0.31285076901689
H           -1.99168287290173        2.02005187787671        1.21999410479202
H           -3.27183528490487        0.88384370446316        1.70525528710174
H           -4.22208692920167        3.13069418452799        1.21056657452429
H           -4.80754858955306        1.96848603139352        0.01606794745974
H           -3.50654636609564        3.08855556417061       -0.40398200425585

 Bond Distances (Angstroems)
 ---------------------------
C1-C2=1.5228         C1-H16=1.0867        C1-H17=1.0874        C1-H18=1.0876        C2-C1=1.5228         C2-C3=1.5216         
C2-H19=1.0909        C2-H20=1.0911        C3-C2=1.5216         C3-O4=1.4283         C3-H21=1.0966        C3-H22=1.0957        
O4-C3=1.4283         O4-C5=1.3309         C5-O4=1.3309         C5-O6=1.2054         C5-C7=1.5132         O6-C5=1.2054         
C7-C5=1.5132         C7-C8=1.5253         C7-H23=1.0905        C7-H24=1.0916        C8-C7=1.5253         C8-C9=1.5276         
C8-H25=1.0867        C8-H26=1.0924        C9-C8=1.5276         C9-O10=1.2185        C9-N11=1.3515        O10-C9=1.2185        
N11-C9=1.3515        N11-C12=1.4475       N11-C14=1.4530       C12-N11=1.4475       C12-C13=1.5300       C12-H27=1.0916       
C12-H28=1.0935       C13-C12=1.5300       C13-H29=1.0869       C13-H30=1.0872       C13-H31=1.0872       C14-N11=1.4530       
C14-C15=1.5261       C14-H32=1.0920       C14-H33=1.0927       C15-C14=1.5261       C15-H34=1.0866       C15-H35=1.0883       
C15-H36=1.0867       H16-C1=1.0867        H17-C1=1.0874        H18-C1=1.0876        H19-C2=1.0909        H20-C2=1.0911        
H21-C3=1.0966        H22-C3=1.0957        H23-C7=1.0905        H24-C7=1.0916        H25-C8=1.0867        H26-C8=1.0924        
H27-C12=1.0916       H28-C12=1.0935       H29-C13=1.0869       H30-C13=1.0872       H31-C13=1.0872       H32-C14=1.0920       
H33-C14=1.0927       H34-C15=1.0866       H35-C15=1.0883       H36-C15=1.0867       
 C  H  Rav=1.0900 sigma=0.0031  Rmin=1.0866  Rmax=1.0966    21
 C  C  Rav=1.5238 sigma=0.0050  Rmin=1.5132  Rmax=1.5300     7
 N  C  Rav=1.4173 sigma=0.0466  Rmin=1.3515  Rmax=1.4530     3
 O  C  Rav=1.2958 sigma=0.0907  Rmin=1.2054  Rmax=1.4283     4

 selected bond angles (degree)
 --------------------
H16-C1-C2=110.25               H17-C1-C2=110.58               H17-C1-H16=108.48              H18-C1-C2=110.63               
H18-C1-H16=108.47              H18-C1-H17=108.36              C3-C2-C1=111.25                H19-C2-C1=110.13               
H19-C2-C3=108.65               H20-C2-C1=110.14               H20-C2-C3=108.75               H20-C2-H19=107.85              
O4-C3-C2=108.52                H21-C3-C2=111.14               H21-C3-O4=108.92               H22-C3-C2=111.30               
H22-C3-O4=108.88               H22-C3-H21=108.03              C5-O4-C3=116.90                O6-C5-O4=123.84                
C7-C5-O4=111.20                C7-C5-O6=124.95                C8-C7-C5=109.74                H23-C7-C5=108.19               
H23-C7-C8=110.52               H24-C7-C5=108.34               H24-C7-C8=111.26               H24-C7-H23=108.72              
C9-C8-C7=108.87                H25-C8-C7=108.68               H25-C8-C9=111.60               H26-C8-C7=110.20               
H26-C8-C9=108.10               H26-C8-H25=109.38              O10-C9-C8=120.69               N11-C9-C8=117.64               
N11-C9-O10=121.64              

 selected dihedral angles (degree)
 ---------------------------------
C3-C2-C1-H16=180.03           C3-C2-C1-H17=299.99           C3-C2-C1-H18= 60.04           H19-C2-C1-H16=300.55          
H19-C2-C1-H17= 60.51          H19-C2-C1-H18=180.56          H20-C2-C1-H16= 59.37          H20-C2-C1-H17=179.33          
H20-C2-C1-H18=299.38          O4-C3-C2-C1=180.15            O4-C3-C2-H19= 58.76           O4-C3-C2-H20=301.62           
H21-C3-C2-C1=299.90           H21-C3-C2-H19=178.51          H21-C3-C2-H20= 61.37          H22-C3-C2-C1= 60.36           
H22-C3-C2-H19=298.96          H22-C3-C2-H20=181.82          C5-O4-C3-C2=190.63            C5-O4-C3-H21= 69.51           
C5-O4-C3-H22=311.92           O6-C5-O4-C3=358.29            C7-C5-O4-C3=179.05            C8-C7-C5-O4=196.29            
C8-C7-C5-O6= 17.06            H23-C7-C5-O4=316.95           H23-C7-C5-O6=137.72           H24-C7-C5-O4= 74.64           
H24-C7-C5-O6=255.41           C9-C8-C7-C5= 70.99            C9-C8-C7-H23=311.76           C9-C8-C7-H24=190.88           
H25-C8-C7-C5=309.25           H25-C8-C7-H23=190.01          H25-C8-C7-H24= 69.13          H26-C8-C7-C5=189.40           
H26-C8-C7-H23= 70.16          H26-C8-C7-H24=309.28          O10-C9-C8-C7= 28.61           O10-C9-C8-H25=148.56          
O10-C9-C8-H26=268.90          N11-C9-C8-C7=206.80           N11-C9-C8-H25=326.76          N11-C9-C8-H26= 87.09          
           -------------------------------------------------
          |                Final Singlepoint                |
           -------------------------------------------------

          ...................................................
          :                      SETUP                      :
          :.................................................:
          :  # basis functions                  81          :
          :  # atomic orbitals                  81          :
          :  # shells                           51          :
          :  # electrons                        88          :
          :  max. iterations                   250          :
          :  Hamiltonian                  GFN2-xTB          :
          :  restarted?                      false          :
          :  GBSA solvation                  false          :
          :  PC potential                    false          :
          :  electronic temp.          300.0000000     K    :
          :  accuracy                    1.0000000          :
          :  -> integral cutoff          0.2500000E+02      :
          :  -> integral neglect         0.1000000E-07      :
          :  -> SCF convergence          0.1000000E-05 Eh   :
          :  -> wf. convergence          0.1000000E-03 e    :
          :  Broyden damping             0.4000000          :
          :  net charge                          0          :
          :  unpaired electrons                  0          :
          ...................................................

 iter      E             dE          RMSdq      gap      omega  full diag
   1    -50.0233424 -0.500233E+02  0.510E-05    4.34       0.0  T
   2    -50.0233424 -0.458300E-11  0.328E-05    4.34     508.4  T
   3    -50.0233424 -0.127898E-12  0.107E-05    4.34    1551.5  T

   *** convergence criteria satisfied after 3 iterations ***

         #    Occupation            Energy/Eh            Energy/eV
      -------------------------------------------------------------
         1        2.0000           -0.7367173             -20.0471
       ...           ...                  ...                  ...
        38        2.0000           -0.4463294             -12.1452
        39        2.0000           -0.4438656             -12.0782
        40        2.0000           -0.4371171             -11.8946
        41        2.0000           -0.4302477             -11.7076
        42        2.0000           -0.4110055             -11.1840
        43        2.0000           -0.3819187             -10.3925
        44        2.0000           -0.3802850             -10.3481 (HOMO)
        45                         -0.2209095              -6.0113 (LUMO)
        46                         -0.1941716              -5.2837
        47                         -0.0043372              -0.1180
        48                          0.0024354               0.0663
        49                          0.0721244               1.9626
       ...                                ...                  ...
        81                          0.6549081              17.8210
      -------------------------------------------------------------
                  HL-Gap            0.1593755 Eh            4.3368 eV
             Fermi-level           -0.3005973 Eh           -8.1797 eV

 SCC (total)                   0 d,  0 h,  0 min,  0.118 sec
 SCC setup                      ...        0 min,  0.005 sec (  3.875%)
 Dispersion                     ...        0 min,  0.008 sec (  7.083%)
 classical contributions        ...        0 min,  0.004 sec (  3.776%)
 integral evaluation            ...        0 min,  0.015 sec ( 12.746%)
 iterations                     ...        0 min,  0.041 sec ( 35.211%)
 molecular gradient             ...        0 min,  0.044 sec ( 37.135%)
 printout                       ...        0 min,  0.000 sec (  0.146%)

         :::::::::::::::::::::::::::::::::::::::::::::::::::::
         ::                     SUMMARY                     ::
         :::::::::::::::::::::::::::::::::::::::::::::::::::::
         :: total energy             -49.432935022202 Eh    ::
         :: gradient norm              0.000096018519 Eh/a0 ::
         :: HOMO-LUMO gap              4.336829013725 eV    ::
         ::.................................................::
         :: SCC energy               -50.023168239535 Eh    ::
         :: -> isotropic ES            0.087591377844 Eh    ::
         :: -> anisotropic ES          0.003173133709 Eh    ::
         :: -> anisotropic XC          0.015319757663 Eh    ::
         :: -> dispersion             -0.027620609635 Eh    ::
         :: repulsion energy           0.590233217334 Eh    ::
         :: add. restraining           0.000000000000 Eh    ::
         :: total charge               0.000000000000 e     ::
         :::::::::::::::::::::::::::::::::::::::::::::::::::::

           -------------------------------------------------
          |                Property Printout                |
           -------------------------------------------------

    * Orbital Energies and Occupations

         #    Occupation            Energy/Eh            Energy/eV
      -------------------------------------------------------------
         1        2.0000           -0.7367173             -20.0471
       ...           ...                  ...                  ...
        32        2.0000           -0.4687221             -12.7546
        33        2.0000           -0.4663664             -12.6905
        34        2.0000           -0.4607998             -12.5390
        35        2.0000           -0.4558200             -12.4035
        36        2.0000           -0.4505824             -12.2610
        37        2.0000           -0.4473746             -12.1737
        38        2.0000           -0.4463294             -12.1452
        39        2.0000           -0.4438656             -12.0782
        40        2.0000           -0.4371171             -11.8946
        41        2.0000           -0.4302477             -11.7076
        42        2.0000           -0.4110055             -11.1840
        43        2.0000           -0.3819187             -10.3925
        44        2.0000           -0.3802850             -10.3481 (HOMO)
        45                         -0.2209095              -6.0113 (LUMO)
        46                         -0.1941716              -5.2837
        47                         -0.0043372              -0.1180
        48                          0.0024354               0.0663
        49                          0.0721244               1.9626
        50                          0.0988020               2.6885
        51                          0.1031418               2.8066
        52                          0.1092438               2.9727
        53                          0.1213491               3.3021
        54                          0.1241038               3.3770
        55                          0.1267385               3.4487
       ...                                ...                  ...
        81                          0.6549081              17.8210
      -------------------------------------------------------------
                  HL-Gap            0.1593755 Eh            4.3368 eV
             Fermi-level           -0.3005973 Eh           -8.1797 eV

     #   Z          covCN         q      C6AA      α(0)
     1   6 C        3.753    -0.110    22.654     6.787
     2   6 C        3.800    -0.062    21.697     6.632
     3   6 C        3.705     0.081    19.369     6.292
     4   8 O        1.705    -0.264    18.379     5.788
     5   6 C        2.721     0.364    20.832     7.472
     6   8 O        0.856    -0.425    22.188     6.315
     7   6 C        3.807    -0.085    22.124     6.696
     8   6 C        3.807    -0.084    22.104     6.693
     9   6 C        2.766     0.268    22.481     7.765
    10   8 O        0.859    -0.455    22.813     6.404
    11   7 N        2.734    -0.100    23.204     7.154
    12   6 C        3.742    -0.000    20.663     6.485
    13   6 C        3.751    -0.118    22.822     6.813
    14   6 C        3.753     0.002    20.598     6.472
    15   6 C        3.752    -0.110    22.670     6.790
    16   1 H        0.925     0.047     2.361     2.403
    17   1 H        0.925     0.042     2.422     2.434
    18   1 H        0.925     0.040     2.445     2.445
    19   1 H        0.924     0.054     2.276     2.359
    20   1 H        0.924     0.051     2.313     2.379
    21   1 H        0.924     0.046     2.376     2.411
    22   1 H        0.924     0.054     2.270     2.356
    23   1 H        0.924     0.092     1.862     2.134
    24   1 H        0.924     0.063     2.159     2.298
    25   1 H        0.925     0.065     2.140     2.288
    26   1 H        0.924     0.053     2.284     2.363
    27   1 H        0.924     0.044     2.399     2.422
    28   1 H        0.924     0.049     2.330     2.387
    29   1 H        0.925     0.042     2.418     2.432
    30   1 H        0.925     0.043     2.410     2.428
    31   1 H        0.925     0.068     2.108     2.270
    32   1 H        0.924     0.074     2.038     2.233
    33   1 H        0.924     0.041     2.439     2.442
    34   1 H        0.925     0.045     2.386     2.416
    35   1 H        0.925     0.036     2.497     2.471
    36   1 H        0.925     0.052     2.300     2.372

 Mol. C6AA /au·bohr⁶  :      10263.920347
 Mol. C8AA /au·bohr⁸  :     220127.540974
 Mol. α(0) /au        :        150.299839


Wiberg/Mayer (AO) data.
largest (>0.10) Wiberg bond orders for each atom

 ---------------------------------------------------------------------------
     #   Z sym  total        # sym  WBO       # sym  WBO       # sym  WBO
 ---------------------------------------------------------------------------
     1   6 C    3.994 --     2 C    1.018    18 H    0.987    17 H    0.987
                            16 H    0.986
     2   6 C    3.993 --     1 C    1.018     3 C    1.005    20 H    0.976
                            19 H    0.976
     3   6 C    3.925 --     2 C    1.005    21 H    0.968    22 H    0.968
                             4 O    0.936
     4   8 O    2.311 --     5 C    1.146     3 C    0.936     6 O    0.171
     5   6 C    3.913 --     6 O    1.738     4 O    1.146     7 C    0.970
     6   8 O    2.024 --     5 C    1.738     4 O    0.171
     7   6 C    3.993 --     8 C    1.006     5 C    0.970    23 H    0.955
                            24 H    0.952
     8   6 C    3.995 --     7 C    1.006    25 H    0.965     9 C    0.961
                            26 H    0.958
     9   6 C    3.954 --    10 O    1.663    11 N    1.258     8 C    0.961
    10   8 O    1.986 --     9 C    1.663    11 N    0.193
    11   7 N    3.497 --     9 C    1.258    12 C    0.990    14 C    0.981
                            10 O    0.193
    12   6 C    3.975 --    13 C    1.006    11 N    0.990    28 H    0.970
                            27 H    0.970
    13   6 C    3.992 --    12 C    1.006    30 H    0.986    29 H    0.985
                            31 H    0.979
    14   6 C    3.969 --    15 C    1.010    11 N    0.981    33 H    0.971
                            32 H    0.966
    15   6 C    3.995 --    14 C    1.010    36 H    0.987    35 H    0.986
                            34 H    0.985
    16   1 H    0.997 --     1 C    0.986
    17   1 H    0.998 --     1 C    0.987
    18   1 H    0.998 --     1 C    0.987
    19   1 H    0.997 --     2 C    0.976
    20   1 H    0.997 --     2 C    0.976
    21   1 H    0.998 --     3 C    0.968
    22   1 H    0.997 --     3 C    0.968
    23   1 H    0.991 --     7 C    0.955
    24   1 H    0.995 --     7 C    0.952
    25   1 H    0.996 --     8 C    0.965
    26   1 H    0.997 --     8 C    0.958
    27   1 H    0.998 --    12 C    0.970
    28   1 H    0.997 --    12 C    0.970
    29   1 H    0.997 --    13 C    0.985
    30   1 H    0.998 --    13 C    0.986
    31   1 H    0.995 --    13 C    0.979
    32   1 H    0.994 --    14 C    0.966
    33   1 H    0.998 --    14 C    0.971
    34   1 H    0.998 --    15 C    0.985
    35   1 H    0.999 --    15 C    0.986
    36   1 H    0.997 --    15 C    0.987
 ---------------------------------------------------------------------------

Topologies differ in total number of bonds
Writing topology from bond orders to xtbtopo.mol

molecular dipole:
                 x           y           z       tot (Debye)
 q only:       -0.354      -0.521      -0.078
   full:       -0.444      -0.693      -0.230       2.171
molecular quadrupole (traceless):
                xx          xy          yy          xz          yz          zz
 q only:       16.216      -0.698     -14.319       2.247       2.716      -1.897
  q+dip:       14.870      -0.859     -15.116       0.773       4.336       0.246
   full:       15.098      -1.503     -15.217       1.711       4.156       0.120

           -------------------------------------------------
          |                Geometry Summary                 |
           -------------------------------------------------

      molecular mass/u    :      215.2897686
   center of mass at/Å    :        0.0621457       0.0545942      -0.2428990
  moments of inertia/u·Å² :        0.4705094E+03   0.2083397E+04   0.2138492E+04
rotational constants/cm⁻¹ :        0.3582847E-01   0.8091417E-02   0.7882954E-02

 * 33 selected distances

     #   Z          #   Z                                           value/Å
     1   6 C        2   6 C                                       1.5228169
     2   6 C        3   6 C                                       1.5215919
     3   6 C        4   8 O                                       1.4282539
     4   8 O        5   6 C                                       1.3309034
     5   6 C        6   8 O                                       1.2053873
     7   6 C        8   6 C                                       1.5252757
     9   6 C       10   8 O                                       1.2184876
     9   6 C       11   7 N                                       1.3514625
    11   7 N       12   6 C                                       1.4474535
    12   6 C       13   6 C                                       1.5299550 (max)
    11   7 N       14   6 C                                       1.4530298
    14   6 C       15   6 C                                       1.5260798
     1   6 C       16   1 H                                       1.0867277
     1   6 C       17   1 H                                       1.0873998
     1   6 C       18   1 H                                       1.0876052
     2   6 C       19   1 H                                       1.0909199
     2   6 C       20   1 H                                       1.0911499
     3   6 C       21   1 H                                       1.0966310
     3   6 C       22   1 H                                       1.0957187
     7   6 C       23   1 H                                       1.0904714
     7   6 C       24   1 H                                       1.0916347
     8   6 C       25   1 H                                       1.0867445
     8   6 C       26   1 H                                       1.0924475
    12   6 C       27   1 H                                       1.0916486
    12   6 C       28   1 H                                       1.0935280
    13   6 C       29   1 H                                       1.0869264
    13   6 C       30   1 H                                       1.0872032
    13   6 C       31   1 H                                       1.0872462
    14   6 C       32   1 H                                       1.0920179
    14   6 C       33   1 H                                       1.0927030
    15   6 C       34   1 H                                       1.0866032 (min)
    15   6 C       35   1 H                                       1.0882567
    15   6 C       36   1 H                                       1.0867366

 * 4 distinct bonds (by element types)

   Z      Z             #   av. dist./Å        max./Å        min./Å
   1 H    6 C          21     1.0900152     1.0966310     1.0866032
   6 C    6 C           5     1.5251439     1.5299550     1.5215919
   6 C    7 N           3     1.4173153     1.4530298     1.3514625
   6 C    8 O           4     1.2957581     1.4282539     1.2053873


optimized geometry written to: xtbopt.xyz


           -------------------------------------------------
          | TOTAL ENERGY              -49.432935022202 Eh   |
          | GRADIENT NORM               0.000096018519 Eh/α |
          | HOMO-LUMO GAP               4.336829013725 eV   |
           -------------------------------------------------

------------------------------------------------------------------------
 * finished run on 2026/07/07 at 03:59:12.779     
------------------------------------------------------------------------
 total:
 * wall-time:     0 d,  0 h,  0 min, 13.434 sec
 *  cpu-time:     0 d,  0 h,  3 min, 33.341 sec
 * ratio c/w:    15.880 speedup
 SCF:
 * wall-time:     0 d,  0 h,  0 min,  0.299 sec
 *  cpu-time:     0 d,  0 h,  0 min,  4.770 sec
 * ratio c/w:    15.935 speedup
 ANC optimizer:
 * wall-time:     0 d,  0 h,  0 min, 13.065 sec
 *  cpu-time:     0 d,  0 h,  3 min, 27.885 sec
 * ratio c/w:    15.911 speedup

