      -----------------------------------------------------------      
     |                   =====================                   |     
     |                           x T B                           |     
     |                   =====================                   |     
     |                         S. Grimme                         |     
     |          Mulliken Center for Theoretical Chemistry        |     
     |                    University of Bonn                     |     
      -----------------------------------------------------------      

   * xtb version 6.7.1 (edcfbbe) compiled by 'conda@5dfe00f5fb80' on 2026-06-10

   xtb is free software: you can redistribute it and/or modify it under
   the terms of the GNU Lesser General Public License as published by
   the Free Software Foundation, either version 3 of the License, or
   (at your option) any later version.
   
   xtb is distributed in the hope that it will be useful,
   but WITHOUT ANY WARRANTY; without even the implied warranty of
   MERCHANTABILITY or FITNESS FOR A PARTICULAR PURPOSE.  See the
   GNU Lesser General Public License for more details.
   
   Cite this work as:
   * C. Bannwarth, E. Caldeweyher, S. Ehlert, A. Hansen, P. Pracht,
     J. Seibert, S. Spicher, S. Grimme, WIREs Comput. Mol. Sci., 2020, 11,
     e01493. DOI: 10.1002/wcms.1493
   
   for GFN2-xTB:
   * C. Bannwarth, S. Ehlert and S. Grimme., J. Chem. Theory Comput., 2019,
     15, 1652-1671. DOI: 10.1021/acs.jctc.8b01176
   for GFN1-xTB:
   * S. Grimme, C. Bannwarth, P. Shushkov, J. Chem. Theory Comput., 2017,
     13, 1989-2009. DOI: 10.1021/acs.jctc.7b00118
   for GFN0-xTB:
   * P. Pracht, E. Caldeweyher, S. Ehlert, S. Grimme, ChemRxiv, 2019, preprint.
     DOI: 10.26434/chemrxiv.8326202.v1
   for GFN-FF:
   * S. Spicher and S. Grimme, Angew. Chem. Int. Ed., 2020, 59, 15665-15673.
     DOI: 10.1002/anie.202004239
   
   for ALPB and GBSA implicit solvation:
   * S. Ehlert, M. Stahn, S. Spicher, S. Grimme, J. Chem. Theory Comput.,
     2021, 17, 4250-4261. DOI: 10.1021/acs.jctc.1c00471
   
   for ddCOSMO and CPCM-X implicit solvation:
   * M. Stahn, S. Ehlert, S. Grimme, J. Phys. Chem. A,
     2023, XX, XXXX-XXXX. DOI: 10.1021/acs.jpca.3c04382
   
   for DFT-D4:
   * E. Caldeweyher, C. Bannwarth and S. Grimme, J. Chem. Phys., 2017,
     147, 034112. DOI: 10.1063/1.4993215
   * E. Caldeweyher, S. Ehlert, A. Hansen, H. Neugebauer, S. Spicher,
     C. Bannwarth and S. Grimme, J. Chem. Phys., 2019, 150, 154122.
     DOI: 10.1063/1.5090222
   * E. Caldeweyher, J.-M. Mewes, S. Ehlert and S. Grimme, Phys. Chem. Chem. Phys.
     2020, 22, 8499-8512. DOI: 10.1039/D0CP00502A
   
   for sTDA-xTB:
   * S. Grimme and C. Bannwarth, J. Chem. Phys., 2016, 145, 054103.
     DOI: 10.1063/1.4959605
   
   in the mass-spec context:
   * V. Asgeirsson, C. Bauer and S. Grimme, Chem. Sci., 2017, 8, 4879.
     DOI: 10.1039/c7sc00601b
   * J. Koopman and S. Grimme, ACS Omega 2019, 4, 12, 15120-15133.
     DOI: 10.1021/acsomega.9b02011
   
   for metadynamics refer to:
   * S. Grimme, J. Chem. Theory Comput., 2019, 155, 2847-2862
     DOI: 10.1021/acs.jctc.9b00143
   
   for SPH calculations refer to:
   * S. Spicher and S. Grimme, J. Chem. Theory Comput., 2021, 17, 1701-1714
     DOI: 10.1021/acs.jctc.0c01306
   
   for ONIOM refer to:
   * C. Plett, A. Katbashev, S. Ehlert, S. Grimme, M. Bursch,
     Phys. Chem. Chem. Phys., 2023, 25, 17860-17868. DOI: 10.1039/D3CP02178E
   
   for DIPRO refer to:
   * J. Kohn, N. Gildemeister, S. Grimme, D. Fazzi, A. Hansen,
     J. Chem. Phys., 2023, just accepted.
   
   for PTB refer to:
   * S. Grimme, M. Mueller, A. Hansen, J. Chem. Phys., 2023, 158, 124111.
     DOI: 10.1063/5.0137838
   
   with help from (in alphabetical order)
   P. Atkinson, C. Bannwarth, F. Bohle, G. Brandenburg, E. Caldeweyher
   M. Checinski, S. Dohm, S. Ehlert, S. Ehrlich, I. Gerasimov, C. Hölzer
   A. Katbashev, J. Kohn, J. Koopman, C. Lavigne, S. Lehtola, F. März, M. Müller,
   F. Musil, H. Neugebauer, J. Pisarek, C. Plett, P. Pracht, F. Pultar,
   J. Seibert, P. Shushkov, S. Spicher, M. Stahn, M. Steiner, T. Strunk,
   J. Stückrath, T. Rose, and J. Unsleber
   
 * started run on 2026/07/08 at 08:53:30.019     
   ID    Z sym.   atoms
    1    6 C      1-4, 6-10
    2    8 O      5
    3    1 H      11-28

           -------------------------------------------------
          |                Calculation Setup                |
           -------------------------------------------------

          program call               : /home/ws/xd2484/miniforge3/envs/p3z_dft/bin/xtb xtb_input.xyz --gfn 2 --opt tight --cycles 500 --chrg 0 --uhf 0
          hostname                   : gpu10
          coordinate file            : xtb_input.xyz
          omp threads                :                    16


           -------------------------------------------------
          |                 G F N 2 - x T B                 |
           -------------------------------------------------

        Reference                      10.1021/acs.jctc.8b01176
      * Hamiltonian:
        H0-scaling (s, p, d)           1.850000    2.230000    2.230000
        zeta-weighting                 0.500000
      * Dispersion:
        s8                             2.700000
        a1                             0.520000
        a2                             5.000000
        s9                             5.000000
      * Repulsion:
        kExp                           1.500000    1.000000
        rExp                           1.000000
      * Coulomb:
        alpha                          2.000000
        third order                    shell-resolved
        anisotropic                    true
        a3                             3.000000
        a5                             4.000000
        cn-shift                       1.200000
        cn-exp                         4.000000
        max-rad                        5.000000


          ...................................................
          :                      SETUP                      :
          :.................................................:
          :  # basis functions                  58          :
          :  # atomic orbitals                  58          :
          :  # shells                           38          :
          :  # electrons                        60          :
          :  max. iterations                   250          :
          :  Hamiltonian                  GFN2-xTB          :
          :  restarted?                      false          :
          :  GBSA solvation                  false          :
          :  PC potential                    false          :
          :  electronic temp.          300.0000000     K    :
          :  accuracy                    1.0000000          :
          :  -> integral cutoff          0.2500000E+02      :
          :  -> integral neglect         0.1000000E-07      :
          :  -> SCF convergence          0.1000000E-05 Eh   :
          :  -> wf. convergence          0.1000000E-03 e    :
          :  Broyden damping             0.4000000          :
          :  net charge                          0          :
          :  unpaired electrons                  0          :
          ...................................................

 iter      E             dE          RMSdq      gap      omega  full diag
   1    -32.8383013 -0.328383E+02  0.319E+00    4.53       0.0  T
   2    -32.9178566 -0.795552E-01  0.164E+00    3.41       1.0  T
   3    -32.9257777 -0.792110E-02  0.109E+00    3.89       1.0  T
   4    -32.9301466 -0.436892E-02  0.225E-01    3.56       1.0  T
   5    -32.9304865 -0.339895E-03  0.865E-02    3.64       1.0  T
   6    -32.9305167 -0.302163E-04  0.366E-02    3.63       1.0  T
   7    -32.9305227 -0.599522E-05  0.121E-02    3.63       1.6  T
   8    -32.9305231 -0.424011E-06  0.217E-03    3.63       8.7  T
   9    -32.9305231 -0.307641E-07  0.111E-03    3.63      17.0  T
  10    -32.9305232 -0.217310E-08  0.319E-04    3.63      59.2  T
  11    -32.9305232 -0.526633E-09  0.135E-04    3.63     139.7  T

   *** convergence criteria satisfied after 11 iterations ***

         #    Occupation            Energy/Eh            Energy/eV
      -------------------------------------------------------------
         1        2.0000           -0.7097040             -19.3120
       ...           ...                  ...                  ...
        24        2.0000           -0.4391531             -11.9500
        25        2.0000           -0.4351928             -11.8422
        26        2.0000           -0.4322474             -11.7621
        27        2.0000           -0.4184239             -11.3859
        28        2.0000           -0.4149054             -11.2902
        29        2.0000           -0.4137863             -11.2597
        30        2.0000           -0.4008170             -10.9068 (HOMO)
        31                         -0.2674204              -7.2769 (LUMO)
        32                          0.0300969               0.8190
        33                          0.0547671               1.4903
        34                          0.0692008               1.8830
        35                          0.0792807               2.1573
       ...                                ...                  ...
        58                          0.5334444              14.5158
      -------------------------------------------------------------
                  HL-Gap            0.1333966 Eh            3.6299 eV
             Fermi-level           -0.3341187 Eh           -9.0918 eV

 SCC (total)                   0 d,  0 h,  0 min,  0.187 sec
 SCC setup                      ...        0 min,  0.001 sec (  0.726%)
 Dispersion                     ...        0 min,  0.006 sec (  3.290%)
 classical contributions        ...        0 min,  0.003 sec (  1.590%)
 integral evaluation            ...        0 min,  0.010 sec (  5.207%)
 iterations                     ...        0 min,  0.125 sec ( 66.480%)
 molecular gradient             ...        0 min,  0.042 sec ( 22.594%)
 printout                       ...        0 min,  0.000 sec (  0.096%)

         :::::::::::::::::::::::::::::::::::::::::::::::::::::
         ::                     SUMMARY                     ::
         :::::::::::::::::::::::::::::::::::::::::::::::::::::
         :: total energy             -32.506914899827 Eh    ::
         :: gradient norm              0.061409649909 Eh/a0 ::
         :: HOMO-LUMO gap              3.629905017569 eV    ::
         ::.................................................::
         :: SCC energy               -32.930268395468 Eh    ::
         :: -> isotropic ES            0.026859527324 Eh    ::
         :: -> anisotropic ES          0.009303235449 Eh    ::
         :: -> anisotropic XC          0.017186241792 Eh    ::
         :: -> dispersion             -0.021354899313 Eh    ::
         :: repulsion energy           0.423353495640 Eh    ::
         :: add. restraining           0.000000000000 Eh    ::
         :: total charge               0.000000000000 e     ::
         :::::::::::::::::::::::::::::::::::::::::::::::::::::

      ----------------------------------------------------------- 
     |                   =====================                   |
     |                        A N C O P T                        |
     |                   =====================                   |
     |               Approximate Normal Coordinate               |
     |                Rational Function Optimizer                |
      ----------------------------------------------------------- 
      ----------------------------------------------------------- 
     |                   =====================                   |
     |                        A N C O P T                        |
     |                   =====================                   |
     |               Approximate Normal Coordinate               |
     |                Rational Function Optimizer                |
      ----------------------------------------------------------- 

          ...................................................
          :                      SETUP                      :
          :.................................................:
          :   optimization level             tight          :
          :   max. optcycles                   500          :
          :   ANC micro-cycles                  20          :
          :   degrees of freedom                78          :
          :.................................................:
          :   RF solver                   davidson          :
          :   write xtbopt.log                true          :
          :   linear?                        false          :
          :   energy convergence         0.1000000E-05 Eh   :
          :   grad. convergence          0.8000000E-03 Eh/α :
          :   maxmium RF displ.          1.0000000          :
          :   Hlow (freq-cutoff)         0.1000000E-01      :
          :   Hmax (freq-cutoff)         5.0000000          :
          :   S6 in model hess.         20.0000000          :
          ...................................................

generating ANC from exact Hessian ...
Using Lindh-Hessian (1995)
 Shifting diagonal of input Hessian by    9.3422984343210710E-003
 Lowest  eigenvalues of input Hessian
    0.000000    0.000000    0.000000    0.000000    0.000000    0.000000
    0.010000    0.011025    0.012318    0.012792    0.014416    0.015990
    0.017095    0.017611    0.017717    0.018161    0.018582    0.020301
 Highest eigenvalues
    1.179687    1.219350    1.229525    1.236566    1.330282    2.075860


........................................................................
.............................. CYCLE    1 ..............................
........................................................................

 iter      E             dE          RMSdq      gap      omega  full diag
   1    -32.9305232 -0.329305E+02  0.332E-05    3.63       0.0  T
   2    -32.9305232 -0.339639E-11  0.180E-05    3.63    1047.1  T
   3    -32.9305232 -0.270006E-12  0.886E-06    3.63    2133.6  T
     SCC iter.                  ...        0 min,  0.040 sec
     gradient                   ...        0 min,  0.034 sec
 * total energy  :   -32.5069149 Eh     change       -0.5456968E-10 Eh
   gradient norm :     0.0614118 Eh/α   predicted     0.0000000E+00 (-100.00%)
   displ. norm   :     0.1784091 α      lambda       -0.4479405E-02
   maximum displ.:     0.0843839 α      in ANC's #20, #31, #18, ...

........................................................................
.............................. CYCLE    2 ..............................
........................................................................

 iter      E             dE          RMSdq      gap      omega  full diag
   1    -32.9550133 -0.329550E+02  0.133E-01    3.82       0.0  T
   2    -32.9550711 -0.578459E-04  0.739E-02    3.79       1.0  T
   3    -32.9550716 -0.464150E-06  0.291E-02    3.80       1.0  T
   4    -32.9550752 -0.363620E-05  0.669E-03    3.79       2.8  T
   5    -32.9550757 -0.486506E-06  0.277E-03    3.79       6.8  T
   6    -32.9550758 -0.583089E-07  0.994E-04    3.79      19.0  T
   7    -32.9550758 -0.118184E-08  0.395E-04    3.79      47.8  T
     SCC iter.                  ...        0 min,  0.098 sec
     gradient                   ...        0 min,  0.045 sec
 * total energy  :   -32.5096422 Eh     change       -0.2727333E-02 Eh
   gradient norm :     0.0141835 Eh/α   predicted    -0.2311445E-02 ( -15.25%)
   displ. norm   :     0.0979261 α      lambda       -0.4519080E-03
   maximum displ.:     0.0374434 α      in ANC's #2, #18, #5, ...

........................................................................
.............................. CYCLE    3 ..............................
........................................................................

 iter      E             dE          RMSdq      gap      omega  full diag
   1    -32.9622533 -0.329623E+02  0.557E-02    3.83       0.0  T
   2    -32.9622595 -0.615149E-05  0.306E-02    3.82       1.0  T
   3    -32.9622595 -0.399180E-07  0.918E-03    3.83       2.1  T
   4    -32.9622599 -0.363104E-06  0.237E-03    3.82       8.0  T
   5    -32.9622599 -0.570888E-07  0.858E-04    3.82      22.0  T
   6    -32.9622599 -0.478188E-08  0.294E-04    3.82      64.2  T
     SCC iter.                  ...        0 min,  0.099 sec
     gradient                   ...        0 min,  0.039 sec
 * total energy  :   -32.5098848 Eh     change       -0.2425554E-03 Eh
   gradient norm :     0.0024853 Eh/α   predicted    -0.2281377E-03 (  -5.94%)
   displ. norm   :     0.0401448 α      lambda       -0.3313180E-04
   maximum displ.:     0.0254028 α      in ANC's #2, #7, #5, ...

........................................................................
.............................. CYCLE    4 ..............................
........................................................................

 iter      E             dE          RMSdq      gap      omega  full diag
   1    -32.9622535 -0.329623E+02  0.208E-02    3.82       0.0  T
   2    -32.9622536 -0.898698E-07  0.122E-02    3.82       1.5  T
   3    -32.9622536 -0.365144E-08  0.949E-04    3.82      19.9  T
   4    -32.9622536 -0.114892E-07  0.363E-04    3.82      52.1  T
     SCC iter.                  ...        0 min,  0.058 sec
     gradient                   ...        0 min,  0.041 sec
 * total energy  :   -32.5099072 Eh     change       -0.2240713E-04 Eh
   gradient norm :     0.0008306 Eh/α   predicted    -0.1659247E-04 ( -25.95%)
   displ. norm   :     0.0728749 α      lambda       -0.1778495E-04
   maximum displ.:     0.0514211 α      in ANC's #2, #7, #5, ...

........................................................................
.............................. CYCLE    5 ..............................
........................................................................

 iter      E             dE          RMSdq      gap      omega  full diag
   1    -32.9615591 -0.329616E+02  0.453E-02    3.82       0.0  T
   2    -32.9615592 -0.120702E-06  0.267E-02    3.82       1.0  T
   3    -32.9615592 -0.352553E-07  0.110E-03    3.82      17.2  T
   4    -32.9615592 -0.718055E-08  0.589E-04    3.82      32.1  T
   5    -32.9615592 -0.154446E-08  0.244E-04    3.82      77.6  T
     SCC iter.                  ...        0 min,  0.063 sec
     gradient                   ...        0 min,  0.040 sec
 * total energy  :   -32.5099197 Eh     change       -0.1246181E-04 Eh
   gradient norm :     0.0017069 Eh/α   predicted    -0.8937946E-05 ( -28.28%)
   displ. norm   :     0.0484652 α      lambda       -0.1306776E-04
   maximum displ.:     0.0359712 α      in ANC's #2, #7, #19, ...

........................................................................
.............................. CYCLE    6 ..............................
........................................................................

 iter      E             dE          RMSdq      gap      omega  full diag
   1    -32.9612207 -0.329612E+02  0.265E-02    3.82       0.0  T
   2    -32.9612208 -0.364826E-07  0.158E-02    3.82       1.2  T
   3    -32.9612208 -0.507941E-08  0.749E-04    3.82      25.2  T
   4    -32.9612208 -0.654632E-08  0.388E-04    3.82      48.7  T
     SCC iter.                  ...        0 min,  0.062 sec
     gradient                   ...        0 min,  0.046 sec
 * total energy  :   -32.5099260 Eh     change       -0.6302011E-05 Eh
   gradient norm :     0.0020090 Eh/α   predicted    -0.6546152E-05 (   3.87%)
   displ. norm   :     0.0316317 α      lambda       -0.1547956E-04
   maximum displ.:     0.0207261 α      in ANC's #2, #7, #14, ...

........................................................................
.............................. CYCLE    7 ..............................
........................................................................

 iter      E             dE          RMSdq      gap      omega  full diag
   1    -32.9614433 -0.329614E+02  0.193E-02    3.82       0.0  T
   2    -32.9614433 -0.230267E-07  0.114E-02    3.82       1.7  T
   3    -32.9614433 -0.267771E-08  0.618E-04    3.82      30.6  T
   4    -32.9614433 -0.638061E-08  0.292E-04    3.82      64.7  T
     SCC iter.                  ...        0 min,  0.057 sec
     gradient                   ...        0 min,  0.046 sec
 * total energy  :   -32.5099383 Eh     change       -0.1230381E-04 Eh
   gradient norm :     0.0010845 Eh/α   predicted    -0.7750198E-05 ( -37.01%)
   displ. norm   :     0.1084364 α      lambda       -0.1878980E-04
   maximum displ.:     0.0727663 α      in ANC's #2, #7, #16, ...

........................................................................
.............................. CYCLE    8 ..............................
........................................................................

 iter      E             dE          RMSdq      gap      omega  full diag
   1    -32.9618547 -0.329619E+02  0.673E-02    3.82       0.0  T
   2    -32.9618549 -0.151680E-06  0.398E-02    3.82       1.0  T
   3    -32.9618549 -0.700617E-07  0.137E-03    3.82      13.8  T
   4    -32.9618550 -0.116783E-07  0.837E-04    3.82      22.6  T
   5    -32.9618550 -0.223832E-08  0.238E-04    3.82      79.5  T
     SCC iter.                  ...        0 min,  0.083 sec
     gradient                   ...        0 min,  0.047 sec
 * total energy  :   -32.5099512 Eh     change       -0.1294786E-04 Eh
   gradient norm :     0.0010397 Eh/α   predicted    -0.9444807E-05 ( -27.06%)
   displ. norm   :     0.0311834 α      lambda       -0.3725316E-05
   maximum displ.:     0.0217278 α      in ANC's #2, #7, #19, ...

........................................................................
.............................. CYCLE    9 ..............................
........................................................................

 iter      E             dE          RMSdq      gap      omega  full diag
   1    -32.9618486 -0.329618E+02  0.205E-02    3.82       0.0  T
   2    -32.9618486 -0.176688E-07  0.121E-02    3.82       1.6  T
   3    -32.9618486 -0.299487E-08  0.529E-04    3.82      35.7  T
   4    -32.9618486 -0.393351E-08  0.254E-04    3.82      74.3  T
     SCC iter.                  ...        0 min,  0.055 sec
     gradient                   ...        0 min,  0.035 sec
 * total energy  :   -32.5099552 Eh     change       -0.3993091E-05 Eh
   gradient norm :     0.0003821 Eh/α   predicted    -0.1865128E-05 ( -53.29%)
   displ. norm   :     0.0353316 α      lambda       -0.2064752E-05
   maximum displ.:     0.0241315 α      in ANC's #2, #7, #19, ...

........................................................................
.............................. CYCLE   10 ..............................
........................................................................

 iter      E             dE          RMSdq      gap      omega  full diag
   1    -32.9617862 -0.329618E+02  0.227E-02    3.82       0.0  T
   2    -32.9617862 -0.202801E-07  0.134E-02    3.82       1.4  T
   3    -32.9617863 -0.638347E-08  0.513E-04    3.82      36.9  T
   4    -32.9617863 -0.227652E-08  0.280E-04    3.82      67.5  T
     SCC iter.                  ...        0 min,  0.054 sec
     gradient                   ...        0 min,  0.035 sec
 * total energy  :   -32.5099569 Eh     change       -0.1725693E-05 Eh
   gradient norm :     0.0002970 Eh/α   predicted    -0.1034703E-05 ( -40.04%)
   displ. norm   :     0.0160901 α      lambda       -0.5929584E-06
   maximum displ.:     0.0097673 α      in ANC's #2, #1, #14, ...

........................................................................
.............................. CYCLE   11 ..............................
........................................................................

 iter      E             dE          RMSdq      gap      omega  full diag
   1    -32.9618047 -0.329618E+02  0.102E-02    3.82       0.0  T
   2    -32.9618047 -0.499147E-08  0.600E-03    3.82       3.2  T
   3    -32.9618047 -0.191059E-08  0.211E-04    3.82      89.4  T
   4    -32.9618047 -0.146706E-09  0.115E-04    3.82     163.8  T
     SCC iter.                  ...        0 min,  0.057 sec
     gradient                   ...        0 min,  0.041 sec
 * total energy  :   -32.5099575 Eh     change       -0.5985451E-06 Eh
   gradient norm :     0.0002354 Eh/α   predicted    -0.2970204E-06 ( -50.38%)
   displ. norm   :     0.0169148 α      lambda       -0.5552655E-06
   maximum displ.:     0.0087575 α      in ANC's #1, #9, #2, ...

   *** GEOMETRY OPTIMIZATION CONVERGED AFTER 11 ITERATIONS ***

------------------------------------------------------------------------
 total energy gain   :        -0.0030426 Eh       -1.9093 kcal/mol
 total RMSD          :         0.0936944 a0        0.0496 Å
 total power (kW/mol):        -0.7262201 (step)   -4.9417 (real)
------------------------------------------------------------------------

 ANCopt (total)                0 d,  0 h,  0 min,  1.617 sec
 optimizer setup                ...        0 min,  0.001 sec (  0.045%)
 model hessian                  ...        0 min,  0.031 sec (  1.910%)
 ANC generation                 ...        0 min,  0.001 sec (  0.075%)
 coordinate transformation      ...        0 min,  0.000 sec (  0.009%)
 single point calculation       ...        0 min,  1.532 sec ( 94.792%)
 optimization log               ...        0 min,  0.001 sec (  0.091%)
 hessian update                 ...        0 min,  0.047 sec (  2.890%)
 rational function              ...        0 min,  0.001 sec (  0.074%)

================
 final structure:
================
28
 xtb: 6.7.1 (edcfbbe)
C            1.63846584809287       -1.75520673898920       -0.41649682963299
C            1.24443529765778       -0.28528935602223       -0.27666490165804
C            2.42884097228939        0.48655125613213        0.31859609075218
C            2.34026991069432        1.97556852199585        0.16744212104443
O            1.54749725635183        2.58074655028012       -0.49554977086115
C            0.00014845370536       -0.10560177001937        0.61063631294218
C           -1.36429738478401       -0.00781014486278       -0.10041259291001
C           -1.44239795750548        1.26445574202755       -0.94610735782001
C           -1.64227374476281       -1.22382587613411       -0.98553893859267
C           -2.44342301715991        0.06135283649434        0.98717577005810
H            1.92850080182766       -2.16119914478208        0.55128039806053
H            2.48048927979632       -1.86339160140132       -1.09792821134991
H            0.81523885022218       -2.34817152417535       -0.80009641291096
H            1.04737635368568        0.12900838822266       -1.26809489623577
H            3.36038049948353        0.19009951970334       -0.17637955323506
H            2.55084302103763        0.24997535746168        1.37900582212927
H            3.13214468044515        2.51138404256118        0.73421326522887
H           -0.03816205989001       -0.93278864906726        1.32442591077345
H            0.11580899692402        0.81428076915971        1.18834766702261
H           -0.72610124700528        1.24449263876318       -1.76223848424673
H           -1.23004009259865        2.14185977693630       -0.34077537538144
H           -2.43754937219205        1.37082399227800       -1.37280613360818
H           -2.64904819854375       -1.16131432974101       -1.39399456567203
H           -1.56776232549368       -2.14496135715796       -0.41111333878733
H           -0.94647449907047       -1.26889261227922       -1.81902233605223
H           -3.42956101362509        0.16155031049399        0.53946504653277
H           -2.43612442454451       -0.84030663410826        1.59652489249735
H           -2.27722488503714        0.91661003623333        1.63850912613772

 Bond Distances (Angstroems)
 ---------------------------
C1-C2=1.5282         C1-H11=1.0888        C1-H12=1.0886        C1-H13=1.0846        C2-C1=1.5282         C2-C3=1.5339         
C2-C6=1.5388         C2-H14=1.0924        C3-C2=1.5339         C3-C4=1.4993         C3-H15=1.0957        C3-H16=1.0933        
C4-C3=1.4993         C4-O5=1.1976         C4-H17=1.1115        O5-C4=1.1976         C6-C2=1.5388         C6-C7=1.5417         
C6-H18=1.0933        C6-H19=1.0924        C7-C6=1.5417         C7-C8=1.5297         C7-C9=1.5295         C7-C10=1.5337        
C8-C7=1.5297         C8-H20=1.0861        C8-H21=1.0869        C8-H22=1.0880        C9-C7=1.5295         C9-H23=1.0883        
C9-H24=1.0881        C9-H25=1.0867        C10-C7=1.5337        C10-H26=1.0876       C10-H27=1.0883       C10-H28=1.0878       
H11-C1=1.0888        H12-C1=1.0886        H13-C1=1.0846        H14-C2=1.0924        H15-C3=1.0957        H16-C3=1.0933        
H17-C4=1.1115        H18-C6=1.0933        H19-C6=1.0924        H20-C8=1.0861        H21-C8=1.0869        H22-C8=1.0880        
H23-C9=1.0883        H24-C9=1.0881        H25-C9=1.0867        H26-C10=1.0876       H27-C10=1.0883       H28-C10=1.0878       
 C  H  Rav=1.0905 sigma=0.0058  Rmin=1.0846  Rmax=1.1115    18
 C  C  Rav=1.5293 sigma=0.0122  Rmin=1.4993  Rmax=1.5417     8
 O  C  Rav=1.1976 sigma=0.0000  Rmin=1.1976  Rmax=1.1976     1

 selected bond angles (degree)
 --------------------
H11-C1-C2=110.24               H12-C1-C2=110.63               H12-C1-H11=108.26              H13-C1-C2=111.25               
H13-C1-H11=108.22              H13-C1-H12=108.14              C3-C2-C1=108.69                C6-C2-C1=111.94                
C6-C2-C3=109.99                H14-C2-C1=109.16               H14-C2-C3=107.50               H14-C2-C6=109.46               
C4-C3-C2=114.52                H15-C3-C2=110.18               H15-C3-C4=105.87               H16-C3-C2=110.71               
H16-C3-C4=108.62               H16-C3-H15=106.54              O5-C4-C3=126.64                H17-C4-C3=112.66               
H17-C4-O5=120.68               C7-C6-C2=117.20                H18-C6-C2=108.45               H18-C6-C7=108.55               
H19-C6-C2=108.52               H19-C6-C7=106.51               H19-C6-H18=107.19              C8-C7-C6=110.67                
C9-C7-C6=112.17                C9-C7-C8=109.39                C10-C7-C6=107.37               C10-C7-C8=108.58               
C10-C7-C9=108.56               H20-C8-C7=111.50               H21-C8-C7=110.70               H21-C8-H20=107.73              
H22-C8-C7=110.17               H22-C8-H20=108.08              H22-C8-H21=108.55              H23-C9-C7=109.86               
H24-C9-C7=110.80               H24-C9-H23=108.07              H25-C9-C7=111.13               H25-C9-H23=107.87              
H25-C9-H24=109.02              H26-C10-C7=110.50              H27-C10-C7=110.79              H27-C10-H26=108.23             
H28-C10-C7=110.64              H28-C10-H26=108.21             H28-C10-H27=108.37             

 selected dihedral angles (degree)
 ---------------------------------
C3-C2-C1-H11= 57.78           C3-C2-C1-H12=298.07           C3-C2-C1-H13=177.85           C6-C2-C1-H11=296.10           
C6-C2-C1-H12=176.39           C6-C2-C1-H13= 56.16           H14-C2-C1-H11=174.75          H14-C2-C1-H12= 55.04          
H14-C2-C1-H13=294.82          C4-C3-C2-C1=163.96            C4-C3-C2-C6=286.82            C4-C3-C2-H14= 45.93           
H15-C3-C2-C1= 44.76           H15-C3-C2-C6=167.63           H15-C3-C2-H14=286.73          H16-C3-C2-C1=287.16           
H16-C3-C2-C6= 50.03           H16-C3-C2-H14=169.13          O5-C4-C3-C2=350.18            O5-C4-C3-H15=111.77           
O5-C4-C3-H16=225.86           H17-C4-C3-C2=171.65           H17-C4-C3-H15=293.24          H17-C4-C3-H16= 47.32          
C7-C6-C2-C1=264.70            C7-C6-C2-C3=143.76            C7-C6-C2-H14= 25.87           H18-C6-C2-C1= 27.96           
H18-C6-C2-C3=267.03           H18-C6-C2-H14=149.13          H19-C6-C2-C1=144.09           H19-C6-C2-C3= 23.15           
H19-C6-C2-H14=265.26          C8-C7-C6-C2=294.24            C8-C7-C6-H18=171.03           C8-C7-C6-H19= 55.90           
C9-C7-C6-C2= 56.71            C9-C7-C6-H18=293.50           C9-C7-C6-H19=178.37           C10-C7-C6-C2=175.90           
C10-C7-C6-H18= 52.69          C10-C7-C6-H19=297.56          H20-C8-C7-C6= 65.02           H20-C8-C7-C9=300.94           
H20-C8-C7-C10=182.63          H21-C8-C7-C6=305.11           H21-C8-C7-C9=181.03           H21-C8-C7-C10= 62.71          
H22-C8-C7-C6=185.02           H22-C8-C7-C9= 60.95           H22-C8-C7-C10=302.63          H23-C9-C7-C6=174.72           
H23-C9-C7-C8=297.91           H23-C9-C7-C10= 56.24          H24-C9-C7-C6= 55.39           H24-C9-C7-C8=178.58           
H24-C9-C7-C10=296.91          H25-C9-C7-C6=294.02           H25-C9-C7-C8= 57.21           H25-C9-C7-C10=175.54          
H26-C10-C7-C6=178.33          H26-C10-C7-C8= 58.64          H26-C10-C7-C9=299.80          H27-C10-C7-C6=298.28          
H27-C10-C7-C8=178.59          H27-C10-C7-C9= 59.75          H28-C10-C7-C6= 58.49          H28-C10-C7-C8=298.81          
H28-C10-C7-C9=179.97          
           -------------------------------------------------
          |                Final Singlepoint                |
           -------------------------------------------------

          ...................................................
          :                      SETUP                      :
          :.................................................:
          :  # basis functions                  58          :
          :  # atomic orbitals                  58          :
          :  # shells                           38          :
          :  # electrons                        60          :
          :  max. iterations                   250          :
          :  Hamiltonian                  GFN2-xTB          :
          :  restarted?                      false          :
          :  GBSA solvation                  false          :
          :  PC potential                    false          :
          :  electronic temp.          300.0000000     K    :
          :  accuracy                    1.0000000          :
          :  -> integral cutoff          0.2500000E+02      :
          :  -> integral neglect         0.1000000E-07      :
          :  -> SCF convergence          0.1000000E-05 Eh   :
          :  -> wf. convergence          0.1000000E-03 e    :
          :  Broyden damping             0.4000000          :
          :  net charge                          0          :
          :  unpaired electrons                  0          :
          ...................................................

 iter      E             dE          RMSdq      gap      omega  full diag
   1    -32.9618047 -0.329618E+02  0.368E-05    3.82       0.0  T
   2    -32.9618047 -0.273559E-11  0.241E-05    3.82     784.8  T
   3    -32.9618047 -0.118661E-11  0.661E-06    3.82    2858.5  T

   *** convergence criteria satisfied after 3 iterations ***

         #    Occupation            Energy/Eh            Energy/eV
      -------------------------------------------------------------
         1        2.0000           -0.7169139             -19.5082
       ...           ...                  ...                  ...
        24        2.0000           -0.4400857             -11.9753
        25        2.0000           -0.4357677             -11.8578
        26        2.0000           -0.4337034             -11.8017
        27        2.0000           -0.4188843             -11.3984
        28        2.0000           -0.4149002             -11.2900
        29        2.0000           -0.4133228             -11.2471
        30        2.0000           -0.3993317             -10.8664 (HOMO)
        31                         -0.2589327              -7.0459 (LUMO)
        32                          0.0414378               1.1276
        33                          0.0663653               1.8059
        34                          0.0799442               2.1754
        35                          0.0902821               2.4567
       ...                                ...                  ...
        58                          0.6266467              17.0519
      -------------------------------------------------------------
                  HL-Gap            0.1403990 Eh            3.8205 eV
             Fermi-level           -0.3291322 Eh           -8.9561 eV

 SCC (total)                   0 d,  0 h,  0 min,  0.115 sec
 SCC setup                      ...        0 min,  0.005 sec (  3.921%)
 Dispersion                     ...        0 min,  0.009 sec (  7.432%)
 classical contributions        ...        0 min,  0.004 sec (  3.815%)
 integral evaluation            ...        0 min,  0.014 sec ( 11.835%)
 iterations                     ...        0 min,  0.042 sec ( 36.599%)
 molecular gradient             ...        0 min,  0.042 sec ( 36.257%)
 printout                       ...        0 min,  0.000 sec (  0.118%)

         :::::::::::::::::::::::::::::::::::::::::::::::::::::
         ::                     SUMMARY                     ::
         :::::::::::::::::::::::::::::::::::::::::::::::::::::
         :: total energy             -32.509957528698 Eh    ::
         :: gradient norm              0.000235433390 Eh/a0 ::
         :: HOMO-LUMO gap              3.820452478366 eV    ::
         ::.................................................::
         :: SCC energy               -32.961549968611 Eh    ::
         :: -> isotropic ES            0.026030138576 Eh    ::
         :: -> anisotropic ES          0.008567004888 Eh    ::
         :: -> anisotropic XC          0.016329243592 Eh    ::
         :: -> dispersion             -0.021589125016 Eh    ::
         :: repulsion energy           0.451592439912 Eh    ::
         :: add. restraining           0.000000000000 Eh    ::
         :: total charge              -0.000000000000 e     ::
         :::::::::::::::::::::::::::::::::::::::::::::::::::::

           -------------------------------------------------
          |                Property Printout                |
           -------------------------------------------------

    * Orbital Energies and Occupations

         #    Occupation            Energy/Eh            Energy/eV
      -------------------------------------------------------------
         1        2.0000           -0.7169139             -19.5082
       ...           ...                  ...                  ...
        18        2.0000           -0.4806922             -13.0803
        19        2.0000           -0.4757016             -12.9445
        20        2.0000           -0.4669598             -12.7066
        21        2.0000           -0.4584459             -12.4749
        22        2.0000           -0.4560854             -12.4107
        23        2.0000           -0.4448420             -12.1048
        24        2.0000           -0.4400857             -11.9753
        25        2.0000           -0.4357677             -11.8578
        26        2.0000           -0.4337034             -11.8017
        27        2.0000           -0.4188843             -11.3984
        28        2.0000           -0.4149002             -11.2900
        29        2.0000           -0.4133228             -11.2471
        30        2.0000           -0.3993317             -10.8664 (HOMO)
        31                         -0.2589327              -7.0459 (LUMO)
        32                          0.0414378               1.1276
        33                          0.0663653               1.8059
        34                          0.0799442               2.1754
        35                          0.0902821               2.4567
        36                          0.1062555               2.8914
        37                          0.1109769               3.0198
        38                          0.1276713               3.4741
        39                          0.1404207               3.8210
        40                          0.1463651               3.9828
        41                          0.1624005               4.4191
       ...                                ...                  ...
        58                          0.6266467              17.0519
      -------------------------------------------------------------
                  HL-Gap            0.1403990 Eh            3.8205 eV
             Fermi-level           -0.3291322 Eh           -8.9561 eV

     #   Z          covCN         q      C6AA      α(0)
     1   6 C        3.756    -0.110    22.657     6.787
     2   6 C        3.849    -0.011    20.735     6.477
     3   6 C        3.807    -0.088    22.168     6.702
     4   6 C        2.756     0.216    23.437     7.928
     5   8 O        0.856    -0.320    20.154     6.019
     6   6 C        3.810    -0.070    21.831     6.651
     7   6 C        3.898     0.030    20.013     6.359
     8   6 C        3.761    -0.111    22.663     6.786
     9   6 C        3.760    -0.108    22.611     6.779
    10   6 C        3.764    -0.109    22.631     6.781
    11   1 H        0.925     0.032     2.560     2.502
    12   1 H        0.925     0.029     2.594     2.519
    13   1 H        0.925     0.047     2.357     2.401
    14   1 H        0.924     0.052     2.296     2.370
    15   1 H        0.924     0.068     2.110     2.272
    16   1 H        0.924     0.059     2.209     2.324
    17   1 H        0.921     0.009     2.910     2.668
    18   1 H        0.924     0.033     2.543     2.494
    19   1 H        0.924     0.035     2.516     2.480
    20   1 H        0.925     0.042     2.425     2.435
    21   1 H        0.925     0.043     2.414     2.430
    22   1 H        0.925     0.032     2.559     2.502
    23   1 H        0.925     0.035     2.522     2.483
    24   1 H        0.925     0.031     2.573     2.509
    25   1 H        0.925     0.036     2.505     2.475
    26   1 H        0.925     0.035     2.510     2.477
    27   1 H        0.925     0.031     2.578     2.511
    28   1 H        0.925     0.033     2.550     2.497

 Mol. C6AA /au·bohr⁶  :       5622.123163
 Mol. C8AA /au·bohr⁸  :     119388.617207
 Mol. α(0) /au        :        111.617026


Wiberg/Mayer (AO) data.
largest (>0.10) Wiberg bond orders for each atom

 ---------------------------------------------------------------------------
     #   Z sym  total        # sym  WBO       # sym  WBO       # sym  WBO
 ---------------------------------------------------------------------------
     1   6 C    3.996 --     2 C    1.010    11 H    0.987    12 H    0.986
                            13 H    0.982
     2   6 C    3.992 --     1 C    1.010     6 C    0.994     3 C    0.993
                            14 H    0.961
     3   6 C    3.994 --     4 C    1.015     2 C    0.993    16 H    0.951
                            15 H    0.934
     4   6 C    3.917 --     5 O    1.924     3 C    1.015    17 H    0.930
     5   8 O    2.098 --     4 C    1.924
     6   6 C    3.995 --     2 C    0.994     7 C    0.985    18 H    0.975
                            19 H    0.974
     7   6 C    3.992 --     8 C    1.000     9 C    1.000    10 C    0.996
                             6 C    0.985
     8   6 C    3.996 --     7 C    1.000    22 H    0.986    21 H    0.985
                            20 H    0.981
     9   6 C    3.997 --     7 C    1.000    24 H    0.985    23 H    0.985
                            25 H    0.983
    10   6 C    3.996 --     7 C    0.996    28 H    0.986    27 H    0.986
                            26 H    0.986
    11   1 H    0.999 --     1 C    0.987
    12   1 H    0.999 --     1 C    0.986
    13   1 H    0.997 --     1 C    0.982
    14   1 H    0.997 --     2 C    0.961
    15   1 H    0.995 --     3 C    0.934
    16   1 H    0.996 --     3 C    0.951
    17   1 H    0.999 --     4 C    0.930
    18   1 H    0.999 --     6 C    0.975
    19   1 H    0.999 --     6 C    0.974
    20   1 H    0.998 --     8 C    0.981
    21   1 H    0.998 --     8 C    0.985
    22   1 H    0.999 --     8 C    0.986
    23   1 H    0.999 --     9 C    0.985
    24   1 H    0.999 --     9 C    0.985
    25   1 H    0.999 --     9 C    0.983
    26   1 H    0.998 --    10 C    0.986
    27   1 H    0.999 --    10 C    0.986
    28   1 H    0.999 --    10 C    0.986
 ---------------------------------------------------------------------------

Topologies differ in total number of bonds
Writing topology from bond orders to xtbtopo.mol

molecular dipole:
                 x           y           z       tot (Debye)
 q only:        0.371      -0.736       0.339
   full:        0.590      -0.794       0.498       2.814
molecular quadrupole (traceless):
                xx          xy          yy          xz          yz          zz
 q only:        5.743      -1.547      -6.245       2.197       2.733       0.502
  q+dip:        7.634      -0.497      -8.204       3.192       3.527       0.571
   full:        7.782      -0.613      -8.405       2.414       3.714       0.623

           -------------------------------------------------
          |                Geometry Summary                 |
           -------------------------------------------------

      molecular mass/u    :      142.2389615
   center of mass at/Å    :        0.2218719       0.3037315      -0.1204617
  moments of inertia/u·Å² :        0.2964997E+03   0.5538745E+03   0.7091099E+03
rotational constants/cm⁻¹ :        0.5685548E-01   0.3043584E-01   0.2377295E-01

 * 24 selected distances

     #   Z          #   Z                                           value/Å
     1   6 C        2   6 C                                       1.5282247
     2   6 C        3   6 C                                       1.5339136
     4   6 C        5   8 O                                       1.1976174
     2   6 C        6   6 C                                       1.5387791 (max)
     7   6 C        8   6 C                                       1.5296929
     7   6 C        9   6 C                                       1.5295144
     7   6 C       10   6 C                                       1.5336703
     1   6 C       11   1 H                                       1.0888265
     1   6 C       12   1 H                                       1.0886029
     1   6 C       13   1 H                                       1.0846468 (min)
     2   6 C       14   1 H                                       1.0924324
     3   6 C       15   1 H                                       1.0957420
     3   6 C       16   1 H                                       1.0933077
     6   6 C       18   1 H                                       1.0932528
     6   6 C       19   1 H                                       1.0923882
     8   6 C       20   1 H                                       1.0860708
     8   6 C       21   1 H                                       1.0869042
     8   6 C       22   1 H                                       1.0879856
     9   6 C       23   1 H                                       1.0882733
     9   6 C       24   1 H                                       1.0881211
     9   6 C       25   1 H                                       1.0866749
    10   6 C       26   1 H                                       1.0876363
    10   6 C       27   1 H                                       1.0882783
    10   6 C       28   1 H                                       1.0878061

 * 3 distinct bonds (by element types)

   Z      Z             #   av. dist./Å        max./Å        min./Å
   1 H    6 C          17     1.0892323     1.0957420     1.0846468
   6 C    6 C           6     1.5322991     1.5387791     1.5282247
   6 C    8 O           1     1.1976174     1.1976174     1.1976174


optimized geometry written to: xtbopt.xyz


           -------------------------------------------------
          | TOTAL ENERGY              -32.509957528698 Eh   |
          | GRADIENT NORM               0.000235433390 Eh/α |
          | HOMO-LUMO GAP               3.820452478366 eV   |
           -------------------------------------------------

------------------------------------------------------------------------
 * finished run on 2026/07/08 at 08:53:31.997     
------------------------------------------------------------------------
 total:
 * wall-time:     0 d,  0 h,  0 min,  1.978 sec
 *  cpu-time:     0 d,  0 h,  0 min, 31.533 sec
 * ratio c/w:    15.944 speedup
 SCF:
 * wall-time:     0 d,  0 h,  0 min,  0.187 sec
 *  cpu-time:     0 d,  0 h,  0 min,  2.989 sec
 * ratio c/w:    15.947 speedup
 ANC optimizer:
 * wall-time:     0 d,  0 h,  0 min,  1.737 sec
 *  cpu-time:     0 d,  0 h,  0 min, 27.755 sec
 * ratio c/w:    15.980 speedup

