      -----------------------------------------------------------      
     |                   =====================                   |     
     |                           x T B                           |     
     |                   =====================                   |     
     |                         S. Grimme                         |     
     |          Mulliken Center for Theoretical Chemistry        |     
     |                    University of Bonn                     |     
      -----------------------------------------------------------      

   * xtb version 6.7.1 (edcfbbe) compiled by 'conda@5dfe00f5fb80' on 2026-06-10

   xtb is free software: you can redistribute it and/or modify it under
   the terms of the GNU Lesser General Public License as published by
   the Free Software Foundation, either version 3 of the License, or
   (at your option) any later version.
   
   xtb is distributed in the hope that it will be useful,
   but WITHOUT ANY WARRANTY; without even the implied warranty of
   MERCHANTABILITY or FITNESS FOR A PARTICULAR PURPOSE.  See the
   GNU Lesser General Public License for more details.
   
   Cite this work as:
   * C. Bannwarth, E. Caldeweyher, S. Ehlert, A. Hansen, P. Pracht,
     J. Seibert, S. Spicher, S. Grimme, WIREs Comput. Mol. Sci., 2020, 11,
     e01493. DOI: 10.1002/wcms.1493
   
   for GFN2-xTB:
   * C. Bannwarth, S. Ehlert and S. Grimme., J. Chem. Theory Comput., 2019,
     15, 1652-1671. DOI: 10.1021/acs.jctc.8b01176
   for GFN1-xTB:
   * S. Grimme, C. Bannwarth, P. Shushkov, J. Chem. Theory Comput., 2017,
     13, 1989-2009. DOI: 10.1021/acs.jctc.7b00118
   for GFN0-xTB:
   * P. Pracht, E. Caldeweyher, S. Ehlert, S. Grimme, ChemRxiv, 2019, preprint.
     DOI: 10.26434/chemrxiv.8326202.v1
   for GFN-FF:
   * S. Spicher and S. Grimme, Angew. Chem. Int. Ed., 2020, 59, 15665-15673.
     DOI: 10.1002/anie.202004239
   
   for ALPB and GBSA implicit solvation:
   * S. Ehlert, M. Stahn, S. Spicher, S. Grimme, J. Chem. Theory Comput.,
     2021, 17, 4250-4261. DOI: 10.1021/acs.jctc.1c00471
   
   for ddCOSMO and CPCM-X implicit solvation:
   * M. Stahn, S. Ehlert, S. Grimme, J. Phys. Chem. A,
     2023, XX, XXXX-XXXX. DOI: 10.1021/acs.jpca.3c04382
   
   for DFT-D4:
   * E. Caldeweyher, C. Bannwarth and S. Grimme, J. Chem. Phys., 2017,
     147, 034112. DOI: 10.1063/1.4993215
   * E. Caldeweyher, S. Ehlert, A. Hansen, H. Neugebauer, S. Spicher,
     C. Bannwarth and S. Grimme, J. Chem. Phys., 2019, 150, 154122.
     DOI: 10.1063/1.5090222
   * E. Caldeweyher, J.-M. Mewes, S. Ehlert and S. Grimme, Phys. Chem. Chem. Phys.
     2020, 22, 8499-8512. DOI: 10.1039/D0CP00502A
   
   for sTDA-xTB:
   * S. Grimme and C. Bannwarth, J. Chem. Phys., 2016, 145, 054103.
     DOI: 10.1063/1.4959605
   
   in the mass-spec context:
   * V. Asgeirsson, C. Bauer and S. Grimme, Chem. Sci., 2017, 8, 4879.
     DOI: 10.1039/c7sc00601b
   * J. Koopman and S. Grimme, ACS Omega 2019, 4, 12, 15120-15133.
     DOI: 10.1021/acsomega.9b02011
   
   for metadynamics refer to:
   * S. Grimme, J. Chem. Theory Comput., 2019, 155, 2847-2862
     DOI: 10.1021/acs.jctc.9b00143
   
   for SPH calculations refer to:
   * S. Spicher and S. Grimme, J. Chem. Theory Comput., 2021, 17, 1701-1714
     DOI: 10.1021/acs.jctc.0c01306
   
   for ONIOM refer to:
   * C. Plett, A. Katbashev, S. Ehlert, S. Grimme, M. Bursch,
     Phys. Chem. Chem. Phys., 2023, 25, 17860-17868. DOI: 10.1039/D3CP02178E
   
   for DIPRO refer to:
   * J. Kohn, N. Gildemeister, S. Grimme, D. Fazzi, A. Hansen,
     J. Chem. Phys., 2023, just accepted.
   
   for PTB refer to:
   * S. Grimme, M. Mueller, A. Hansen, J. Chem. Phys., 2023, 158, 124111.
     DOI: 10.1063/5.0137838
   
   with help from (in alphabetical order)
   P. Atkinson, C. Bannwarth, F. Bohle, G. Brandenburg, E. Caldeweyher
   M. Checinski, S. Dohm, S. Ehlert, S. Ehrlich, I. Gerasimov, C. Hölzer
   A. Katbashev, J. Kohn, J. Koopman, C. Lavigne, S. Lehtola, F. März, M. Müller,
   F. Musil, H. Neugebauer, J. Pisarek, C. Plett, P. Pracht, F. Pultar,
   J. Seibert, P. Shushkov, S. Spicher, M. Stahn, M. Steiner, T. Strunk,
   J. Stückrath, T. Rose, and J. Unsleber
   
 * started run on 2026/07/08 at 01:48:54.082     
   ID    Z sym.   atoms
    1    6 C      1-4, 6, 7, 9-14
    2    7 N      5
    3    8 O      8
    4    1 H      15-31

           -------------------------------------------------
          |                Calculation Setup                |
           -------------------------------------------------

          program call               : /home/ws/xd2484/miniforge3/envs/p3z_dft/bin/xtb xtb_input.xyz --gfn 2 --opt tight --cycles 500 --chrg 0 --uhf 0
          hostname                   : gpu10
          coordinate file            : xtb_input.xyz
          omp threads                :                    16


           -------------------------------------------------
          |                 G F N 2 - x T B                 |
           -------------------------------------------------

        Reference                      10.1021/acs.jctc.8b01176
      * Hamiltonian:
        H0-scaling (s, p, d)           1.850000    2.230000    2.230000
        zeta-weighting                 0.500000
      * Dispersion:
        s8                             2.700000
        a1                             0.520000
        a2                             5.000000
        s9                             5.000000
      * Repulsion:
        kExp                           1.500000    1.000000
        rExp                           1.000000
      * Coulomb:
        alpha                          2.000000
        third order                    shell-resolved
        anisotropic                    true
        a3                             3.000000
        a5                             4.000000
        cn-shift                       1.200000
        cn-exp                         4.000000
        max-rad                        5.000000


          ...................................................
          :                      SETUP                      :
          :.................................................:
          :  # basis functions                  73          :
          :  # atomic orbitals                  73          :
          :  # shells                           45          :
          :  # electrons                        76          :
          :  max. iterations                   250          :
          :  Hamiltonian                  GFN2-xTB          :
          :  restarted?                      false          :
          :  GBSA solvation                  false          :
          :  PC potential                    false          :
          :  electronic temp.          300.0000000     K    :
          :  accuracy                    1.0000000          :
          :  -> integral cutoff          0.2500000E+02      :
          :  -> integral neglect         0.1000000E-07      :
          :  -> SCF convergence          0.1000000E-05 Eh   :
          :  -> wf. convergence          0.1000000E-03 e    :
          :  Broyden damping             0.4000000          :
          :  net charge                          0          :
          :  unpaired electrons                  0          :
          ...................................................

 iter      E             dE          RMSdq      gap      omega  full diag
   1    -41.8805582 -0.418806E+02  0.377E+00    3.60       0.0  T
   2    -41.9557781 -0.752199E-01  0.212E+00    3.73       1.0  T
   3    -41.9569057 -0.112757E-02  0.109E+00    3.74       1.0  T
   4    -41.9611785 -0.427282E-02  0.286E-01    3.69       1.0  T
   5    -41.9627068 -0.152827E-02  0.889E-02    3.72       1.0  T
   6    -41.9628037 -0.968771E-04  0.436E-02    3.72       1.0  T
   7    -41.9628162 -0.125456E-04  0.182E-02    3.72       1.0  T
   8    -41.9628177 -0.153430E-05  0.522E-03    3.72       3.4  T
   9    -41.9628179 -0.104652E-06  0.156E-03    3.72      11.5  T
  10    -41.9628179 -0.226850E-07  0.872E-04    3.72      20.6  T
  11    -41.9628179 -0.373182E-08  0.337E-04    3.72      53.3  T

   *** convergence criteria satisfied after 11 iterations ***

         #    Occupation            Energy/Eh            Energy/eV
      -------------------------------------------------------------
         1        2.0000           -0.6888146             -18.7436
       ...           ...                  ...                  ...
        32        2.0000           -0.4386043             -11.9350
        33        2.0000           -0.4346239             -11.8267
        34        2.0000           -0.4273749             -11.6295
        35        2.0000           -0.4235394             -11.5251
        36        2.0000           -0.4116900             -11.2027
        37        2.0000           -0.3929684             -10.6932
        38        2.0000           -0.3792177             -10.3190 (HOMO)
        39                         -0.2425696              -6.6007 (LUMO)
        40                         -0.2362457              -6.4286
        41                         -0.2061000              -5.6083
        42                         -0.1068902              -2.9086
        43                         -0.0333617              -0.9078
       ...                                ...                  ...
        73                          0.6258926              17.0314
      -------------------------------------------------------------
                  HL-Gap            0.1366481 Eh            3.7184 eV
             Fermi-level           -0.3108937 Eh           -8.4598 eV

 SCC (total)                   0 d,  0 h,  0 min,  0.314 sec
 SCC setup                      ...        0 min,  0.003 sec (  1.106%)
 Dispersion                     ...        0 min,  0.006 sec (  1.977%)
 classical contributions        ...        0 min,  0.004 sec (  1.170%)
 integral evaluation            ...        0 min,  0.009 sec (  2.873%)
 iterations                     ...        0 min,  0.252 sec ( 80.163%)
 molecular gradient             ...        0 min,  0.040 sec ( 12.632%)
 printout                       ...        0 min,  0.000 sec (  0.070%)

         :::::::::::::::::::::::::::::::::::::::::::::::::::::
         ::                     SUMMARY                     ::
         :::::::::::::::::::::::::::::::::::::::::::::::::::::
         :: total energy             -41.363837350599 Eh    ::
         :: gradient norm              0.050146652778 Eh/a0 ::
         :: HOMO-LUMO gap              3.718384583434 eV    ::
         ::.................................................::
         :: SCC energy               -41.962684835265 Eh    ::
         :: -> isotropic ES            0.039105719166 Eh    ::
         :: -> anisotropic ES          0.007077273794 Eh    ::
         :: -> anisotropic XC          0.022092622658 Eh    ::
         :: -> dispersion             -0.026813260652 Eh    ::
         :: repulsion energy           0.598847484666 Eh    ::
         :: add. restraining           0.000000000000 Eh    ::
         :: total charge              -0.000000000000 e     ::
         :::::::::::::::::::::::::::::::::::::::::::::::::::::

      ----------------------------------------------------------- 
     |                   =====================                   |
     |                        A N C O P T                        |
     |                   =====================                   |
     |               Approximate Normal Coordinate               |
     |                Rational Function Optimizer                |
      ----------------------------------------------------------- 
      ----------------------------------------------------------- 
     |                   =====================                   |
     |                        A N C O P T                        |
     |                   =====================                   |
     |               Approximate Normal Coordinate               |
     |                Rational Function Optimizer                |
      ----------------------------------------------------------- 

          ...................................................
          :                      SETUP                      :
          :.................................................:
          :   optimization level             tight          :
          :   max. optcycles                   500          :
          :   ANC micro-cycles                  20          :
          :   degrees of freedom                87          :
          :.................................................:
          :   RF solver                   davidson          :
          :   write xtbopt.log                true          :
          :   linear?                        false          :
          :   energy convergence         0.1000000E-05 Eh   :
          :   grad. convergence          0.8000000E-03 Eh/α :
          :   maxmium RF displ.          1.0000000          :
          :   Hlow (freq-cutoff)         0.1000000E-01      :
          :   Hmax (freq-cutoff)         5.0000000          :
          :   S6 in model hess.         20.0000000          :
          ...................................................

generating ANC from exact Hessian ...
Using Lindh-Hessian (1995)
 Shifting diagonal of input Hessian by    9.2093780600543667E-003
 Lowest  eigenvalues of input Hessian
    0.000000    0.000000    0.000000    0.000000    0.000000    0.000000
    0.010000    0.010234    0.010927    0.011067    0.011805    0.013726
    0.014826    0.015497    0.018734    0.019708    0.020716    0.023111
 Highest eigenvalues
    1.662671    1.698966    1.850782    1.952074    1.974399    2.176757


........................................................................
.............................. CYCLE    1 ..............................
........................................................................

 iter      E             dE          RMSdq      gap      omega  full diag
   1    -41.9628179 -0.419628E+02  0.110E-04    3.72       0.0  T
   2    -41.9628179 -0.109502E-09  0.698E-05    3.72     257.4  T
   3    -41.9628179 -0.887610E-10  0.389E-05    3.72     461.2  T
     SCC iter.                  ...        0 min,  0.043 sec
     gradient                   ...        0 min,  0.027 sec
 * total energy  :   -41.3638374 Eh     change       -0.1287020E-08 Eh
   gradient norm :     0.0501519 Eh/α   predicted     0.0000000E+00 (-100.00%)
   displ. norm   :     0.2538993 α      lambda       -0.6720148E-02
   maximum displ.:     0.0896657 α      in ANC's #21, #50, #20, ...

........................................................................
.............................. CYCLE    2 ..............................
........................................................................

 iter      E             dE          RMSdq      gap      omega  full diag
   1    -41.9957337 -0.419957E+02  0.166E-01    3.78       0.0  T
   2    -41.9958059 -0.722286E-04  0.103E-01    3.79       1.0  T
   3    -41.9957905  0.153890E-04  0.435E-02    3.79       1.0  T
   4    -41.9958199 -0.293610E-04  0.923E-03    3.79       1.9  T
   5    -41.9958214 -0.150738E-05  0.350E-03    3.79       5.1  T
   6    -41.9958215 -0.123798E-06  0.181E-03    3.79       9.9  T
   7    -41.9958215 -0.188987E-07  0.582E-04    3.79      30.9  T
   8    -41.9958215 -0.101246E-08  0.217E-04    3.79      82.7  T
     SCC iter.                  ...        0 min,  0.109 sec
     gradient                   ...        0 min,  0.037 sec
 * total energy  :   -41.3681391 Eh     change       -0.4301790E-02 Eh
   gradient norm :     0.0145422 Eh/α   predicted    -0.3577605E-02 ( -16.83%)
   displ. norm   :     0.1989996 α      lambda       -0.1126914E-02
   maximum displ.:     0.0874429 α      in ANC's #11, #6, #7, ...

........................................................................
.............................. CYCLE    3 ..............................
........................................................................

 iter      E             dE          RMSdq      gap      omega  full diag
   1    -42.0072948 -0.420073E+02  0.887E-02    3.79       0.0  T
   2    -42.0073179 -0.231857E-04  0.564E-02    3.80       1.0  T
   3    -42.0073140  0.398186E-05  0.236E-02    3.80       1.0  T
   4    -42.0073213 -0.737383E-05  0.635E-03    3.80       2.8  T
   5    -42.0073224 -0.105371E-05  0.128E-03    3.80      14.0  T
   6    -42.0073224 -0.976773E-08  0.745E-04    3.80      24.1  T
   7    -42.0073224 -0.302585E-08  0.250E-04    3.80      71.8  T
     SCC iter.                  ...        0 min,  0.091 sec
     gradient                   ...        0 min,  0.040 sec
 * total energy  :   -41.3688090 Eh     change       -0.6698487E-03 Eh
   gradient norm :     0.0046410 Eh/α   predicted    -0.5861274E-03 ( -12.50%)
   displ. norm   :     0.1514294 α      lambda       -0.2462675E-03
   maximum displ.:     0.0796876 α      in ANC's #6, #3, #7, ...

........................................................................
.............................. CYCLE    4 ..............................
........................................................................

 iter      E             dE          RMSdq      gap      omega  full diag
   1    -42.0085134 -0.420085E+02  0.598E-02    3.80       0.0  T
   2    -42.0085173 -0.383269E-05  0.358E-02    3.80       1.0  T
   3    -42.0085163  0.927590E-06  0.789E-03    3.80       2.3  T
   4    -42.0085175 -0.114826E-05  0.257E-03    3.80       7.0  T
   5    -42.0085177 -0.222957E-06  0.726E-04    3.80      24.7  T
   6    -42.0085177 -0.618513E-09  0.240E-04    3.80      74.8  T
     SCC iter.                  ...        0 min,  0.084 sec
     gradient                   ...        0 min,  0.042 sec
 * total energy  :   -41.3690026 Eh     change       -0.1936209E-03 Eh
   gradient norm :     0.0029411 Eh/α   predicted    -0.1259581E-03 ( -34.95%)
   displ. norm   :     0.2944268 α      lambda       -0.3359347E-03
   maximum displ.:     0.1560842 α      in ANC's #6, #3, #7, ...

........................................................................
.............................. CYCLE    5 ..............................
........................................................................

 iter      E             dE          RMSdq      gap      omega  full diag
   1    -42.0073625 -0.420074E+02  0.113E-01    3.79       0.0  T
   2    -42.0073676 -0.511802E-05  0.666E-02    3.79       1.0  T
   3    -42.0073668  0.849139E-06  0.965E-03    3.79       1.9  T
   4    -42.0073683 -0.150308E-05  0.304E-03    3.79       5.9  T
   5    -42.0073684 -0.129707E-06  0.137E-03    3.79      13.1  T
   6    -42.0073684 -0.550709E-08  0.471E-04    3.79      38.1  T
   7    -42.0073684 -0.743889E-09  0.183E-04    3.79      98.3  T
     SCC iter.                  ...        0 min,  0.134 sec
     gradient                   ...        0 min,  0.040 sec
 * total energy  :   -41.3692298 Eh     change       -0.2271958E-03 Eh
   gradient norm :     0.0063413 Eh/α   predicted    -0.1825296E-03 ( -19.66%)
   displ. norm   :     0.2070305 α      lambda       -0.1632953E-03
   maximum displ.:     0.1116543 α      in ANC's #3, #6, #2, ...

........................................................................
.............................. CYCLE    6 ..............................
........................................................................

 iter      E             dE          RMSdq      gap      omega  full diag
   1    -42.0064536 -0.420065E+02  0.815E-02    3.80       0.0  T
   2    -42.0064556 -0.198595E-05  0.479E-02    3.80       1.0  T
   3    -42.0064530  0.260659E-05  0.117E-02    3.80       1.5  T
   4    -42.0064562 -0.320596E-05  0.164E-03    3.80      11.0  T
   5    -42.0064562 -0.253249E-07  0.767E-04    3.80      23.4  T
   6    -42.0064562 -0.771713E-09  0.374E-04    3.80      48.0  T
     SCC iter.                  ...        0 min,  0.102 sec
     gradient                   ...        0 min,  0.045 sec
 * total energy  :   -41.3693552 Eh     change       -0.1253641E-03 Eh
   gradient norm :     0.0064968 Eh/α   predicted    -0.8515351E-04 ( -32.08%)
   displ. norm   :     0.2141042 α      lambda       -0.1684677E-03
   maximum displ.:     0.1187157 α      in ANC's #3, #2, #6, ...

........................................................................
.............................. CYCLE    7 ..............................
........................................................................

 iter      E             dE          RMSdq      gap      omega  full diag
   1    -42.0065597 -0.420066E+02  0.875E-02    3.82       0.0  T
   2    -42.0065634 -0.371670E-05  0.513E-02    3.81       1.0  T
   3    -42.0065589  0.448793E-05  0.155E-02    3.81       1.2  T
   4    -42.0065644 -0.547543E-05  0.222E-03    3.81       8.1  T
   5    -42.0065645 -0.856672E-07  0.821E-04    3.81      21.9  T
   6    -42.0065645 -0.190933E-08  0.414E-04    3.81      43.4  T
     SCC iter.                  ...        0 min,  0.103 sec
     gradient                   ...        0 min,  0.040 sec
 * total energy  :   -41.3694753 Eh     change       -0.1201542E-03 Eh
   gradient norm :     0.0033217 Eh/α   predicted    -0.8809599E-04 ( -26.68%)
   displ. norm   :     0.1870106 α      lambda       -0.8768855E-04
   maximum displ.:     0.1172997 α      in ANC's #2, #3, #5, ...

........................................................................
.............................. CYCLE    8 ..............................
........................................................................

 iter      E             dE          RMSdq      gap      omega  full diag
   1    -42.0066969 -0.420067E+02  0.778E-02    3.82       0.0  T
   2    -42.0066990 -0.212031E-05  0.456E-02    3.82       1.0  T
   3    -42.0066971  0.185302E-05  0.106E-02    3.82       1.7  T
   4    -42.0066994 -0.226087E-05  0.163E-03    3.82      11.0  T
   5    -42.0066994 -0.370686E-07  0.581E-04    3.82      30.9  T
   6    -42.0066994 -0.263732E-09  0.264E-04    3.82      68.1  T
     SCC iter.                  ...        0 min,  0.100 sec
     gradient                   ...        0 min,  0.065 sec
 * total energy  :   -41.3695377 Eh     change       -0.6241575E-04 Eh
   gradient norm :     0.0017421 Eh/α   predicted    -0.4537800E-04 ( -27.30%)
   displ. norm   :     0.1761147 α      lambda       -0.4640384E-04
   maximum displ.:     0.1346584 α      in ANC's #2, #3, #5, ...

........................................................................
.............................. CYCLE    9 ..............................
........................................................................

 iter      E             dE          RMSdq      gap      omega  full diag
   1    -42.0084296 -0.420084E+02  0.723E-02    3.84       0.0  T
   2    -42.0084308 -0.123077E-05  0.422E-02    3.83       1.0  T
   3    -42.0084298  0.962968E-06  0.778E-03    3.83       2.3  T
   4    -42.0084310 -0.120826E-05  0.136E-03    3.83      13.2  T
   5    -42.0084311 -0.250128E-07  0.527E-04    3.83      34.1  T
   6    -42.0084311 -0.573024E-09  0.254E-04    3.83      70.8  T
     SCC iter.                  ...        0 min,  0.116 sec
     gradient                   ...        0 min,  0.049 sec
 * total energy  :   -41.3695808 Eh     change       -0.4303963E-04 Eh
   gradient norm :     0.0031139 Eh/α   predicted    -0.2352323E-04 ( -45.35%)
   displ. norm   :     0.0718431 α      lambda       -0.2683522E-04
   maximum displ.:     0.0580544 α      in ANC's #2, #5, #3, ...

........................................................................
.............................. CYCLE   10 ..............................
........................................................................

 iter      E             dE          RMSdq      gap      omega  full diag
   1    -42.0082278 -0.420082E+02  0.283E-02    3.83       0.0  T
   2    -42.0082284 -0.563928E-06  0.166E-02    3.83       1.1  T
   3    -42.0082282  0.140709E-06  0.303E-03    3.83       5.9  T
   4    -42.0082284 -0.179299E-06  0.785E-04    3.83      22.9  T
   5    -42.0082284 -0.194007E-07  0.254E-04    3.83      70.8  T
     SCC iter.                  ...        0 min,  0.076 sec
     gradient                   ...        0 min,  0.043 sec
 * total energy  :   -41.3696024 Eh     change       -0.2159423E-04 Eh
   gradient norm :     0.0018060 Eh/α   predicted    -0.1348717E-04 ( -37.54%)
   displ. norm   :     0.0877491 α      lambda       -0.2562634E-04
   maximum displ.:     0.0724401 α      in ANC's #2, #6, #5, ...

........................................................................
.............................. CYCLE   11 ..............................
........................................................................

 iter      E             dE          RMSdq      gap      omega  full diag
   1    -42.0085574 -0.420086E+02  0.257E-02    3.83       0.0  T
   2    -42.0085575 -0.119220E-06  0.152E-02    3.83       1.2  T
   3    -42.0085575  0.738590E-07  0.213E-03    3.83       8.4  T
   4    -42.0085576 -0.109091E-06  0.558E-04    3.83      32.2  T
   5    -42.0085576 -0.237296E-08  0.268E-04    3.83      67.0  T
     SCC iter.                  ...        0 min,  0.065 sec
     gradient                   ...        0 min,  0.039 sec
 * total energy  :   -41.3696324 Eh     change       -0.3005016E-04 Eh
   gradient norm :     0.0010712 Eh/α   predicted    -0.1285794E-04 ( -57.21%)
   displ. norm   :     0.0817647 α      lambda       -0.1808010E-04
   maximum displ.:     0.0678954 α      in ANC's #2, #6, #1, ...

........................................................................
.............................. CYCLE   12 ..............................
........................................................................

 iter      E             dE          RMSdq      gap      omega  full diag
   1    -42.0080764 -0.420081E+02  0.241E-02    3.83       0.0  T
   2    -42.0080767 -0.322022E-06  0.142E-02    3.83       1.3  T
   3    -42.0080766  0.154728E-06  0.277E-03    3.83       6.5  T
   4    -42.0080768 -0.193650E-06  0.764E-04    3.83      23.5  T
   5    -42.0080768 -0.183153E-07  0.285E-04    3.83      63.0  T
     SCC iter.                  ...        0 min,  0.076 sec
     gradient                   ...        0 min,  0.038 sec
 * total energy  :   -41.3696540 Eh     change       -0.2154356E-04 Eh
   gradient norm :     0.0009941 Eh/α   predicted    -0.9068464E-05 ( -57.91%)
   displ. norm   :     0.0709667 α      lambda       -0.1178544E-04
   maximum displ.:     0.0581642 α      in ANC's #2, #6, #1, ...

........................................................................
.............................. CYCLE   13 ..............................
........................................................................

 iter      E             dE          RMSdq      gap      omega  full diag
   1    -42.0080576 -0.420081E+02  0.223E-02    3.83       0.0  T
   2    -42.0080577 -0.106796E-06  0.132E-02    3.83       1.4  T
   3    -42.0080576  0.117250E-06  0.217E-03    3.83       8.3  T
   4    -42.0080578 -0.151815E-06  0.480E-04    3.83      37.4  T
   5    -42.0080578 -0.264370E-08  0.238E-04    3.83      75.6  T
     SCC iter.                  ...        0 min,  0.118 sec
     gradient                   ...        0 min,  0.048 sec
 * total energy  :   -41.3696681 Eh     change       -0.1414089E-04 Eh
   gradient norm :     0.0009511 Eh/α   predicted    -0.5907924E-05 ( -58.22%)
   displ. norm   :     0.0626861 α      lambda       -0.9951517E-05
   maximum displ.:     0.0549414 α      in ANC's #2, #4, #1, ...

........................................................................
.............................. CYCLE   14 ..............................
........................................................................

 iter      E             dE          RMSdq      gap      omega  full diag
   1    -42.0078235 -0.420078E+02  0.231E-02    3.83       0.0  T
   2    -42.0078236 -0.126333E-06  0.135E-02    3.83       1.3  T
   3    -42.0078235  0.147270E-06  0.265E-03    3.83       6.8  T
   4    -42.0078236 -0.179560E-06  0.432E-04    3.83      41.6  T
   5    -42.0078237 -0.306442E-08  0.174E-04    3.83     103.4  T
     SCC iter.                  ...        0 min,  0.071 sec
     gradient                   ...        0 min,  0.035 sec
 * total energy  :   -41.3696807 Eh     change       -0.1263991E-04 Eh
   gradient norm :     0.0007580 Eh/α   predicted    -0.4987682E-05 ( -60.54%)
   displ. norm   :     0.0740415 α      lambda       -0.1016561E-04
   maximum displ.:     0.0610202 α      in ANC's #2, #4, #3, ...

........................................................................
.............................. CYCLE   15 ..............................
........................................................................

 iter      E             dE          RMSdq      gap      omega  full diag
   1    -42.0078195 -0.420078E+02  0.289E-02    3.83       0.0  T
   2    -42.0078196 -0.168296E-06  0.169E-02    3.83       1.1  T
   3    -42.0078195  0.128283E-06  0.270E-03    3.83       6.6  T
   4    -42.0078197 -0.160789E-06  0.461E-04    3.83      39.0  T
   5    -42.0078197 -0.301663E-08  0.163E-04    3.83     110.0  T
     SCC iter.                  ...        0 min,  0.078 sec
     gradient                   ...        0 min,  0.046 sec
 * total energy  :   -41.3696944 Eh     change       -0.1360617E-04 Eh
   gradient norm :     0.0006820 Eh/α   predicted    -0.5096981E-05 ( -62.54%)
   displ. norm   :     0.1013290 α      lambda       -0.1241400E-04
   maximum displ.:     0.0827468 α      in ANC's #2, #3, #4, ...

........................................................................
.............................. CYCLE   16 ..............................
........................................................................

 iter      E             dE          RMSdq      gap      omega  full diag
   1    -42.0080642 -0.420081E+02  0.404E-02    3.84       0.0  T
   2    -42.0080645 -0.299534E-06  0.236E-02    3.83       1.0  T
   3    -42.0080643  0.249514E-06  0.367E-03    3.83       4.9  T
   4    -42.0080646 -0.310386E-06  0.604E-04    3.83      29.7  T
   5    -42.0080646 -0.545654E-08  0.217E-04    3.83      82.6  T
     SCC iter.                  ...        0 min,  0.275 sec
     gradient                   ...        0 min,  0.061 sec
 * total energy  :   -41.3697102 Eh     change       -0.1584466E-04 Eh
   gradient norm :     0.0004652 Eh/α   predicted    -0.6238702E-05 ( -60.63%)
   displ. norm   :     0.1120825 α      lambda       -0.1070122E-04
   maximum displ.:     0.0925939 α      in ANC's #2, #3, #1, ...

........................................................................
.............................. CYCLE   17 ..............................
........................................................................

 iter      E             dE          RMSdq      gap      omega  full diag
   1    -42.0080867 -0.420081E+02  0.454E-02    3.84       0.0  T
   2    -42.0080870 -0.327930E-06  0.265E-02    3.83       1.0  T
   3    -42.0080868  0.278405E-06  0.386E-03    3.83       4.7  T
   4    -42.0080871 -0.349790E-06  0.632E-04    3.83      28.4  T
   5    -42.0080871 -0.546187E-08  0.245E-04    3.83      73.2  T
     SCC iter.                  ...        0 min,  0.077 sec
     gradient                   ...        0 min,  0.044 sec
 * total energy  :   -41.3697234 Eh     change       -0.1324329E-04 Eh
   gradient norm :     0.0006037 Eh/α   predicted    -0.5383530E-05 ( -59.35%)
   displ. norm   :     0.0852899 α      lambda       -0.6921683E-05
   maximum displ.:     0.0735641 α      in ANC's #2, #1, #3, ...

........................................................................
.............................. CYCLE   18 ..............................
........................................................................

 iter      E             dE          RMSdq      gap      omega  full diag
   1    -42.0082716 -0.420083E+02  0.339E-02    3.84       0.0  T
   2    -42.0082718 -0.156054E-06  0.198E-02    3.84       1.0  T
   3    -42.0082717  0.139187E-06  0.269E-03    3.84       6.7  T
   4    -42.0082718 -0.177091E-06  0.465E-04    3.84      38.6  T
   5    -42.0082718 -0.267324E-08  0.194E-04    3.84      92.4  T
     SCC iter.                  ...        0 min,  0.075 sec
     gradient                   ...        0 min,  0.039 sec
 * total energy  :   -41.3697322 Eh     change       -0.8731217E-05 Eh
   gradient norm :     0.0004478 Eh/α   predicted    -0.3473510E-05 ( -60.22%)
   displ. norm   :     0.0732063 α      lambda       -0.5609028E-05
   maximum displ.:     0.0641225 α      in ANC's #2, #1, #3, ...

........................................................................
.............................. CYCLE   19 ..............................
........................................................................

 iter      E             dE          RMSdq      gap      omega  full diag
   1    -42.0084229 -0.420084E+02  0.285E-02    3.84       0.0  T
   2    -42.0084230 -0.996806E-07  0.167E-02    3.84       1.1  T
   3    -42.0084229  0.147805E-06  0.260E-03    3.84       6.9  T
   4    -42.0084230 -0.181222E-06  0.351E-04    3.84      51.2  T
   5    -42.0084230 -0.111081E-08  0.163E-04    3.84     110.2  T
     SCC iter.                  ...        0 min,  0.086 sec
     gradient                   ...        0 min,  0.049 sec
 * total energy  :   -41.3697393 Eh     change       -0.7132538E-05 Eh
   gradient norm :     0.0004656 Eh/α   predicted    -0.2812178E-05 ( -60.57%)
   displ. norm   :     0.0638325 α      lambda       -0.4647013E-05
   maximum displ.:     0.0552272 α      in ANC's #2, #1, #3, ...

........................................................................
.............................. CYCLE   20 ..............................
........................................................................

 iter      E             dE          RMSdq      gap      omega  full diag
   1    -42.0083875 -0.420084E+02  0.238E-02    3.84       0.0  T
   2    -42.0083876 -0.735092E-07  0.139E-02    3.84       1.3  T
   3    -42.0083875  0.756989E-07  0.192E-03    3.84       9.4  T
   4    -42.0083876 -0.962503E-07  0.341E-04    3.84      52.6  T
   5    -42.0083876 -0.112053E-08  0.158E-04    3.84     113.5  T
     SCC iter.                  ...        0 min,  0.096 sec
     gradient                   ...        0 min,  0.048 sec
 * total energy  :   -41.3697453 Eh     change       -0.6039608E-05 Eh
   gradient norm :     0.0003833 Eh/α   predicted    -0.2328767E-05 ( -61.44%)
   displ. norm   :     0.0607652 α      lambda       -0.3921372E-05
   maximum displ.:     0.0516302 α      in ANC's #2, #1, #4, ...
 * RMSD in coord.:     0.3611497 α      energy gain  -0.5907997E-02 Eh

generating ANC from exact Hessian ...
Using Lindh-Hessian (1995)
 Shifting diagonal of input Hessian by    9.1278975741135946E-003
 Lowest  eigenvalues of input Hessian
    0.000000    0.000000    0.000000    0.000000    0.000000    0.000000
    0.010000    0.010268    0.011017    0.011094    0.011844    0.014039
    0.015234    0.016049    0.018934    0.019984    0.020980    0.024337
 Highest eigenvalues
    1.743617    1.818733    1.916436    2.026373    2.066450    2.316676


........................................................................
.............................. CYCLE   21 ..............................
........................................................................

 iter      E             dE          RMSdq      gap      omega  full diag
   1    -42.0083175 -0.420083E+02  0.213E-02    3.84       0.0  T
   2    -42.0083175 -0.491304E-07  0.125E-02    3.84       1.4  T
   3    -42.0083175  0.634010E-07  0.185E-03    3.84       9.7  T
   4    -42.0083175 -0.808521E-07  0.290E-04    3.84      62.0  T
   5    -42.0083175 -0.541867E-09  0.147E-04    3.84     122.0  T
     SCC iter.                  ...        0 min,  0.065 sec
     gradient                   ...        0 min,  0.023 sec
 * total energy  :   -41.3697501 Eh     change       -0.4752151E-05 Eh
   gradient norm :     0.0003405 Eh/α   predicted     0.0000000E+00 (-100.00%)
   displ. norm   :     0.0107234 α      lambda       -0.1049326E-06
   maximum displ.:     0.0089383 α      in ANC's #2, #4, #3, ...

........................................................................
.............................. CYCLE   22 ..............................
........................................................................

 iter      E             dE          RMSdq      gap      omega  full diag
   1    -42.0083532 -0.420084E+02  0.338E-03    3.84       0.0  T
   2    -42.0083532 -0.196053E-08  0.200E-03    3.84       9.0  T
   3    -42.0083532  0.361381E-08  0.336E-04    3.84      53.4  T
   4    -42.0083532 -0.434264E-08  0.680E-05    3.84     264.0  T
     SCC iter.                  ...        0 min,  0.047 sec
     gradient                   ...        0 min,  0.037 sec
 * total energy  :   -41.3697509 Eh     change       -0.8459779E-06 Eh
   gradient norm :     0.0001489 Eh/α   predicted    -0.3919121E-06 ( -53.67%)
   displ. norm   :     0.0163377 α      lambda       -0.7514143E-06
   maximum displ.:     0.0125560 α      in ANC's #2, #4, #3, ...

   *** GEOMETRY OPTIMIZATION CONVERGED AFTER 22 ITERATIONS ***

------------------------------------------------------------------------
 total energy gain   :        -0.0059136 Eh       -3.7108 kcal/mol
 total RMSD          :         0.3620682 a0        0.1916 Å
 total power (kW/mol):        -0.7057337 (step)   -3.9893 (real)
------------------------------------------------------------------------

 ANCopt (total)                0 d,  0 h,  0 min,  3.892 sec
 optimizer setup                ...        0 min,  0.001 sec (  0.017%)
 model hessian                  ...        0 min,  0.028 sec (  0.714%)
 ANC generation                 ...        0 min,  0.003 sec (  0.074%)
 coordinate transformation      ...        0 min,  0.000 sec (  0.009%)
 single point calculation       ...        0 min,  3.764 sec ( 96.704%)
 optimization log               ...        0 min,  0.003 sec (  0.087%)
 hessian update                 ...        0 min,  0.087 sec (  2.227%)
 rational function              ...        0 min,  0.002 sec (  0.057%)

================
 final structure:
================
31
 xtb: 6.7.1 (edcfbbe)
C           -4.28167571143254       -1.22255071051040       -0.20032231780204
C           -3.09519337567947       -1.02481651195880        0.73489347944405
C           -1.99530824985785       -0.19715241960677        0.07653045957382
C           -0.81805630664675        0.02510625766087        1.02724678876364
N            0.27338507248041        0.76418087461457        0.40368479083745
C            0.07703233806793        2.09722333458391        0.18661549362041
C            1.11459930458278        2.82324565900432       -0.64156544654134
O           -0.91713177234966        2.65904746446691        0.60110524413537
C            1.46283109141021        0.06638122125192        0.11728750863441
C            1.42036699193927       -1.13616561801527       -0.58332208626812
C            2.58470191266538       -1.83783377664000       -0.83623067853280
C            3.80415883503649       -1.35291374289601       -0.39538391080901
C            3.85100609085682       -0.16528508972858        0.31516455998027
C            2.68994094338500        0.53720884362152        0.57860801341849
H           -3.97311723900390       -1.73954646209268       -1.10664659164628
H           -5.05698946961972       -1.81180715584458        0.28354394506693
H           -4.70535975377115       -0.26162322033691       -0.48240731432379
H           -3.42910716852364       -0.51909376935255        1.64295756984385
H           -2.69339569086405       -1.99906601355906        1.02548664568469
H           -1.65193760420548       -0.70159169858751       -0.82974319827931
H           -2.39328733399353        0.77649827810437       -0.21200581328274
H           -0.42266144455367       -0.92865611112083        1.38284066560390
H           -1.16585660630257        0.60798881994709        1.88606405276921
H            1.80940735717747        3.34807861512673        0.01052796511203
H            0.59608013035016        3.57111447131404       -1.23744915524872
H            1.66756080344705        2.15009530687484       -1.28965874598851
H            0.47494295805253       -1.51858843120299       -0.93516239354615
H            2.53841640529971       -2.76677298353091       -1.38513518102565
H            4.71166477743172       -1.90127712550112       -0.59728298294046
H            4.79595008796132        0.21138450075767        0.67767837200006
H            2.72703262666024        1.44718719315430        1.15707705648213

 Bond Distances (Angstroems)
 ---------------------------
C1-C2=1.5236         C1-H15=1.0881        C1-H16=1.0874        C1-H17=1.0874        C2-C1=1.5236         C2-C3=1.5258         
C2-H18=1.0917        C2-H19=1.0932        C3-C2=1.5258         C3-C4=1.5294         C3-H20=1.0926        C3-H21=1.0907        
C4-C3=1.5294         C4-N5=1.4582         C4-H22=1.0920        C4-H23=1.0947        N5-C4=1.4582         N5-C6=1.3648         
N5-C9=1.4084         C6-N5=1.3648         C6-C7=1.5131         C6-O8=1.2148         C7-C6=1.5131         C7-H24=1.0879        
C7-H25=1.0878        C7-H26=1.0858        O8-C6=1.2148         C9-N5=1.4084         C9-C10=1.3924        C9-C14=1.3929        
C10-C9=1.3924        C10-C11=1.3827       C10-H27=1.0788       C11-C10=1.3827       C11-C12=1.3844       C11-H28=1.0800       
C12-C11=1.3844       C12-C13=1.3848       C12-H29=1.0794       C13-C12=1.3848       C13-C14=1.3824       C13-H30=1.0799       
C14-C9=1.3929        C14-C13=1.3824       C14-H31=1.0789       H15-C1=1.0881        H16-C1=1.0874        H17-C1=1.0874        
H18-C2=1.0917        H19-C2=1.0932        H20-C3=1.0926        H21-C3=1.0907        H22-C4=1.0920        H23-C4=1.0947        
H24-C7=1.0879        H25-C7=1.0878        H26-C7=1.0858        H27-C10=1.0788       H28-C11=1.0800       H29-C12=1.0794       
H30-C13=1.0799       H31-C14=1.0789       
 C  H  Rav=1.0868 sigma=0.0053  Rmin=1.0788  Rmax=1.0947    17
 C  C  Rav=1.4412 sigma=0.0670  Rmin=1.3824  Rmax=1.5294    10
 N  C  Rav=1.4105 sigma=0.0382  Rmin=1.3648  Rmax=1.4582     3
 O  C  Rav=1.2148 sigma=0.0000  Rmin=1.2148  Rmax=1.2148     1

 selected bond angles (degree)
 --------------------
H15-C1-C2=110.62               H16-C1-C2=110.64               H16-C1-H15=108.38              H17-C1-C2=110.36               
H17-C1-H15=108.32              H17-C1-H16=108.45              C3-C2-C1=111.52                H18-C2-C1=109.42               
H18-C2-C3=109.15               H19-C2-C1=109.49               H19-C2-C3=109.46               H19-C2-H18=107.71              
C4-C3-C2=111.44                H20-C3-C2=109.51               H20-C3-C4=109.93               H21-C3-C2=109.59               
H21-C3-C4=108.40               H21-C3-H20=107.90              N5-C4-C3=112.58                H22-C4-C3=110.74               
H22-C4-N5=108.11               H23-C4-C3=108.69               H23-C4-N5=107.66               H23-C4-H22=108.94              
C6-N5-C4=117.09                C9-N5-C4=117.90                C9-N5-C6=124.96                C7-C6-N5=117.20                
O8-C6-N5=121.01                O8-C6-C7=121.74                H24-C7-C6=109.96               H25-C7-C6=107.63               
H25-C7-H24=107.53              H26-C7-C6=112.24               H26-C7-H24=109.37              H26-C7-H25=110.00              
C10-C9-N5=120.29               C14-C9-N5=120.61               C14-C9-C10=119.04              C11-C10-C9=120.31              
H27-C10-C9=119.80              H27-C10-C11=119.89             

 selected dihedral angles (degree)
 ---------------------------------
C3-C2-C1-H15= 60.01           C3-C2-C1-H16=180.12           C3-C2-C1-H17=300.15           H18-C2-C1-H15=180.87          
H18-C2-C1-H16=300.98          H18-C2-C1-H17= 61.02          H19-C2-C1-H15=298.70          H19-C2-C1-H16= 58.82          
H19-C2-C1-H17=178.85          C4-C3-C2-C1=178.80            C4-C3-C2-H18= 57.78           C4-C3-C2-H19=300.12           
H20-C3-C2-C1=300.64           H20-C3-C2-H18=179.62          H20-C3-C2-H19= 61.96          H21-C3-C2-C1= 58.82           
H21-C3-C2-H18=297.80          H21-C3-C2-H19=180.14          N5-C4-C3-C2=177.49            N5-C4-C3-H20= 55.89           
N5-C4-C3-H21=298.17           H22-C4-C3-C2= 56.32           H22-C4-C3-H20=294.72          H22-C4-C3-H21=177.00          
H23-C4-C3-C2=296.68           H23-C4-C3-H20=175.07          H23-C4-C3-H21= 57.36          C6-N5-C4-C3= 72.84            
C6-N5-C4-H22=195.50           C6-N5-C4-H23=313.06           C9-N5-C4-C3=250.53            C9-N5-C4-H22= 13.19           
C9-N5-C4-H23=130.75           C7-C6-N5-C4=188.88            C7-C6-N5-C9= 11.37            O8-C6-N5-C4=  6.17            
O8-C6-N5-C9=188.66            H24-C7-C6-N5=261.19           H24-C7-C6-O8= 83.93           H25-C7-C6-N5=144.35           
H25-C7-C6-O8=327.09           H26-C7-C6-N5= 23.18           H26-C7-C6-O8=205.91           C10-C9-N5-C4= 50.88           
C10-C9-N5-C6=228.37           C14-C9-N5-C4=233.65           C14-C9-N5-C6= 51.14           C11-C10-C9-N5=181.58          
C11-C10-C9-C14=358.85         H27-C10-C9-N5=  1.94          H27-C10-C9-C14=179.22         
           -------------------------------------------------
          |                Final Singlepoint                |
           -------------------------------------------------

          ...................................................
          :                      SETUP                      :
          :.................................................:
          :  # basis functions                  73          :
          :  # atomic orbitals                  73          :
          :  # shells                           45          :
          :  # electrons                        76          :
          :  max. iterations                   250          :
          :  Hamiltonian                  GFN2-xTB          :
          :  restarted?                      false          :
          :  GBSA solvation                  false          :
          :  PC potential                    false          :
          :  electronic temp.          300.0000000     K    :
          :  accuracy                    1.0000000          :
          :  -> integral cutoff          0.2500000E+02      :
          :  -> integral neglect         0.1000000E-07      :
          :  -> SCF convergence          0.1000000E-05 Eh   :
          :  -> wf. convergence          0.1000000E-03 e    :
          :  Broyden damping             0.4000000          :
          :  net charge                          0          :
          :  unpaired electrons                  0          :
          ...................................................

 iter      E             dE          RMSdq      gap      omega  full diag
   1    -42.0083532 -0.420084E+02  0.327E-05    3.84       0.0  T
   2    -42.0083532 -0.163425E-11  0.198E-05    3.84     906.5  T
   3    -42.0083532  0.117240E-11  0.920E-06    3.84    1952.8  T

   *** convergence criteria satisfied after 3 iterations ***

         #    Occupation            Energy/Eh            Energy/eV
      -------------------------------------------------------------
         1        2.0000           -0.6915397             -18.8178
       ...           ...                  ...                  ...
        32        2.0000           -0.4381091             -11.9216
        33        2.0000           -0.4359171             -11.8619
        34        2.0000           -0.4264745             -11.6050
        35        2.0000           -0.4201531             -11.4329
        36        2.0000           -0.4165799             -11.3357
        37        2.0000           -0.3904495             -10.6247
        38        2.0000           -0.3806057             -10.3568 (HOMO)
        39                         -0.2395477              -6.5184 (LUMO)
        40                         -0.2348340              -6.3902
        41                         -0.1971832              -5.3656
        42                         -0.1041099              -2.8330
        43                         -0.0093299              -0.2539
       ...                                ...                  ...
        73                          0.6630149              18.0416
      -------------------------------------------------------------
                  HL-Gap            0.1410579 Eh            3.8384 eV
             Fermi-level           -0.3100767 Eh           -8.4376 eV

 SCC (total)                   0 d,  0 h,  0 min,  0.114 sec
 SCC setup                      ...        0 min,  0.006 sec (  5.556%)
 Dispersion                     ...        0 min,  0.009 sec (  7.784%)
 classical contributions        ...        0 min,  0.004 sec (  3.867%)
 integral evaluation            ...        0 min,  0.012 sec ( 10.621%)
 iterations                     ...        0 min,  0.045 sec ( 39.282%)
 molecular gradient             ...        0 min,  0.037 sec ( 32.728%)
 printout                       ...        0 min,  0.000 sec (  0.138%)

         :::::::::::::::::::::::::::::::::::::::::::::::::::::
         ::                     SUMMARY                     ::
         :::::::::::::::::::::::::::::::::::::::::::::::::::::
         :: total energy             -41.369750945331 Eh    ::
         :: gradient norm              0.000149144771 Eh/a0 ::
         :: HOMO-LUMO gap              3.838381282369 eV    ::
         ::.................................................::
         :: SCC energy               -42.008210973769 Eh    ::
         :: -> isotropic ES            0.039624512595 Eh    ::
         :: -> anisotropic ES          0.006365565260 Eh    ::
         :: -> anisotropic XC          0.021037068496 Eh    ::
         :: -> dispersion             -0.027228471858 Eh    ::
         :: repulsion energy           0.638460028439 Eh    ::
         :: add. restraining           0.000000000000 Eh    ::
         :: total charge              -0.000000000000 e     ::
         :::::::::::::::::::::::::::::::::::::::::::::::::::::

           -------------------------------------------------
          |                Property Printout                |
           -------------------------------------------------

    * Orbital Energies and Occupations

         #    Occupation            Energy/Eh            Energy/eV
      -------------------------------------------------------------
         1        2.0000           -0.6915397             -18.8178
       ...           ...                  ...                  ...
        26        2.0000           -0.4759322             -12.9508
        27        2.0000           -0.4703595             -12.7991
        28        2.0000           -0.4679349             -12.7332
        29        2.0000           -0.4535383             -12.3414
        30        2.0000           -0.4486869             -12.2094
        31        2.0000           -0.4417804             -12.0215
        32        2.0000           -0.4381091             -11.9216
        33        2.0000           -0.4359171             -11.8619
        34        2.0000           -0.4264745             -11.6050
        35        2.0000           -0.4201531             -11.4329
        36        2.0000           -0.4165799             -11.3357
        37        2.0000           -0.3904495             -10.6247
        38        2.0000           -0.3806057             -10.3568 (HOMO)
        39                         -0.2395477              -6.5184 (LUMO)
        40                         -0.2348340              -6.3902
        41                         -0.1971832              -5.3656
        42                         -0.1041099              -2.8330
        43                         -0.0093299              -0.2539
        44                          0.0843031               2.2940
        45                          0.0912702               2.4836
        46                          0.1006262               2.7382
        47                          0.1142787               3.1097
        48                          0.1286333               3.5003
        49                          0.1406118               3.8262
       ...                                ...                  ...
        73                          0.6630149              18.0416
      -------------------------------------------------------------
                  HL-Gap            0.1410579 Eh            3.8384 eV
             Fermi-level           -0.3100767 Eh           -8.4376 eV

     #   Z          covCN         q      C6AA      α(0)
     1   6 C        3.752    -0.103    22.534     6.769
     2   6 C        3.801    -0.054    21.537     6.607
     3   6 C        3.803    -0.063    21.706     6.633
     4   6 C        3.755     0.006    20.524     6.460
     5   7 N        2.740    -0.102    23.240     7.160
     6   6 C        2.763     0.272    22.395     7.750
     7   6 C        3.754    -0.136    23.173     6.864
     8   8 O        0.859    -0.436    22.419     6.348
     9   6 C        2.915     0.065    26.555     8.450
    10   6 C        2.923    -0.045    29.116     8.849
    11   6 C        2.920    -0.029    28.718     8.788
    12   6 C        2.919    -0.034    28.844     8.807
    13   6 C        2.920    -0.028    28.703     8.786
    14   6 C        2.923    -0.045    29.110     8.848
    15   1 H        0.925     0.034     2.531     2.488
    16   1 H        0.925     0.036     2.506     2.476
    17   1 H        0.925     0.039     2.457     2.451
    18   1 H        0.924     0.035     2.512     2.479
    19   1 H        0.924     0.028     2.620     2.531
    20   1 H        0.924     0.031     2.568     2.506
    21   1 H        0.924     0.057     2.236     2.338
    22   1 H        0.924     0.040     2.455     2.450
    23   1 H        0.924     0.062     2.170     2.304
    24   1 H        0.925     0.062     2.172     2.305
    25   1 H        0.925     0.068     2.102     2.267
    26   1 H        0.925     0.046     2.367     2.406
    27   1 H        0.926     0.042     2.422     2.434
    28   1 H        0.926     0.037     2.492     2.469
    29   1 H        0.926     0.036     2.505     2.475
    30   1 H        0.926     0.037     2.486     2.465
    31   1 H        0.926     0.040     2.450     2.448

 Mol. C6AA /au·bohr⁶  :       9204.281549
 Mol. C8AA /au·bohr⁸  :     210134.839832
 Mol. α(0) /au        :        148.410995


Wiberg/Mayer (AO) data.
largest (>0.10) Wiberg bond orders for each atom

 ---------------------------------------------------------------------------
     #   Z sym  total        # sym  WBO       # sym  WBO       # sym  WBO
 ---------------------------------------------------------------------------
     1   6 C    3.996 --     2 C    1.019    15 H    0.988    17 H    0.988
                            16 H    0.987
     2   6 C    3.997 --     1 C    1.019     3 C    1.006    19 H    0.978
                            18 H    0.978
     3   6 C    3.994 --     2 C    1.006     4 C    0.998    20 H    0.974
                            21 H    0.974
     4   6 C    3.968 --     3 C    0.998    22 H    0.974     5 N    0.968
                            23 H    0.965
     5   7 N    3.507 --     6 C    1.204     9 C    1.037     4 C    0.968
                             8 O    0.174
     6   6 C    3.950 --     8 O    1.690     5 N    1.204     7 C    0.985
     7   6 C    3.995 --     6 C    0.985    26 H    0.981    25 H    0.975
                            24 H    0.964
     8   8 O    1.999 --     6 C    1.690     5 N    0.174
     9   6 C    3.968 --    10 C    1.385    14 C    1.381     5 N    1.037
                            12 C    0.103
    10   6 C    3.991 --    11 C    1.449     9 C    1.385    27 H    0.966
                            13 C    0.108
    11   6 C    3.992 --    10 C    1.449    12 C    1.436    28 H    0.971
                            14 C    0.108
    12   6 C    3.986 --    11 C    1.436    13 C    1.434    29 H    0.971
                             9 C    0.103
    13   6 C    3.992 --    14 C    1.451    12 C    1.434    30 H    0.970
                            10 C    0.108
    14   6 C    3.991 --    13 C    1.451     9 C    1.381    31 H    0.968
                            11 C    0.108
    15   1 H    0.999 --     1 C    0.988
    16   1 H    0.998 --     1 C    0.987
    17   1 H    0.998 --     1 C    0.988
    18   1 H    0.999 --     2 C    0.978
    19   1 H    0.999 --     2 C    0.978
    20   1 H    0.999 --     3 C    0.974
    21   1 H    0.997 --     3 C    0.974
    22   1 H    0.998 --     4 C    0.974
    23   1 H    0.995 --     4 C    0.965
    24   1 H    0.996 --     7 C    0.964
    25   1 H    0.995 --     7 C    0.975
    26   1 H    0.998 --     7 C    0.981
    27   1 H    0.998 --    10 C    0.966
    28   1 H    0.998 --    11 C    0.971
    29   1 H    0.999 --    12 C    0.971
    30   1 H    0.998 --    13 C    0.970
    31   1 H    0.998 --    14 C    0.968
 ---------------------------------------------------------------------------

Topologies differ in total number of bonds
Writing topology from bond orders to xtbtopo.mol

molecular dipole:
                 x           y           z       tot (Debye)
 q only:        0.748      -0.985      -0.294
   full:        0.958      -1.044      -0.337       3.703
molecular quadrupole (traceless):
                xx          xy          yy          xz          yz          zz
 q only:        5.216       6.778      -5.854       0.526      -3.131       0.638
  q+dip:        5.144       7.397      -4.756       1.493      -0.965      -0.387
   full:        4.486       8.128      -5.776       1.468      -2.701       1.290

           -------------------------------------------------
          |                Geometry Summary                 |
           -------------------------------------------------

      molecular mass/u    :      191.2699317
   center of mass at/Å    :        0.3386942       0.1805274       0.1036262
  moments of inertia/u·Å² :        0.4991646E+03   0.1193882E+04   0.1571118E+04
rotational constants/cm⁻¹ :        0.3377169E-01   0.1412002E-01   0.1072971E-01

 * 30 selected distances

     #   Z          #   Z                                           value/Å
     1   6 C        2   6 C                                       1.5236365
     2   6 C        3   6 C                                       1.5258497
     3   6 C        4   6 C                                       1.5294388 (max)
     4   6 C        5   7 N                                       1.4581857
     5   7 N        6   6 C                                       1.3647989
     6   6 C        8   8 O                                       1.2148295
     5   7 N        9   6 C                                       1.4084495
     9   6 C       10   6 C                                       1.3923995
    10   6 C       11   6 C                                       1.3827426
    11   6 C       12   6 C                                       1.3844020
    12   6 C       13   6 C                                       1.3847512
     9   6 C       14   6 C                                       1.3929444
    13   6 C       14   6 C                                       1.3823794
     1   6 C       15   1 H                                       1.0880794
     1   6 C       16   1 H                                       1.0874104
     1   6 C       17   1 H                                       1.0874107
     2   6 C       18   1 H                                       1.0917117
     2   6 C       19   1 H                                       1.0931825
     3   6 C       20   1 H                                       1.0925633
     3   6 C       21   1 H                                       1.0907046
     4   6 C       22   1 H                                       1.0919922
     4   6 C       23   1 H                                       1.0946618
     7   6 C       24   1 H                                       1.0878575
     7   6 C       25   1 H                                       1.0877718
     7   6 C       26   1 H                                       1.0857822
    10   6 C       27   1 H                                       1.0788260 (min)
    11   6 C       28   1 H                                       1.0799846
    12   6 C       29   1 H                                       1.0793669
    13   6 C       30   1 H                                       1.0799146
    14   6 C       31   1 H                                       1.0789175

 * 4 distinct bonds (by element types)

   Z      Z             #   av. dist./Å        max./Å        min./Å
   1 H    6 C          17     1.0868316     1.0946618     1.0788260
   6 C    6 C           9     1.4331716     1.5294388     1.3823794
   6 C    7 N           3     1.4104780     1.4581857     1.3647989
   6 C    8 O           1     1.2148295     1.2148295     1.2148295


optimized geometry written to: xtbopt.xyz


           -------------------------------------------------
          | TOTAL ENERGY              -41.369750945331 Eh   |
          | GRADIENT NORM               0.000149144771 Eh/α |
          | HOMO-LUMO GAP               3.838381282369 eV   |
           -------------------------------------------------

------------------------------------------------------------------------
 * finished run on 2026/07/08 at 01:48:58.469     
------------------------------------------------------------------------
 total:
 * wall-time:     0 d,  0 h,  0 min,  4.387 sec
 *  cpu-time:     0 d,  0 h,  1 min,  9.114 sec
 * ratio c/w:    15.755 speedup
 SCF:
 * wall-time:     0 d,  0 h,  0 min,  0.314 sec
 *  cpu-time:     0 d,  0 h,  0 min,  4.766 sec
 * ratio c/w:    15.176 speedup
 ANC optimizer:
 * wall-time:     0 d,  0 h,  0 min,  4.011 sec
 *  cpu-time:     0 d,  0 h,  1 min,  3.869 sec
 * ratio c/w:    15.923 speedup

