      -----------------------------------------------------------      
     |                   =====================                   |     
     |                           x T B                           |     
     |                   =====================                   |     
     |                         S. Grimme                         |     
     |          Mulliken Center for Theoretical Chemistry        |     
     |                    University of Bonn                     |     
      -----------------------------------------------------------      

   * xtb version 6.7.1 (edcfbbe) compiled by 'conda@5dfe00f5fb80' on 2026-06-10

   xtb is free software: you can redistribute it and/or modify it under
   the terms of the GNU Lesser General Public License as published by
   the Free Software Foundation, either version 3 of the License, or
   (at your option) any later version.
   
   xtb is distributed in the hope that it will be useful,
   but WITHOUT ANY WARRANTY; without even the implied warranty of
   MERCHANTABILITY or FITNESS FOR A PARTICULAR PURPOSE.  See the
   GNU Lesser General Public License for more details.
   
   Cite this work as:
   * C. Bannwarth, E. Caldeweyher, S. Ehlert, A. Hansen, P. Pracht,
     J. Seibert, S. Spicher, S. Grimme, WIREs Comput. Mol. Sci., 2020, 11,
     e01493. DOI: 10.1002/wcms.1493
   
   for GFN2-xTB:
   * C. Bannwarth, S. Ehlert and S. Grimme., J. Chem. Theory Comput., 2019,
     15, 1652-1671. DOI: 10.1021/acs.jctc.8b01176
   for GFN1-xTB:
   * S. Grimme, C. Bannwarth, P. Shushkov, J. Chem. Theory Comput., 2017,
     13, 1989-2009. DOI: 10.1021/acs.jctc.7b00118
   for GFN0-xTB:
   * P. Pracht, E. Caldeweyher, S. Ehlert, S. Grimme, ChemRxiv, 2019, preprint.
     DOI: 10.26434/chemrxiv.8326202.v1
   for GFN-FF:
   * S. Spicher and S. Grimme, Angew. Chem. Int. Ed., 2020, 59, 15665-15673.
     DOI: 10.1002/anie.202004239
   
   for ALPB and GBSA implicit solvation:
   * S. Ehlert, M. Stahn, S. Spicher, S. Grimme, J. Chem. Theory Comput.,
     2021, 17, 4250-4261. DOI: 10.1021/acs.jctc.1c00471
   
   for ddCOSMO and CPCM-X implicit solvation:
   * M. Stahn, S. Ehlert, S. Grimme, J. Phys. Chem. A,
     2023, XX, XXXX-XXXX. DOI: 10.1021/acs.jpca.3c04382
   
   for DFT-D4:
   * E. Caldeweyher, C. Bannwarth and S. Grimme, J. Chem. Phys., 2017,
     147, 034112. DOI: 10.1063/1.4993215
   * E. Caldeweyher, S. Ehlert, A. Hansen, H. Neugebauer, S. Spicher,
     C. Bannwarth and S. Grimme, J. Chem. Phys., 2019, 150, 154122.
     DOI: 10.1063/1.5090222
   * E. Caldeweyher, J.-M. Mewes, S. Ehlert and S. Grimme, Phys. Chem. Chem. Phys.
     2020, 22, 8499-8512. DOI: 10.1039/D0CP00502A
   
   for sTDA-xTB:
   * S. Grimme and C. Bannwarth, J. Chem. Phys., 2016, 145, 054103.
     DOI: 10.1063/1.4959605
   
   in the mass-spec context:
   * V. Asgeirsson, C. Bauer and S. Grimme, Chem. Sci., 2017, 8, 4879.
     DOI: 10.1039/c7sc00601b
   * J. Koopman and S. Grimme, ACS Omega 2019, 4, 12, 15120-15133.
     DOI: 10.1021/acsomega.9b02011
   
   for metadynamics refer to:
   * S. Grimme, J. Chem. Theory Comput., 2019, 155, 2847-2862
     DOI: 10.1021/acs.jctc.9b00143
   
   for SPH calculations refer to:
   * S. Spicher and S. Grimme, J. Chem. Theory Comput., 2021, 17, 1701-1714
     DOI: 10.1021/acs.jctc.0c01306
   
   for ONIOM refer to:
   * C. Plett, A. Katbashev, S. Ehlert, S. Grimme, M. Bursch,
     Phys. Chem. Chem. Phys., 2023, 25, 17860-17868. DOI: 10.1039/D3CP02178E
   
   for DIPRO refer to:
   * J. Kohn, N. Gildemeister, S. Grimme, D. Fazzi, A. Hansen,
     J. Chem. Phys., 2023, just accepted.
   
   for PTB refer to:
   * S. Grimme, M. Mueller, A. Hansen, J. Chem. Phys., 2023, 158, 124111.
     DOI: 10.1063/5.0137838
   
   with help from (in alphabetical order)
   P. Atkinson, C. Bannwarth, F. Bohle, G. Brandenburg, E. Caldeweyher
   M. Checinski, S. Dohm, S. Ehlert, S. Ehrlich, I. Gerasimov, C. Hölzer
   A. Katbashev, J. Kohn, J. Koopman, C. Lavigne, S. Lehtola, F. März, M. Müller,
   F. Musil, H. Neugebauer, J. Pisarek, C. Plett, P. Pracht, F. Pultar,
   J. Seibert, P. Shushkov, S. Spicher, M. Stahn, M. Steiner, T. Strunk,
   J. Stückrath, T. Rose, and J. Unsleber
   
 * started run on 2026/07/07 at 11:34:05.477     
   ID    Z sym.   atoms
    1    6 C      1-8, 10, 11, 13
    2    8 O      9, 12, 14
    3    1 H      15-38

           -------------------------------------------------
          |                Calculation Setup                |
           -------------------------------------------------

          program call               : /home/ws/xd2484/miniforge3/envs/p3z_dft/bin/xtb xtb_input.xyz --gfn 2 --opt tight --cycles 500 --chrg 0 --uhf 0
          hostname                   : gpu10
          coordinate file            : xtb_input.xyz
          omp threads                :                    16


           -------------------------------------------------
          |                 G F N 2 - x T B                 |
           -------------------------------------------------

        Reference                      10.1021/acs.jctc.8b01176
      * Hamiltonian:
        H0-scaling (s, p, d)           1.850000    2.230000    2.230000
        zeta-weighting                 0.500000
      * Dispersion:
        s8                             2.700000
        a1                             0.520000
        a2                             5.000000
        s9                             5.000000
      * Repulsion:
        kExp                           1.500000    1.000000
        rExp                           1.000000
      * Coulomb:
        alpha                          2.000000
        third order                    shell-resolved
        anisotropic                    true
        a3                             3.000000
        a5                             4.000000
        cn-shift                       1.200000
        cn-exp                         4.000000
        max-rad                        5.000000


          ...................................................
          :                      SETUP                      :
          :.................................................:
          :  # basis functions                  80          :
          :  # atomic orbitals                  80          :
          :  # shells                           52          :
          :  # electrons                        86          :
          :  max. iterations                   250          :
          :  Hamiltonian                  GFN2-xTB          :
          :  restarted?                      false          :
          :  GBSA solvation                  false          :
          :  PC potential                    false          :
          :  electronic temp.          300.0000000     K    :
          :  accuracy                    1.0000000          :
          :  -> integral cutoff          0.2500000E+02      :
          :  -> integral neglect         0.1000000E-07      :
          :  -> SCF convergence          0.1000000E-05 Eh   :
          :  -> wf. convergence          0.1000000E-03 e    :
          :  Broyden damping             0.4000000          :
          :  net charge                          0          :
          :  unpaired electrons                  0          :
          ...................................................

 iter      E             dE          RMSdq      gap      omega  full diag
   1    -48.4196638 -0.484197E+02  0.345E+00   10.63       0.0  T
   2    -48.5120406 -0.923768E-01  0.182E+00   10.04       1.0  T
   3    -48.5136161 -0.157548E-02  0.783E-01   10.18       1.0  T
   4    -48.5140327 -0.416629E-03  0.109E-01   10.26       1.0  T
   5    -48.5140687 -0.359823E-04  0.628E-02   10.28       1.0  T
   6    -48.5140719 -0.325404E-05  0.114E-02   10.29       1.4  T
   7    -48.5140734 -0.151495E-05  0.473E-03   10.28       3.4  T
   8    -48.5140735 -0.671720E-07  0.155E-03   10.28      10.5  T
   9    -48.5140735 -0.485706E-08  0.558E-04   10.28      29.1  T
  10    -48.5140735 -0.126944E-08  0.138E-04   10.28     117.9  T

   *** convergence criteria satisfied after 10 iterations ***

         #    Occupation            Energy/Eh            Energy/eV
      -------------------------------------------------------------
         1        2.0000           -0.7063419             -19.2205
       ...           ...                  ...                  ...
        37        2.0000           -0.4367830             -11.8855
        38        2.0000           -0.4266174             -11.6089
        39        2.0000           -0.4224661             -11.4959
        40        2.0000           -0.4208577             -11.4521
        41        2.0000           -0.4194718             -11.4144
        42        2.0000           -0.4111677             -11.1884
        43        2.0000           -0.4082063             -11.1079 (HOMO)
        44                         -0.0302549              -0.8233 (LUMO)
        45                          0.0169675               0.4617
        46                          0.0364895               0.9929
        47                          0.0433016               1.1783
        48                          0.0580852               1.5806
       ...                                ...                  ...
        80                          0.2974944               8.0952
      -------------------------------------------------------------
                  HL-Gap            0.3779514 Eh           10.2846 eV
             Fermi-level           -0.2192306 Eh           -5.9656 eV

 SCC (total)                   0 d,  0 h,  0 min,  0.256 sec
 SCC setup                      ...        0 min,  0.002 sec (  0.665%)
 Dispersion                     ...        0 min,  0.012 sec (  4.765%)
 classical contributions        ...        0 min,  0.005 sec (  1.964%)
 integral evaluation            ...        0 min,  0.019 sec (  7.268%)
 iterations                     ...        0 min,  0.174 sec ( 67.991%)
 molecular gradient             ...        0 min,  0.044 sec ( 17.243%)
 printout                       ...        0 min,  0.000 sec (  0.092%)

         :::::::::::::::::::::::::::::::::::::::::::::::::::::
         ::                     SUMMARY                     ::
         :::::::::::::::::::::::::::::::::::::::::::::::::::::
         :: total energy             -47.987916488098 Eh    ::
         :: gradient norm              0.047112736220 Eh/a0 ::
         :: HOMO-LUMO gap             10.284580199111 eV    ::
         ::.................................................::
         :: SCC energy               -48.513921757056 Eh    ::
         :: -> isotropic ES            0.070899597031 Eh    ::
         :: -> anisotropic ES          0.007143311040 Eh    ::
         :: -> anisotropic XC          0.012317878888 Eh    ::
         :: -> dispersion             -0.027016498993 Eh    ::
         :: repulsion energy           0.526005268958 Eh    ::
         :: add. restraining           0.000000000000 Eh    ::
         :: total charge              -0.000000000000 e     ::
         :::::::::::::::::::::::::::::::::::::::::::::::::::::

      ----------------------------------------------------------- 
     |                   =====================                   |
     |                        A N C O P T                        |
     |                   =====================                   |
     |               Approximate Normal Coordinate               |
     |                Rational Function Optimizer                |
      ----------------------------------------------------------- 
      ----------------------------------------------------------- 
     |                   =====================                   |
     |                        A N C O P T                        |
     |                   =====================                   |
     |               Approximate Normal Coordinate               |
     |                Rational Function Optimizer                |
      ----------------------------------------------------------- 

          ...................................................
          :                      SETUP                      :
          :.................................................:
          :   optimization level             tight          :
          :   max. optcycles                   500          :
          :   ANC micro-cycles                  20          :
          :   degrees of freedom               108          :
          :.................................................:
          :   RF solver                   davidson          :
          :   write xtbopt.log                true          :
          :   linear?                        false          :
          :   energy convergence         0.1000000E-05 Eh   :
          :   grad. convergence          0.8000000E-03 Eh/α :
          :   maxmium RF displ.          1.0000000          :
          :   Hlow (freq-cutoff)         0.1000000E-01      :
          :   Hmax (freq-cutoff)         5.0000000          :
          :   S6 in model hess.         20.0000000          :
          ...................................................

generating ANC from exact Hessian ...
Using Lindh-Hessian (1995)
 Shifting diagonal of input Hessian by    9.6880465049447115E-003
 Lowest  eigenvalues of input Hessian
    0.000000    0.000000    0.000000    0.000000    0.000000    0.000000
    0.010000    0.010417    0.010536    0.010699    0.011149    0.011838
    0.012672    0.013494    0.014095    0.015393    0.015872    0.016312
 Highest eigenvalues
    1.263335    1.282004    1.286674    1.388502    1.410691    1.476430


........................................................................
.............................. CYCLE    1 ..............................
........................................................................

 iter      E             dE          RMSdq      gap      omega  full diag
   1    -48.5140735 -0.485141E+02  0.454E-05   10.28       0.0  T
   2    -48.5140735 -0.892442E-11  0.279E-05   10.28     581.9  T
   3    -48.5140735 -0.164135E-11  0.131E-05   10.28    1237.9  T
     SCC iter.                  ...        0 min,  0.040 sec
     gradient                   ...        0 min,  0.033 sec
 * total energy  :   -47.9879165 Eh     change       -0.1030287E-09 Eh
   gradient norm :     0.0471130 Eh/α   predicted     0.0000000E+00 (-100.00%)
   displ. norm   :     0.1891154 α      lambda       -0.4151687E-02
   maximum displ.:     0.0756750 α      in ANC's #23, #13, #47, ...

........................................................................
.............................. CYCLE    2 ..............................
........................................................................

 iter      E             dE          RMSdq      gap      omega  full diag
   1    -48.5296105 -0.485296E+02  0.120E-01   10.47       0.0  T
   2    -48.5296238 -0.132744E-04  0.700E-02   10.47       1.0  T
   3    -48.5296251 -0.128125E-05  0.914E-03   10.48       1.8  T
   4    -48.5296255 -0.467657E-06  0.313E-03   10.48       5.2  T
   5    -48.5296256 -0.542684E-07  0.128E-03   10.48      12.7  T
   6    -48.5296256 -0.489662E-08  0.508E-04   10.48      31.9  T
   7    -48.5296256 -0.899995E-09  0.138E-04   10.48     118.0  T
     SCC iter.                  ...        0 min,  0.101 sec
     gradient                   ...        0 min,  0.035 sec
 * total energy  :   -47.9907294 Eh     change       -0.2812867E-02 Eh
   gradient norm :     0.0243996 Eh/α   predicted    -0.2150156E-02 ( -23.56%)
   displ. norm   :     0.1494139 α      lambda       -0.1321345E-02
   maximum displ.:     0.0977981 α      in ANC's #13, #23, #12, ...

........................................................................
.............................. CYCLE    3 ..............................
........................................................................

 iter      E             dE          RMSdq      gap      omega  full diag
   1    -48.5372434 -0.485372E+02  0.693E-02   10.68       0.0  T
   2    -48.5372542 -0.107833E-04  0.402E-02   10.69       1.0  T
   3    -48.5372550 -0.806931E-06  0.908E-03   10.69       1.8  T
   4    -48.5372552 -0.213305E-06  0.213E-03   10.69       7.6  T
   5    -48.5372553 -0.381480E-07  0.777E-04   10.69      20.9  T
   6    -48.5372553 -0.165623E-08  0.386E-04   10.69      42.0  T
     SCC iter.                  ...        0 min,  0.066 sec
     gradient                   ...        0 min,  0.036 sec
 * total energy  :   -47.9914826 Eh     change       -0.7532054E-03 Eh
   gradient norm :     0.0062639 Eh/α   predicted    -0.6755643E-03 ( -10.31%)
   displ. norm   :     0.0735275 α      lambda       -0.1392473E-03
   maximum displ.:     0.0517588 α      in ANC's #13, #3, #23, ...

........................................................................
.............................. CYCLE    4 ..............................
........................................................................

 iter      E             dE          RMSdq      gap      omega  full diag
   1    -48.5368492 -0.485368E+02  0.215E-02   10.76       0.0  T
   2    -48.5368502 -0.988077E-06  0.129E-02   10.76       1.3  T
   3    -48.5368502 -0.545839E-07  0.286E-03   10.76       5.7  T
   4    -48.5368503 -0.462250E-07  0.747E-04   10.76      21.7  T
   5    -48.5368503 -0.617595E-08  0.245E-04   10.76      66.1  T
     SCC iter.                  ...        0 min,  0.057 sec
     gradient                   ...        0 min,  0.031 sec
 * total energy  :   -47.9915768 Eh     change       -0.9420161E-04 Eh
   gradient norm :     0.0020803 Eh/α   predicted    -0.7000482E-04 ( -25.69%)
   displ. norm   :     0.0726034 α      lambda       -0.5532900E-04
   maximum displ.:     0.0428549 α      in ANC's #13, #3, #7, ...

........................................................................
.............................. CYCLE    5 ..............................
........................................................................

 iter      E             dE          RMSdq      gap      omega  full diag
   1    -48.5359534 -0.485360E+02  0.176E-02   10.79       0.0  T
   2    -48.5359537 -0.234252E-06  0.105E-02   10.79       1.5  T
   3    -48.5359537 -0.140235E-07  0.133E-03   10.79      12.2  T
   4    -48.5359537 -0.230736E-07  0.464E-04   10.79      34.9  T
   5    -48.5359537 -0.146536E-08  0.195E-04   10.79      83.3  T
     SCC iter.                  ...        0 min,  0.059 sec
     gradient                   ...        0 min,  0.034 sec
 * total energy  :   -47.9916122 Eh     change       -0.3546465E-04 Eh
   gradient norm :     0.0017041 Eh/α   predicted    -0.2781111E-04 ( -21.58%)
   displ. norm   :     0.0919978 α      lambda       -0.2202375E-04
   maximum displ.:     0.0479487 α      in ANC's #3, #13, #7, ...

........................................................................
.............................. CYCLE    6 ..............................
........................................................................

 iter      E             dE          RMSdq      gap      omega  full diag
   1    -48.5354500 -0.485354E+02  0.172E-02   10.79       0.0  T
   2    -48.5354501 -0.966015E-07  0.103E-02   10.80       1.6  T
   3    -48.5354501 -0.139395E-07  0.905E-04   10.80      17.9  T
   4    -48.5354501 -0.126178E-07  0.411E-04   10.80      39.5  T
     SCC iter.                  ...        0 min,  0.048 sec
     gradient                   ...        0 min,  0.034 sec
 * total energy  :   -47.9916347 Eh     change       -0.2246772E-04 Eh
   gradient norm :     0.0019039 Eh/α   predicted    -0.1106644E-04 ( -50.75%)
   displ. norm   :     0.1009354 α      lambda       -0.2085669E-04
   maximum displ.:     0.0559953 α      in ANC's #3, #8, #2, ...

........................................................................
.............................. CYCLE    7 ..............................
........................................................................

 iter      E             dE          RMSdq      gap      omega  full diag
   1    -48.5358272 -0.485358E+02  0.186E-02   10.78       0.0  T
   2    -48.5358273 -0.128428E-06  0.112E-02   10.78       1.5  T
   3    -48.5358273 -0.180567E-07  0.962E-04   10.78      16.9  T
   4    -48.5358273 -0.103641E-07  0.428E-04   10.78      37.9  T
     SCC iter.                  ...        0 min,  0.061 sec
     gradient                   ...        0 min,  0.032 sec
 * total energy  :   -47.9916582 Eh     change       -0.2351916E-04 Eh
   gradient norm :     0.0010271 Eh/α   predicted    -0.1049930E-04 ( -55.36%)
   displ. norm   :     0.1226983 α      lambda       -0.1772069E-04
   maximum displ.:     0.0700832 α      in ANC's #3, #5, #2, ...

........................................................................
.............................. CYCLE    8 ..............................
........................................................................

 iter      E             dE          RMSdq      gap      omega  full diag
   1    -48.5362247 -0.485362E+02  0.217E-02   10.77       0.0  T
   2    -48.5362248 -0.947892E-07  0.131E-02   10.77       1.2  T
   3    -48.5362248 -0.228989E-07  0.895E-04   10.77      18.1  T
   4    -48.5362248 -0.822924E-08  0.456E-04   10.77      35.5  T
     SCC iter.                  ...        0 min,  0.112 sec
     gradient                   ...        0 min,  0.052 sec
 * total energy  :   -47.9916777 Eh     change       -0.1947518E-04 Eh
   gradient norm :     0.0009369 Eh/α   predicted    -0.8922526E-05 ( -54.19%)
   displ. norm   :     0.1243022 α      lambda       -0.1358893E-04
   maximum displ.:     0.0710401 α      in ANC's #3, #5, #2, ...

........................................................................
.............................. CYCLE    9 ..............................
........................................................................

 iter      E             dE          RMSdq      gap      omega  full diag
   1    -48.5363827 -0.485364E+02  0.218E-02   10.77       0.0  T
   2    -48.5363827 -0.551897E-07  0.131E-02   10.77       1.2  T
   3    -48.5363827 -0.204166E-07  0.709E-04   10.77      22.9  T
   4    -48.5363827 -0.380482E-08  0.392E-04   10.77      41.3  T
     SCC iter.                  ...        0 min,  0.053 sec
     gradient                   ...        0 min,  0.037 sec
 * total energy  :   -47.9916933 Eh     change       -0.1557238E-04 Eh
   gradient norm :     0.0010391 Eh/α   predicted    -0.6842099E-05 ( -56.06%)
   displ. norm   :     0.1312353 α      lambda       -0.1305124E-04
   maximum displ.:     0.0740769 α      in ANC's #3, #5, #2, ...

........................................................................
.............................. CYCLE   10 ..............................
........................................................................

 iter      E             dE          RMSdq      gap      omega  full diag
   1    -48.5363125 -0.485363E+02  0.214E-02   10.77       0.0  T
   2    -48.5363125 -0.491782E-07  0.129E-02   10.77       1.3  T
   3    -48.5363125 -0.222684E-07  0.673E-04   10.77      24.1  T
   4    -48.5363125 -0.180312E-08  0.367E-04   10.77      44.2  T
     SCC iter.                  ...        0 min,  0.056 sec
     gradient                   ...        0 min,  0.044 sec
 * total energy  :   -47.9917081 Eh     change       -0.1482198E-04 Eh
   gradient norm :     0.0008279 Eh/α   predicted    -0.6578933E-05 ( -55.61%)
   displ. norm   :     0.1273314 α      lambda       -0.1065208E-04
   maximum displ.:     0.0706810 α      in ANC's #3, #5, #2, ...

........................................................................
.............................. CYCLE   11 ..............................
........................................................................

 iter      E             dE          RMSdq      gap      omega  full diag
   1    -48.5361422 -0.485361E+02  0.214E-02   10.77       0.0  T
   2    -48.5361423 -0.483600E-07  0.128E-02   10.77       1.3  T
   3    -48.5361423 -0.189832E-07  0.680E-04   10.77      23.9  T
   4    -48.5361423 -0.391515E-08  0.380E-04   10.77      42.7  T
     SCC iter.                  ...        0 min,  0.061 sec
     gradient                   ...        0 min,  0.049 sec
 * total energy  :   -47.9917194 Eh     change       -0.1130553E-04 Eh
   gradient norm :     0.0005287 Eh/α   predicted    -0.5365858E-05 ( -52.54%)
   displ. norm   :     0.0863854 α      lambda       -0.5534534E-05
   maximum displ.:     0.0474502 α      in ANC's #5, #3, #2, ...

........................................................................
.............................. CYCLE   12 ..............................
........................................................................

 iter      E             dE          RMSdq      gap      omega  full diag
   1    -48.5361090 -0.485361E+02  0.144E-02   10.77       0.0  T
   2    -48.5361091 -0.283391E-07  0.861E-03   10.77       1.9  T
   3    -48.5361091 -0.834295E-08  0.516E-04   10.77      31.5  T
   4    -48.5361091 -0.307641E-08  0.271E-04   10.77      59.8  T
     SCC iter.                  ...        0 min,  0.068 sec
     gradient                   ...        0 min,  0.032 sec
 * total energy  :   -47.9917256 Eh     change       -0.6201736E-05 Eh
   gradient norm :     0.0004255 Eh/α   predicted    -0.2777748E-05 ( -55.21%)
   displ. norm   :     0.0700876 α      lambda       -0.4259867E-05
   maximum displ.:     0.0396819 α      in ANC's #2, #5, #3, ...

........................................................................
.............................. CYCLE   13 ..............................
........................................................................

 iter      E             dE          RMSdq      gap      omega  full diag
   1    -48.5361176 -0.485361E+02  0.127E-02   10.77       0.0  T
   2    -48.5361177 -0.208434E-07  0.760E-03   10.77       2.1  T
   3    -48.5361177 -0.648227E-08  0.430E-04   10.77      37.7  T
   4    -48.5361177 -0.196647E-08  0.228E-04   10.77      71.0  T
     SCC iter.                  ...        0 min,  0.053 sec
     gradient                   ...        0 min,  0.033 sec
 * total energy  :   -47.9917306 Eh     change       -0.5014819E-05 Eh
   gradient norm :     0.0004164 Eh/α   predicted    -0.2136242E-05 ( -57.40%)
   displ. norm   :     0.0747376 α      lambda       -0.4425919E-05
   maximum displ.:     0.0450609 α      in ANC's #2, #5, #3, ...

........................................................................
.............................. CYCLE   14 ..............................
........................................................................

 iter      E             dE          RMSdq      gap      omega  full diag
   1    -48.5361680 -0.485362E+02  0.143E-02   10.77       0.0  T
   2    -48.5361680 -0.262413E-07  0.857E-03   10.77       1.9  T
   3    -48.5361680 -0.862742E-08  0.468E-04   10.77      34.7  T
   4    -48.5361680 -0.189607E-08  0.249E-04   10.77      65.1  T
     SCC iter.                  ...        0 min,  0.063 sec
     gradient                   ...        0 min,  0.040 sec
 * total energy  :   -47.9917356 Eh     change       -0.4980565E-05 Eh
   gradient norm :     0.0003910 Eh/α   predicted    -0.2220481E-05 ( -55.42%)
   displ. norm   :     0.0724135 α      lambda       -0.3730879E-05
   maximum displ.:     0.0456737 α      in ANC's #2, #5, #3, ...

........................................................................
.............................. CYCLE   15 ..............................
........................................................................

 iter      E             dE          RMSdq      gap      omega  full diag
   1    -48.5361576 -0.485362E+02  0.141E-02   10.77       0.0  T
   2    -48.5361576 -0.238427E-07  0.846E-03   10.76       1.9  T
   3    -48.5361576 -0.919572E-08  0.436E-04   10.76      37.2  T
   4    -48.5361576 -0.728093E-09  0.208E-04   10.76      77.9  T
     SCC iter.                  ...        0 min,  0.070 sec
     gradient                   ...        0 min,  0.048 sec
 * total energy  :   -47.9917396 Eh     change       -0.4034407E-05 Eh
   gradient norm :     0.0004004 Eh/α   predicted    -0.1872887E-05 ( -53.58%)
   displ. norm   :     0.0563847 α      lambda       -0.2650605E-05
   maximum displ.:     0.0368628 α      in ANC's #2, #5, #6, ...

........................................................................
.............................. CYCLE   16 ..............................
........................................................................

 iter      E             dE          RMSdq      gap      omega  full diag
   1    -48.5362154 -0.485362E+02  0.110E-02   10.76       0.0  T
   2    -48.5362154 -0.160547E-07  0.663E-03   10.76       2.4  T
   3    -48.5362154 -0.574949E-08  0.357E-04   10.76      45.4  T
   4    -48.5362154 -0.467878E-09  0.167E-04   10.76      97.1  T
     SCC iter.                  ...        0 min,  0.065 sec
     gradient                   ...        0 min,  0.044 sec
 * total energy  :   -47.9917427 Eh     change       -0.3039827E-05 Eh
   gradient norm :     0.0003095 Eh/α   predicted    -0.1327992E-05 ( -56.31%)
   displ. norm   :     0.0477645 α      lambda       -0.2135789E-05
   maximum displ.:     0.0327139 α      in ANC's #2, #5, #6, ...

........................................................................
.............................. CYCLE   17 ..............................
........................................................................

 iter      E             dE          RMSdq      gap      omega  full diag
   1    -48.5362586 -0.485363E+02  0.954E-03   10.76       0.0  T
   2    -48.5362586 -0.151263E-07  0.577E-03   10.76       2.8  T
   3    -48.5362586 -0.406293E-08  0.334E-04   10.76      48.6  T
   4    -48.5362586 -0.627281E-09  0.156E-04   10.76     103.7  T
     SCC iter.                  ...        0 min,  0.043 sec
     gradient                   ...        0 min,  0.036 sec
 * total energy  :   -47.9917452 Eh     change       -0.2532676E-05 Eh
   gradient norm :     0.0002514 Eh/α   predicted    -0.1071213E-05 ( -57.70%)
   displ. norm   :     0.0464249 α      lambda       -0.1789224E-05
   maximum displ.:     0.0326622 α      in ANC's #2, #5, #6, ...

........................................................................
.............................. CYCLE   18 ..............................
........................................................................

 iter      E             dE          RMSdq      gap      omega  full diag
   1    -48.5362499 -0.485362E+02  0.103E-02   10.76       0.0  T
   2    -48.5362499 -0.164430E-07  0.624E-03   10.76       2.6  T
   3    -48.5362499 -0.491360E-08  0.344E-04   10.76      47.2  T
   4    -48.5362499 -0.537710E-09  0.143E-04   10.76     113.4  T
     SCC iter.                  ...        0 min,  0.044 sec
     gradient                   ...        0 min,  0.026 sec
 * total energy  :   -47.9917473 Eh     change       -0.2070504E-05 Eh
   gradient norm :     0.0002220 Eh/α   predicted    -0.8997996E-06 ( -56.54%)
   displ. norm   :     0.0390005 α      lambda       -0.1318558E-05
   maximum displ.:     0.0286368 α      in ANC's #2, #5, #6, ...

........................................................................
.............................. CYCLE   19 ..............................
........................................................................

 iter      E             dE          RMSdq      gap      omega  full diag
   1    -48.5362868 -0.485363E+02  0.897E-03   10.77       0.0  T
   2    -48.5362868 -0.145840E-07  0.546E-03   10.77       3.0  T
   3    -48.5362868 -0.357505E-08  0.314E-04   10.77      51.7  T
   4    -48.5362868 -0.702777E-09  0.146E-04   10.77     111.5  T
     SCC iter.                  ...        0 min,  0.046 sec
     gradient                   ...        0 min,  0.032 sec
 * total energy  :   -47.9917488 Eh     change       -0.1523986E-05 Eh
   gradient norm :     0.0002082 Eh/α   predicted    -0.6605359E-06 ( -56.66%)
   displ. norm   :     0.0339450 α      lambda       -0.1064573E-05
   maximum displ.:     0.0249232 α      in ANC's #2, #5, #1, ...

........................................................................
.............................. CYCLE   20 ..............................
........................................................................

 iter      E             dE          RMSdq      gap      omega  full diag
   1    -48.5362676 -0.485363E+02  0.808E-03   10.77       0.0  T
   2    -48.5362677 -0.879751E-08  0.490E-03   10.77       3.3  T
   3    -48.5362677 -0.305845E-08  0.256E-04   10.77      63.3  T
   4    -48.5362677 -0.261075E-09  0.101E-04   10.77     160.1  T
     SCC iter.                  ...        0 min,  0.081 sec
     gradient                   ...        0 min,  0.033 sec
 * total energy  :   -47.9917501 Eh     change       -0.1320397E-05 Eh
   gradient norm :     0.0001680 Eh/α   predicted    -0.5340758E-06 ( -59.55%)
   displ. norm   :     0.0355603 α      lambda       -0.1099155E-05
   maximum displ.:     0.0257681 α      in ANC's #2, #5, #1, ...
 * RMSD in coord.:     0.2028711 α      energy gain  -0.3833619E-02 Eh

generating ANC from exact Hessian ...
Using Lindh-Hessian (1995)
 Shifting diagonal of input Hessian by    9.6810305714589602E-003
 Lowest  eigenvalues of input Hessian
    0.000000    0.000000    0.000000    0.000000    0.000000    0.000000
    0.010000    0.010432    0.010588    0.010749    0.011180    0.011926
    0.012774    0.013656    0.014293    0.015691    0.016263    0.016832
 Highest eigenvalues
    1.290247    1.310777    1.318807    1.482465    1.513081    1.572799


........................................................................
.............................. CYCLE   21 ..............................
........................................................................

 iter      E             dE          RMSdq      gap      omega  full diag
   1    -48.5362900 -0.485363E+02  0.795E-03   10.77       0.0  T
   2    -48.5362900 -0.884498E-08  0.483E-03   10.77       3.4  T
   3    -48.5362900 -0.326261E-08  0.263E-04   10.77      61.7  T
   4    -48.5362900 -0.291898E-09  0.117E-04   10.77     138.1  T
     SCC iter.                  ...        0 min,  0.053 sec
     gradient                   ...        0 min,  0.023 sec
 * total energy  :   -47.9917515 Eh     change       -0.1409918E-05 Eh
   gradient norm :     0.0001676 Eh/α   predicted     0.0000000E+00 (-100.00%)
   displ. norm   :     0.0082401 α      lambda       -0.3536886E-07
   maximum displ.:     0.0053936 α      in ANC's #2, #1, #6, ...

........................................................................
.............................. CYCLE   22 ..............................
........................................................................

 iter      E             dE          RMSdq      gap      omega  full diag
   1    -48.5363079 -0.485363E+02  0.186E-03   10.77       0.0  T
   2    -48.5363079 -0.128323E-08  0.113E-03   10.77      14.4  T
   3    -48.5363079 -0.334936E-09  0.953E-05   10.77     170.3  T
   4    -48.5363079 -0.828351E-10  0.464E-05   10.77     349.6  T
     SCC iter.                  ...        0 min,  0.035 sec
     gradient                   ...        0 min,  0.023 sec
 * total energy  :   -47.9917521 Eh     change       -0.6181381E-06 Eh
   gradient norm :     0.0000962 Eh/α   predicted    -0.2262593E-06 ( -63.40%)
   displ. norm   :     0.0324736 α      lambda       -0.1236325E-05
   maximum displ.:     0.0200801 α      in ANC's #2, #1, #6, ...

   *** GEOMETRY OPTIMIZATION CONVERGED AFTER 22 ITERATIONS ***

------------------------------------------------------------------------
 total energy gain   :        -0.0038356 Eh       -2.4069 kcal/mol
 total RMSD          :         0.2030840 a0        0.1075 Å
 total power (kW/mol):        -0.4577496 (step)   -3.4565 (real)
------------------------------------------------------------------------

 ANCopt (total)                0 d,  0 h,  0 min,  2.914 sec
 optimizer setup                ...        0 min,  0.001 sec (  0.027%)
 model hessian                  ...        0 min,  0.059 sec (  2.040%)
 ANC generation                 ...        0 min,  0.004 sec (  0.142%)
 coordinate transformation      ...        0 min,  0.000 sec (  0.014%)
 single point calculation       ...        0 min,  2.761 sec ( 94.754%)
 optimization log               ...        0 min,  0.004 sec (  0.134%)
 hessian update                 ...        0 min,  0.076 sec (  2.596%)
 rational function              ...        0 min,  0.003 sec (  0.116%)

================
 final structure:
================
38
 xtb: 6.7.1 (edcfbbe)
C           -3.54779694815497        2.28815768601757        0.53776872538881
C           -2.99107456884641        2.05807874871092       -0.86249226691810
C           -2.55202725722831        0.61310024507048       -1.10391211118946
C           -1.35806622261898        0.20530459064817       -0.24326696702092
C           -0.72329493984437       -1.12239730951119       -0.67157129276549
C           -1.67159322257317       -2.32513879373745       -0.57837294314487
C           -2.23428523734343       -2.59339520521907        0.81326044096770
C            0.55703863785595       -1.36404501420342        0.13315695282521
O            1.52926198633091       -0.42374634662421       -0.27124465957056
C            2.74654703288910       -0.54152506065678        0.42583189079224
C            3.66827119630520        0.56686919185886       -0.08454948360194
O            3.06356194942804        1.82970755756904        0.10027371442847
C            5.00538637781667        0.59449814332113        0.66252162757475
O            5.84741189177498        1.59261738463956        0.15811260967036
H           -4.36911684298776        1.60308418984902        0.73812880481752
H           -2.78041479463614        2.13807507080071        1.29254079962235
H           -3.92067764206311        3.30546805460561        0.63317349714133
H           -3.76109512986025        2.31431174440593       -1.59426743274004
H           -2.14298890858302        2.72609815637178       -1.02941293472780
H           -3.39725582435757       -0.04867641830184       -0.90642429084915
H           -2.28086742414006        0.50264681146528       -2.15684968041495
H           -0.58897543112182        0.97648276605652       -0.32257014159315
H           -1.65617101559929        0.14171535753004        0.80341216923507
H           -0.41507655262305       -1.02570003163606       -1.71889892321993
H           -2.49949990057414       -2.16773465667625       -1.27129008530475
H           -1.13132929483981       -3.21278689003578       -0.91710604474910
H           -2.83052588661954       -1.75541494515831        1.16319059304369
H           -2.87392377792922       -3.47292178397835        0.78700405725776
H           -1.43731580116444       -2.77667565860667        1.52913214837837
H            0.36770535483533       -1.25487673796238        1.21149249162237
H            0.93445161932236       -2.38263753597134       -0.04603211964143
H            2.57860662659891       -0.41862156814735        1.50739148898727
H            3.20237918929415       -1.52741906433759        0.25423606167360
H            3.85398520604734        0.40457871160330       -1.15797199384954
H            2.14964188012201        1.74528227605543       -0.19690390743930
H            5.52937239072933       -0.35521372510380        0.53884518243702
H            4.80636796066627        0.76002284658349        1.73168401821396
H            5.32338332369551        2.40282721270601        0.11198000466080

 Bond Distances (Angstroems)
 ---------------------------
C1-C2=1.5243         C1-H15=1.0881        C1-H16=1.0868        C1-H17=1.0877        C2-C1=1.5243         C2-C3=1.5294         
C2-H18=1.0927        C2-H19=1.0924        C3-C2=1.5294         C3-C4=1.5273         C3-H20=1.0915        C3-H21=1.0929        
C4-C3=1.5273         C4-C5=1.5327         C4-H22=1.0920        C4-H23=1.0902        C5-C4=1.5327         C5-C6=1.5345         
C5-C8=1.5314         C5-H24=1.0960        C6-C5=1.5345         C6-C7=1.5249         C6-H25=1.0910        C6-H26=1.0930        
C7-C6=1.5249         C7-H27=1.0864        C7-H28=1.0878        C7-H29=1.0868        C8-C5=1.5314         C8-O9=1.4117         
C8-H30=1.1003        C8-H31=1.1009        O9-C8=1.4117         O9-C10=1.4077        C10-O9=1.4077        C10-C11=1.5292       
C10-H32=1.1014       C10-H33=1.0996       C11-C10=1.5292       C11-O12=1.4123       C11-C13=1.5319       C11-H34=1.1014       
O12-C11=1.4123       O12-H35=0.9647       C13-C11=1.5319       C13-O14=1.3999       C13-H36=1.0917       C13-H37=1.1001       
O14-C13=1.3999       O14-H38=0.9660       H15-C1=1.0881        H16-C1=1.0868        H17-C1=1.0877        H18-C2=1.0927        
H19-C2=1.0924        H20-C3=1.0915        H21-C3=1.0929        H22-C4=1.0920        H23-C4=1.0902        H24-C5=1.0960        
H25-C6=1.0910        H26-C6=1.0930        H27-C7=1.0864        H28-C7=1.0878        H29-C7=1.0868        H30-C8=1.1003        
H31-C8=1.1009        H32-C10=1.1014       H33-C10=1.0996       H34-C11=1.1014       H35-O12=0.9647       H36-C13=1.0917       
H37-C13=1.1001       H38-O14=0.9660       
 C  H  Rav=1.0932 sigma=0.0051  Rmin=1.0864  Rmax=1.1014    22
 C  C  Rav=1.5295 sigma=0.0033  Rmin=1.5243  Rmax=1.5345     9
 O  H  Rav=0.9654 sigma=0.0006  Rmin=0.9647  Rmax=0.9660     2
 O  C  Rav=1.4079 sigma=0.0050  Rmin=1.3999  Rmax=1.4123     4

 selected bond angles (degree)
 --------------------
H15-C1-C2=110.47               H16-C1-C2=111.05               H16-C1-H15=108.55              H17-C1-C2=110.30               
H17-C1-H15=108.30              H17-C1-H16=108.08              C3-C2-C1=113.11                H18-C2-C1=108.81               
H18-C2-C3=108.55               H19-C2-C1=109.37               H19-C2-C3=109.32               H19-C2-H18=107.54              
C4-C3-C2=112.81                H20-C3-C2=108.78               H20-C3-C4=109.97               H21-C3-C2=108.59               
H21-C3-C4=108.78               H21-C3-H20=107.77              C5-C4-C3=113.43                H22-C4-C3=108.73               
H22-C4-C5=107.44               H23-C4-C3=110.05               H23-C4-C5=109.33               H23-C4-H22=107.67              
C6-C5-C4=113.96                C8-C5-C4=109.64                C8-C5-C6=111.17                H24-C5-C4=107.88               
H24-C5-C6=107.52               H24-C5-C8=106.32               C7-C6-C5=114.92                H25-C6-C5=108.50               
H25-C6-C7=108.96               H26-C6-C5=108.20               H26-C6-C7=108.81               H26-C6-H25=107.18              
H27-C7-C6=111.15               H28-C7-C6=109.71               H28-C7-H27=107.98              H29-C7-C6=111.11               
H29-C7-H27=108.69              H29-C7-H28=108.10              O9-C8-C5=108.67                H30-C8-C5=110.82               
H30-C8-O9=109.46               H31-C8-C5=110.31               H31-C8-O9=109.48               H31-C8-H30=108.08              
C10-O9-C8=113.45               C11-C10-O9=107.18              H32-C10-O9=110.19              H32-C10-C11=109.80             
H33-C10-O9=110.87              H33-C10-C11=110.36             H33-C10-H32=108.45             

 selected dihedral angles (degree)
 ---------------------------------
C3-C2-C1-H15=304.36           C3-C2-C1-H16= 64.87           C3-C2-C1-H17=184.67           H18-C2-C1-H15= 65.08          
H18-C2-C1-H16=185.58          H18-C2-C1-H17=305.38          H19-C2-C1-H15=182.28          H19-C2-C1-H16=302.78          
H19-C2-C1-H17= 62.58          C4-C3-C2-C1=293.94            C4-C3-C2-H18=173.08           C4-C3-C2-H19= 56.05           
H20-C3-C2-C1= 56.24           H20-C3-C2-H18=295.38          H20-C3-C2-H19=178.36          H21-C3-C2-C1=173.27           
H21-C3-C2-H18= 52.42          H21-C3-C2-H19=295.39          C5-C4-C3-C2=192.00            C5-C4-C3-H20= 70.37           
C5-C4-C3-H21=312.56           H22-C4-C3-C2=311.47           H22-C4-C3-H20=189.83          H22-C4-C3-H21= 72.02          
H23-C4-C3-C2= 69.17           H23-C4-C3-H20=307.54          H23-C4-C3-H21=189.73          C6-C5-C4-C3=298.58            
C6-C5-C4-H22=178.38           C6-C5-C4-H23= 61.80           C8-C5-C4-C3=173.26            C8-C5-C4-H22= 53.06           
C8-C5-C4-H23=296.49           H24-C5-C4-C3= 57.88           H24-C5-C4-H22=297.68          H24-C5-C4-H23=181.11          
C7-C6-C5-C4=300.98            C7-C6-C5-C8= 65.48            C7-C6-C5-H24=181.47           H25-C6-C5-C4= 63.21           
H25-C6-C5-C8=187.71           H25-C6-C5-H24=303.70          H26-C6-C5-C4=179.18           H26-C6-C5-C8=303.68           
H26-C6-C5-H24= 59.67          H27-C7-C6-C5= 61.94           H27-C7-C6-H25=299.96          H27-C7-C6-H26=183.40          
H28-C7-C6-C5=181.29           H28-C7-C6-H25= 59.31          H28-C7-C6-H26=302.75          H29-C7-C6-C5=300.77           
H29-C7-C6-H25=178.79          H29-C7-C6-H26= 62.23          O9-C8-C5-C4=290.97            O9-C8-C5-C6=164.06            
O9-C8-C5-H24= 47.34           H30-C8-C5-C4= 51.29           H30-C8-C5-C6=284.38           H30-C8-C5-H24=167.66          
H31-C8-C5-C4=170.94           H31-C8-C5-C6= 44.03           H31-C8-C5-H24=287.31          C10-O9-C8-C5=178.97           
C10-O9-C8-H30= 57.81          C10-O9-C8-H31=299.51          C11-C10-O9-C8=182.02          H32-C10-O9-C8=301.45          
H33-C10-O9-C8= 61.52          
           -------------------------------------------------
          |                Final Singlepoint                |
           -------------------------------------------------

          ...................................................
          :                      SETUP                      :
          :.................................................:
          :  # basis functions                  80          :
          :  # atomic orbitals                  80          :
          :  # shells                           52          :
          :  # electrons                        86          :
          :  max. iterations                   250          :
          :  Hamiltonian                  GFN2-xTB          :
          :  restarted?                      false          :
          :  GBSA solvation                  false          :
          :  PC potential                    false          :
          :  electronic temp.          300.0000000     K    :
          :  accuracy                    1.0000000          :
          :  -> integral cutoff          0.2500000E+02      :
          :  -> integral neglect         0.1000000E-07      :
          :  -> SCF convergence          0.1000000E-05 Eh   :
          :  -> wf. convergence          0.1000000E-03 e    :
          :  Broyden damping             0.4000000          :
          :  net charge                          0          :
          :  unpaired electrons                  0          :
          ...................................................

 iter      E             dE          RMSdq      gap      omega  full diag
   1    -48.5363079 -0.485363E+02  0.179E-05   10.77       0.0  T
   2    -48.5363079 -0.625278E-12  0.110E-05   10.77    1474.6  T
   3    -48.5363079 -0.220268E-12  0.368E-06   10.77    4403.8  T

   *** convergence criteria satisfied after 3 iterations ***

         #    Occupation            Energy/Eh            Energy/eV
      -------------------------------------------------------------
         1        2.0000           -0.7102344             -19.3265
       ...           ...                  ...                  ...
        37        2.0000           -0.4366704             -11.8824
        38        2.0000           -0.4263817             -11.6024
        39        2.0000           -0.4224567             -11.4956
        40        2.0000           -0.4215795             -11.4718
        41        2.0000           -0.4184089             -11.3855
        42        2.0000           -0.4092199             -11.1354
        43        2.0000           -0.4070514             -11.0764 (HOMO)
        44                         -0.0111754              -0.3041 (LUMO)
        45                          0.0432946               1.1781
        46                          0.0477051               1.2981
        47                          0.0620150               1.6875
        48                          0.0742159               2.0195
       ...                                ...                  ...
        80                          0.3110595               8.4644
      -------------------------------------------------------------
                  HL-Gap            0.3958760 Eh           10.7723 eV
             Fermi-level           -0.2091134 Eh           -5.6903 eV

 SCC (total)                   0 d,  0 h,  0 min,  0.087 sec
 SCC setup                      ...        0 min,  0.003 sec (  3.539%)
 Dispersion                     ...        0 min,  0.007 sec (  8.030%)
 classical contributions        ...        0 min,  0.003 sec (  3.419%)
 integral evaluation            ...        0 min,  0.008 sec (  9.621%)
 iterations                     ...        0 min,  0.037 sec ( 42.912%)
 molecular gradient             ...        0 min,  0.028 sec ( 32.224%)
 printout                       ...        0 min,  0.000 sec (  0.220%)

         :::::::::::::::::::::::::::::::::::::::::::::::::::::
         ::                     SUMMARY                     ::
         :::::::::::::::::::::::::::::::::::::::::::::::::::::
         :: total energy             -47.991752135400 Eh    ::
         :: gradient norm              0.000096716706 Eh/a0 ::
         :: HOMO-LUMO gap             10.772334871487 eV    ::
         ::.................................................::
         :: SCC energy               -48.536152487468 Eh    ::
         :: -> isotropic ES            0.068051106099 Eh    ::
         :: -> anisotropic ES          0.006943399882 Eh    ::
         :: -> anisotropic XC          0.010931498515 Eh    ::
         :: -> dispersion             -0.027222953836 Eh    ::
         :: repulsion energy           0.544400352068 Eh    ::
         :: add. restraining           0.000000000000 Eh    ::
         :: total charge               0.000000000000 e     ::
         :::::::::::::::::::::::::::::::::::::::::::::::::::::

           -------------------------------------------------
          |                Property Printout                |
           -------------------------------------------------

    * Orbital Energies and Occupations

         #    Occupation            Energy/Eh            Energy/eV
      -------------------------------------------------------------
         1        2.0000           -0.7102344             -19.3265
       ...           ...                  ...                  ...
        31        2.0000           -0.4717599             -12.8372
        32        2.0000           -0.4605660             -12.5326
        33        2.0000           -0.4563423             -12.4177
        34        2.0000           -0.4495466             -12.2328
        35        2.0000           -0.4415133             -12.0142
        36        2.0000           -0.4377213             -11.9110
        37        2.0000           -0.4366704             -11.8824
        38        2.0000           -0.4263817             -11.6024
        39        2.0000           -0.4224567             -11.4956
        40        2.0000           -0.4215795             -11.4718
        41        2.0000           -0.4184089             -11.3855
        42        2.0000           -0.4092199             -11.1354
        43        2.0000           -0.4070514             -11.0764 (HOMO)
        44                         -0.0111754              -0.3041 (LUMO)
        45                          0.0432946               1.1781
        46                          0.0477051               1.2981
        47                          0.0620150               1.6875
        48                          0.0742159               2.0195
        49                          0.0911032               2.4790
        50                          0.0960991               2.6150
        51                          0.1008798               2.7451
        52                          0.1056824               2.8758
        53                          0.1201963               3.2707
        54                          0.1226869               3.3385
       ...                                ...                  ...
        80                          0.3110595               8.4644
      -------------------------------------------------------------
                  HL-Gap            0.3958760 Eh           10.7723 eV
             Fermi-level           -0.2091134 Eh           -5.6903 eV

     #   Z          covCN         q      C6AA      α(0)
     1   6 C        3.751    -0.102    22.516     6.767
     2   6 C        3.800    -0.053    21.531     6.607
     3   6 C        3.801    -0.059    21.628     6.621
     4   6 C        3.805    -0.062    21.694     6.631
     5   6 C        3.850    -0.025    20.981     6.515
     6   6 C        3.802    -0.061    21.667     6.627
     7   6 C        3.751    -0.104    22.554     6.773
     8   6 C        3.705     0.086    19.298     6.280
     9   8 O        1.702    -0.324    19.416     5.949
    10   6 C        3.702     0.072    19.518     6.317
    11   6 C        3.723     0.099    19.057     6.234
    12   8 O        1.656    -0.448    21.795     6.302
    13   6 C        3.676     0.073    19.574     6.339
    14   8 O        1.656    -0.431    21.465     6.254
    15   1 H        0.925     0.033     2.544     2.494
    16   1 H        0.925     0.035     2.520     2.482
    17   1 H        0.925     0.032     2.556     2.500
    18   1 H        0.924     0.029     2.601     2.522
    19   1 H        0.924     0.030     2.588     2.516
    20   1 H        0.924     0.034     2.532     2.488
    21   1 H        0.924     0.028     2.610     2.526
    22   1 H        0.924     0.040     2.450     2.448
    23   1 H        0.925     0.038     2.471     2.458
    24   1 H        0.924     0.044     2.390     2.418
    25   1 H        0.924     0.040     2.442     2.444
    26   1 H        0.924     0.030     2.584     2.514
    27   1 H        0.925     0.041     2.432     2.439
    28   1 H        0.925     0.036     2.501     2.473
    29   1 H        0.925     0.031     2.568     2.506
    30   1 H        0.923     0.019     2.749     2.593
    31   1 H        0.923     0.018     2.769     2.602
    32   1 H        0.923     0.026     2.644     2.543
    33   1 H        0.923     0.020     2.735     2.586
    34   1 H        0.923     0.038     2.477     2.461
    35   1 H        0.805     0.308     0.697     1.311
    36   1 H        0.924     0.046     2.377     2.411
    37   1 H        0.923     0.032     2.559     2.502
    38   1 H        0.805     0.310     0.692     1.306

 Mol. C6AA /au·bohr⁶  :      10110.027438
 Mol. C8AA /au·bohr⁸  :     210668.116296
 Mol. α(0) /au        :        147.760139


Wiberg/Mayer (AO) data.
largest (>0.10) Wiberg bond orders for each atom

 ---------------------------------------------------------------------------
     #   Z sym  total        # sym  WBO       # sym  WBO       # sym  WBO
 ---------------------------------------------------------------------------
     1   6 C    3.997 --     2 C    1.020    15 H    0.988    17 H    0.988
                            16 H    0.987
     2   6 C    3.998 --     1 C    1.020     3 C    1.007    18 H    0.979
                            19 H    0.978
     3   6 C    3.997 --     4 C    1.008     2 C    1.007    21 H    0.977
                            20 H    0.976
     4   6 C    3.996 --     3 C    1.008     5 C    0.996    22 H    0.974
                            23 H    0.973
     5   6 C    3.992 --     4 C    0.996     6 C    0.995     8 C    0.989
                            24 H    0.965
     6   6 C    3.996 --     7 C    1.020     5 C    0.995    26 H    0.977
                            25 H    0.975
     7   6 C    3.997 --     6 C    1.020    29 H    0.987    28 H    0.987
                            27 H    0.985
     8   6 C    3.947 --     5 C    0.989     9 O    0.973    31 H    0.967
                            30 H    0.966
     9   8 O    2.069 --    10 C    0.987     8 C    0.973
    10   6 C    3.958 --     9 O    0.987    11 C    0.982    33 H    0.967
                            32 H    0.965
    11   6 C    3.960 --    12 O    0.994    10 C    0.982    13 C    0.981
                            34 H    0.958
    12   8 O    1.955 --    11 C    0.994    35 H    0.884
    13   6 C    3.966 --    14 O    1.016    11 C    0.981    36 H    0.973
                            37 H    0.966
    14   8 O    1.963 --    13 C    1.016    38 H    0.887
    15   1 H    0.999 --     1 C    0.988
    16   1 H    0.999 --     1 C    0.987
    17   1 H    0.999 --     1 C    0.988
    18   1 H    0.999 --     2 C    0.979
    19   1 H    0.999 --     2 C    0.978
    20   1 H    0.999 --     3 C    0.976
    21   1 H    0.999 --     3 C    0.977
    22   1 H    0.998 --     4 C    0.974
    23   1 H    0.999 --     4 C    0.973
    24   1 H    0.998 --     5 C    0.965
    25   1 H    0.998 --     6 C    0.975
    26   1 H    0.999 --     6 C    0.977
    27   1 H    0.998 --     7 C    0.985
    28   1 H    0.999 --     7 C    0.987
    29   1 H    0.999 --     7 C    0.987
    30   1 H    1.000 --     8 C    0.966
    31   1 H    0.999 --     8 C    0.967
    32   1 H    0.999 --    10 C    0.965
    33   1 H    1.000 --    10 C    0.967
    34   1 H    0.999 --    11 C    0.958
    35   1 H    0.905 --    12 O    0.884
    36   1 H    0.998 --    13 C    0.973
    37   1 H    0.999 --    13 C    0.966
    38   1 H    0.904 --    14 O    0.887
 ---------------------------------------------------------------------------

Topologies differ in total number of bonds
Writing topology from bond orders to xtbtopo.mol

molecular dipole:
                 x           y           z       tot (Debye)
 q only:       -0.971      -0.483       0.149
   full:       -1.244      -0.754       0.252       3.754
molecular quadrupole (traceless):
                xx          xy          yy          xz          yz          zz
 q only:      -10.599      -4.964       6.017       1.813      -1.212       4.582
  q+dip:      -18.119      -9.117       8.512       2.061      -0.851       9.607
   full:      -17.423      -8.818       9.008       2.252      -1.325       8.415

           -------------------------------------------------
          |                Geometry Summary                 |
           -------------------------------------------------

      molecular mass/u    :      204.3068877
   center of mass at/Å    :        0.5990788       0.1327568      -0.0532697
  moments of inertia/u·Å² :        0.5531084E+03   0.2009744E+04   0.2413359E+04
rotational constants/cm⁻¹ :        0.3047799E-01   0.8387951E-02   0.6985134E-02

 * 37 selected distances

     #   Z          #   Z                                           value/Å
     1   6 C        2   6 C                                       1.5243383
     2   6 C        3   6 C                                       1.5293820
     3   6 C        4   6 C                                       1.5272690
     4   6 C        5   6 C                                       1.5327009
     5   6 C        6   6 C                                       1.5344520 (max)
     6   6 C        7   6 C                                       1.5248697
     5   6 C        8   6 C                                       1.5314162
     8   6 C        9   8 O                                       1.4117085
     9   8 O       10   6 C                                       1.4076828
    10   6 C       11   6 C                                       1.5292491
    11   6 C       12   8 O                                       1.4123010
    11   6 C       13   6 C                                       1.5319125
    13   6 C       14   8 O                                       1.3998849
     1   6 C       15   1 H                                       1.0881344
     1   6 C       16   1 H                                       1.0867756
     1   6 C       17   1 H                                       1.0876869
     2   6 C       18   1 H                                       1.0927406
     2   6 C       19   1 H                                       1.0924111
     3   6 C       20   1 H                                       1.0914950
     3   6 C       21   1 H                                       1.0928885
     4   6 C       22   1 H                                       1.0920191
     4   6 C       23   1 H                                       1.0901594
     5   6 C       24   1 H                                       1.0960129
     6   6 C       25   1 H                                       1.0910270
     6   6 C       26   1 H                                       1.0929522
     7   6 C       27   1 H                                       1.0863541
     7   6 C       28   1 H                                       1.0878392
     7   6 C       29   1 H                                       1.0868415
     8   6 C       30   1 H                                       1.1002602
     8   6 C       31   1 H                                       1.1009452
    10   6 C       32   1 H                                       1.1013994
    10   6 C       33   1 H                                       1.0996433
    11   6 C       34   1 H                                       1.1013918
    12   8 O       35   1 H                                       0.9647239 (min)
    13   6 C       36   1 H                                       1.0917005
    13   6 C       37   1 H                                       1.1000524
    14   8 O       38   1 H                                       0.9660095

 * 4 distinct bonds (by element types)

   Z      Z             #   av. dist./Å        max./Å        min./Å
   1 H    6 C          22     1.0932150     1.1013994     1.0863541
   6 C    6 C           9     1.5295100     1.5344520     1.5243383
   1 H    8 O           2     0.9653667     0.9660095     0.9647239
   6 C    8 O           4     1.4078943     1.4123010     1.3998849


optimized geometry written to: xtbopt.xyz


           -------------------------------------------------
          | TOTAL ENERGY              -47.991752135400 Eh   |
          | GRADIENT NORM               0.000096716706 Eh/α |
          | HOMO-LUMO GAP              10.772334871487 eV   |
           -------------------------------------------------

------------------------------------------------------------------------
 * finished run on 2026/07/07 at 11:34:08.793     
------------------------------------------------------------------------
 total:
 * wall-time:     0 d,  0 h,  0 min,  3.316 sec
 *  cpu-time:     0 d,  0 h,  0 min, 52.466 sec
 * ratio c/w:    15.823 speedup
 SCF:
 * wall-time:     0 d,  0 h,  0 min,  0.256 sec
 *  cpu-time:     0 d,  0 h,  0 min,  4.021 sec
 * ratio c/w:    15.687 speedup
 ANC optimizer:
 * wall-time:     0 d,  0 h,  0 min,  3.006 sec
 *  cpu-time:     0 d,  0 h,  0 min, 47.910 sec
 * ratio c/w:    15.939 speedup

