51
 energy: -84.885312786126 gnorm: 0.000277625742 xtb: 6.7.1 (edcfbbe)
C            6.22817113047764       -1.10755520621509        1.48810866569373
C            5.34109918785433       -0.85290138217031        0.54063679465203
C            5.65791588991687       -0.07830443116178       -0.69982000815846
C            3.90663915599817       -1.31373084349802        0.67213845227287
C            2.96789111632796       -0.14304314530537        1.06228654356368
C            2.10326179830553       -0.02590293000809       -0.15543161747026
C            2.44532258195358       -1.04432841686592       -1.04126902827715
C            1.81336036000113       -1.18917553246521       -2.27183297504364
C            0.81723026885067       -0.28981975181847       -2.57815672703638
C            0.44149871585309        0.73204408168477       -1.69862300864162
C            1.10704309039170        0.88134077116345       -0.46684017591756
O            0.85624369400613        1.87211669716783        0.41500728757142
C           -0.05854656453360        2.88974758161968        0.03928369001646
C           -0.63547639386325        3.45079806176194        1.34221451012850
O           -1.30626398724148        2.46936787462937        2.09286005736509
C           -2.06681668860015        1.57338794721129        1.39404011025918
C           -2.85470195322266        0.70685742857178        2.13939981500540
C           -3.67420697873152       -0.24636164204372        1.54942383422802
O           -4.36264723649235       -1.00668049211352        2.44384327961858
C           -5.29318986887993       -1.97942759170015        2.02365823872017
C           -3.71154917423341       -0.32728894332714        0.14274244348046
O           -4.52749353406797       -1.26475039359163       -0.44683829598831
C           -4.54811062974461       -1.34903134571733       -1.85020280555621
C           -2.91701713218860        0.54018330622165       -0.58906681782498
C           -2.08963309082625        1.48326279394603        0.00803843774006
C           -1.20762238646193        2.38396890989686       -0.83006745441264
C           -0.67822938828732        1.60353936592380       -2.02937654966087
O           -1.19867178357263        1.67314872887847       -3.12292626611501
O            3.43242744752799       -1.83210076570517       -0.58265268419257
H            5.97728129404447       -1.67689193382521        2.36661018291942
H            7.24157213345510       -0.75142256674851        1.42298064380564
H            6.68294210483893        0.28013803606774       -0.67978657913653
H            5.52268332759629       -0.71459978634439       -1.57367456706057
H            4.98455813563163        0.77188402846670       -0.80511091022523
H            3.84923264744488       -2.13363365204405        1.39570917387788
H            2.37410653495739       -0.37222909101294        1.94826135069915
H            3.52727514619660        0.77208850131115        1.26211296946234
H            2.09786264402201       -1.97919976040263       -2.94620980746000
H            0.28242541093505       -0.35584961885834       -3.51350733919871
H            0.49705951737028        3.68174058762267       -0.48851186956946
H           -1.31314623658705        4.28250563241204        1.10384947987449
H            0.16907254754188        3.81237775140614        1.98677991599332
H           -2.83454804131906        0.77088751469949        3.21435795913280
H           -4.81656197288375       -2.77460137743849        1.44716387518034
H           -5.70226089197517       -2.39358882531937        2.94529759590642
H           -6.09927517148254       -1.53982927612014        1.43303430445047
H           -5.24800821957032       -2.15157991677159       -2.07956561881540
H           -4.90206328101908       -0.41958029178778       -2.30720493689773
H           -3.56286616200829       -1.60114027531165       -2.25526842412938
H           -2.92984809028774        0.49882404846775       -1.66553129939007
H           -1.78542102340229        3.23805610190727       -1.20236384544688
