16
 energy: -21.782765919502 gnorm: 0.000081558160 xtb: 6.7.1 (edcfbbe)
C           -2.13388258246763       -0.53390248066244        0.56802885393405
C           -0.97258911194368       -0.37276785981353       -0.40444616270670
C            0.29754796014675        0.07859359748264        0.31534554538807
O            0.08916541750309        1.37209873064199        0.83150526830860
C            1.50596872053732        0.08493707720888       -0.63034969316849
O            2.62096557939638        0.53835308491637        0.11300742766287
H           -3.04385830528048       -0.79523971536681        0.03361949583537
H           -2.29324664166586        0.39876835324083        1.10127936439978
H           -1.91892717795863       -1.31593248470009        1.29274413211589
H           -1.22540789057701        0.38089720256704       -1.15173496082962
H           -0.77453323758738       -1.31660976558958       -0.91588724692913
H            0.52196186574808       -0.61587581513070        1.14226589158214
H            0.94961606253713        1.69759789385451        1.12317827823180
H            1.30371796496457        0.76199562300639       -1.47144988027478
H            1.67981282462064       -0.92645519742593       -1.01940755519978
H            3.39368855202562        0.56354175576850       -0.45909488521906
