29
REP_00115 MMFF geometry for GFN2-xTB preoptimization
C   5.060049901005  0.061185215406  0.478677276636
C   3.671337661828  0.572581006357  0.825042244255
C   2.618833659394  0.031154916758 -0.138777382993
C   1.233834385140  0.526568184435  0.203168020311
O   0.958840619934  1.320801747691  1.091378411730
O   0.329026692722 -0.031442954984 -0.652754701009
C  -1.034241678587  0.254672264912 -0.336986350234
C  -1.879410794471 -0.016238620646 -1.582008266789
C  -3.368584668712  0.191201314392 -1.308000214793
C  -3.850572643998 -0.685713610337 -0.151805375329
C  -3.029890848011 -0.464509535493  1.112780819011
C  -1.559547437922 -0.629213684980  0.799401040047
O  -0.849215649949 -1.405578888111  1.437293529482
H   5.797676053341  0.461745478739  1.181074247602
H   5.350620528279  0.368396781930 -0.531034995947
H   5.099966834142 -1.031534366185  0.530647875158
H   3.672926166001  1.668920169886  0.800146623940
H   3.423315075957  0.280158401566  1.852467727568
H   2.609829108832 -1.063874095323 -0.097123581535
H   2.852192667014  0.348022260278 -1.161325960148
H  -1.151748065390  1.306486888948 -0.046175491965
H  -1.554442556916  0.639647430411 -2.398639279430
H  -1.707363076422 -1.042173422426 -1.933660828218
H  -3.555936877455  1.245895454912 -1.072332786032
H  -3.944107186265 -0.043373307876 -2.210518545982
H  -3.781019161167 -1.739226550990 -0.450944702489
H  -4.906934908599 -0.479160962710  0.052968483817
H  -3.185824111022  0.541791719469  1.515872122473
H  -3.319609688702 -1.187189236030  1.882506572700
