29
REP_00315 MMFF geometry for GFN2-xTB preoptimization
C   3.222346546382 -0.669599899046 -0.598817169514
C   1.712017426826 -0.846147568134 -0.676788205793
C   0.944784026085 -0.195865305351  0.498659494124
C  -0.531132298746 -0.575376649762  0.398586303133
C  -0.925118091631 -1.880055820254  0.745367927808
C  -2.258501766559 -2.275329085606  0.647372193636
C  -3.218438059979 -1.372053458522  0.204869042675
C  -2.845244269963 -0.072743083949 -0.135520530447
C  -1.505051275976  0.337916436786 -0.048010744059
C  -1.175827526601  1.775794892773 -0.364896833605
C   0.317135122950  2.057770369863 -0.500414507226
C   1.127606754597  1.337713429177  0.572693013929
O   0.757223639892  1.827576087517  1.867635711653
H   3.518011594708  0.369139680638 -0.769238304017
H   3.606546474130 -0.988307006424  0.375112561951
H   3.709257161328 -1.276668083620 -1.369164419758
H   1.509923426831 -1.924946108175 -0.693100640918
H   1.352446932697 -0.460246756696 -1.638236147601
H   1.322427759658 -0.616799797726  1.441354448657
H  -0.187451252614 -2.600371544836  1.093764550294
H  -2.546627632428 -3.287959070417  0.916748374025
H  -4.259082122867 -1.676120804675  0.130167546097
H  -3.610487224230  0.626845278085 -0.466160570816
H  -1.587423255103  2.399434995126  0.439072458236
H  -1.675282392009  2.074281926107 -1.294682464750
H   0.661631092823  1.751516263890 -1.495060266768
H   0.473697124645  3.140842696285 -0.428720455807
H   2.181909304437  1.604067333971  0.459895802660
H  -0.091297219280  1.415690652974  2.111810975850
