      -----------------------------------------------------------      
     |                   =====================                   |     
     |                           x T B                           |     
     |                   =====================                   |     
     |                         S. Grimme                         |     
     |          Mulliken Center for Theoretical Chemistry        |     
     |                    University of Bonn                     |     
      -----------------------------------------------------------      

   * xtb version 6.7.1 (edcfbbe) compiled by 'conda@5dfe00f5fb80' on 2026-06-10

   xtb is free software: you can redistribute it and/or modify it under
   the terms of the GNU Lesser General Public License as published by
   the Free Software Foundation, either version 3 of the License, or
   (at your option) any later version.
   
   xtb is distributed in the hope that it will be useful,
   but WITHOUT ANY WARRANTY; without even the implied warranty of
   MERCHANTABILITY or FITNESS FOR A PARTICULAR PURPOSE.  See the
   GNU Lesser General Public License for more details.
   
   Cite this work as:
   * C. Bannwarth, E. Caldeweyher, S. Ehlert, A. Hansen, P. Pracht,
     J. Seibert, S. Spicher, S. Grimme, WIREs Comput. Mol. Sci., 2020, 11,
     e01493. DOI: 10.1002/wcms.1493
   
   for GFN2-xTB:
   * C. Bannwarth, S. Ehlert and S. Grimme., J. Chem. Theory Comput., 2019,
     15, 1652-1671. DOI: 10.1021/acs.jctc.8b01176
   for GFN1-xTB:
   * S. Grimme, C. Bannwarth, P. Shushkov, J. Chem. Theory Comput., 2017,
     13, 1989-2009. DOI: 10.1021/acs.jctc.7b00118
   for GFN0-xTB:
   * P. Pracht, E. Caldeweyher, S. Ehlert, S. Grimme, ChemRxiv, 2019, preprint.
     DOI: 10.26434/chemrxiv.8326202.v1
   for GFN-FF:
   * S. Spicher and S. Grimme, Angew. Chem. Int. Ed., 2020, 59, 15665-15673.
     DOI: 10.1002/anie.202004239
   
   for ALPB and GBSA implicit solvation:
   * S. Ehlert, M. Stahn, S. Spicher, S. Grimme, J. Chem. Theory Comput.,
     2021, 17, 4250-4261. DOI: 10.1021/acs.jctc.1c00471
   
   for ddCOSMO and CPCM-X implicit solvation:
   * M. Stahn, S. Ehlert, S. Grimme, J. Phys. Chem. A,
     2023, XX, XXXX-XXXX. DOI: 10.1021/acs.jpca.3c04382
   
   for DFT-D4:
   * E. Caldeweyher, C. Bannwarth and S. Grimme, J. Chem. Phys., 2017,
     147, 034112. DOI: 10.1063/1.4993215
   * E. Caldeweyher, S. Ehlert, A. Hansen, H. Neugebauer, S. Spicher,
     C. Bannwarth and S. Grimme, J. Chem. Phys., 2019, 150, 154122.
     DOI: 10.1063/1.5090222
   * E. Caldeweyher, J.-M. Mewes, S. Ehlert and S. Grimme, Phys. Chem. Chem. Phys.
     2020, 22, 8499-8512. DOI: 10.1039/D0CP00502A
   
   for sTDA-xTB:
   * S. Grimme and C. Bannwarth, J. Chem. Phys., 2016, 145, 054103.
     DOI: 10.1063/1.4959605
   
   in the mass-spec context:
   * V. Asgeirsson, C. Bauer and S. Grimme, Chem. Sci., 2017, 8, 4879.
     DOI: 10.1039/c7sc00601b
   * J. Koopman and S. Grimme, ACS Omega 2019, 4, 12, 15120-15133.
     DOI: 10.1021/acsomega.9b02011
   
   for metadynamics refer to:
   * S. Grimme, J. Chem. Theory Comput., 2019, 155, 2847-2862
     DOI: 10.1021/acs.jctc.9b00143
   
   for SPH calculations refer to:
   * S. Spicher and S. Grimme, J. Chem. Theory Comput., 2021, 17, 1701-1714
     DOI: 10.1021/acs.jctc.0c01306
   
   for ONIOM refer to:
   * C. Plett, A. Katbashev, S. Ehlert, S. Grimme, M. Bursch,
     Phys. Chem. Chem. Phys., 2023, 25, 17860-17868. DOI: 10.1039/D3CP02178E
   
   for DIPRO refer to:
   * J. Kohn, N. Gildemeister, S. Grimme, D. Fazzi, A. Hansen,
     J. Chem. Phys., 2023, just accepted.
   
   for PTB refer to:
   * S. Grimme, M. Mueller, A. Hansen, J. Chem. Phys., 2023, 158, 124111.
     DOI: 10.1063/5.0137838
   
   with help from (in alphabetical order)
   P. Atkinson, C. Bannwarth, F. Bohle, G. Brandenburg, E. Caldeweyher
   M. Checinski, S. Dohm, S. Ehlert, S. Ehrlich, I. Gerasimov, C. Hölzer
   A. Katbashev, J. Kohn, J. Koopman, C. Lavigne, S. Lehtola, F. März, M. Müller,
   F. Musil, H. Neugebauer, J. Pisarek, C. Plett, P. Pracht, F. Pultar,
   J. Seibert, P. Shushkov, S. Spicher, M. Stahn, M. Steiner, T. Strunk,
   J. Stückrath, T. Rose, and J. Unsleber
   
 * started run on 2026/07/06 at 18:37:12.005     
   ID    Z sym.   atoms
    1    6 C      1-10, 12-21, 23, 26
    2    8 O      11, 22, 24, 25, 27
    3    1 H      28-53

           -------------------------------------------------
          |                Calculation Setup                |
           -------------------------------------------------

          program call               : /home/ws/xd2484/miniforge3/envs/p3z_dft/bin/xtb xtb_input.xyz --gfn 2 --opt tight --cycles 500 --chrg 0 --uhf 0
          hostname                   : gpu10
          coordinate file            : xtb_input.xyz
          omp threads                :                    16


           -------------------------------------------------
          |                 G F N 2 - x T B                 |
           -------------------------------------------------

        Reference                      10.1021/acs.jctc.8b01176
      * Hamiltonian:
        H0-scaling (s, p, d)           1.850000    2.230000    2.230000
        zeta-weighting                 0.500000
      * Dispersion:
        s8                             2.700000
        a1                             0.520000
        a2                             5.000000
        s9                             5.000000
      * Repulsion:
        kExp                           1.500000    1.000000
        rExp                           1.000000
      * Coulomb:
        alpha                          2.000000
        third order                    shell-resolved
        anisotropic                    true
        a3                             3.000000
        a5                             4.000000
        cn-shift                       1.200000
        cn-exp                         4.000000
        max-rad                        5.000000


          ...................................................
          :                      SETUP                      :
          :.................................................:
          :  # basis functions                 134          :
          :  # atomic orbitals                 134          :
          :  # shells                           80          :
          :  # electrons                       144          :
          :  max. iterations                   250          :
          :  Hamiltonian                  GFN2-xTB          :
          :  restarted?                      false          :
          :  GBSA solvation                  false          :
          :  PC potential                    false          :
          :  electronic temp.          300.0000000     K    :
          :  accuracy                    1.0000000          :
          :  -> integral cutoff          0.2500000E+02      :
          :  -> integral neglect         0.1000000E-07      :
          :  -> SCF convergence          0.1000000E-05 Eh   :
          :  -> wf. convergence          0.1000000E-03 e    :
          :  Broyden damping             0.4000000          :
          :  net charge                          0          :
          :  unpaired electrons                  0          :
          ...................................................

 iter      E             dE          RMSdq      gap      omega  full diag
   1    -81.6213087 -0.816213E+02  0.412E+00    3.76       0.0  T
   2    -81.7190639 -0.977552E-01  0.234E+00    3.93       1.0  T
   3    -81.7167445  0.231934E-02  0.854E-01    3.76       1.0  T
   4    -81.7232379 -0.649330E-02  0.298E-01    3.99       1.0  T
   5    -81.7259327 -0.269481E-02  0.876E-02    3.92       1.0  T
   6    -81.7260045 -0.718339E-04  0.422E-02    3.91       1.0  T
   7    -81.7260297 -0.251909E-04  0.160E-02    3.92       1.0  T
   8    -81.7260331 -0.341883E-05  0.483E-03    3.91       2.8  T
   9    -81.7260334 -0.289501E-06  0.130E-03    3.91      10.5  T
  10    -81.7260334 -0.644037E-08  0.663E-04    3.91      20.7  T
  11    -81.7260334 -0.920856E-08  0.263E-04    3.91      52.1  T

   *** convergence criteria satisfied after 11 iterations ***

         #    Occupation            Energy/Eh            Energy/eV
      -------------------------------------------------------------
         1        2.0000           -0.7455957             -20.2887
       ...           ...                  ...                  ...
        66        2.0000           -0.4238705             -11.5341
        67        2.0000           -0.4223569             -11.4929
        68        2.0000           -0.4011744             -10.9165
        69        2.0000           -0.4005230             -10.8988
        70        2.0000           -0.3950437             -10.7497
        71        2.0000           -0.3703579             -10.0780
        72        2.0000           -0.3698810             -10.0650 (HOMO)
        73                         -0.2260273              -6.1505 (LUMO)
        74                         -0.2254252              -6.1341
        75                         -0.2184249              -5.9436
        76                         -0.2178991              -5.9293
        77                         -0.0943710              -2.5680
       ...                                ...                  ...
       134                          0.6611669              17.9913
      -------------------------------------------------------------
                  HL-Gap            0.1438536 Eh            3.9145 eV
             Fermi-level           -0.2979542 Eh           -8.1077 eV

 SCC (total)                   0 d,  0 h,  0 min,  0.331 sec
 SCC setup                      ...        0 min,  0.005 sec (  1.553%)
 Dispersion                     ...        0 min,  0.011 sec (  3.400%)
 classical contributions        ...        0 min,  0.005 sec (  1.575%)
 integral evaluation            ...        0 min,  0.019 sec (  5.696%)
 iterations                     ...        0 min,  0.240 sec ( 72.367%)
 molecular gradient             ...        0 min,  0.050 sec ( 15.158%)
 printout                       ...        0 min,  0.001 sec (  0.241%)

         :::::::::::::::::::::::::::::::::::::::::::::::::::::
         ::                     SUMMARY                     ::
         :::::::::::::::::::::::::::::::::::::::::::::::::::::
         :: total energy             -80.710322807771 Eh    ::
         :: gradient norm              0.105601880677 Eh/a0 ::
         :: HOMO-LUMO gap              3.914456819015 eV    ::
         ::.................................................::
         :: SCC energy               -81.726030173475 Eh    ::
         :: -> isotropic ES            0.084355555928 Eh    ::
         :: -> anisotropic ES          0.010507672187 Eh    ::
         :: -> anisotropic XC          0.019228585249 Eh    ::
         :: -> dispersion             -0.049154955970 Eh    ::
         :: repulsion energy           1.015707365704 Eh    ::
         :: add. restraining           0.000000000000 Eh    ::
         :: total charge              -0.000000000000 e     ::
         :::::::::::::::::::::::::::::::::::::::::::::::::::::

      ----------------------------------------------------------- 
     |                   =====================                   |
     |                        A N C O P T                        |
     |                   =====================                   |
     |               Approximate Normal Coordinate               |
     |                Rational Function Optimizer                |
      ----------------------------------------------------------- 
      ----------------------------------------------------------- 
     |                   =====================                   |
     |                        A N C O P T                        |
     |                   =====================                   |
     |               Approximate Normal Coordinate               |
     |                Rational Function Optimizer                |
      ----------------------------------------------------------- 

          ...................................................
          :                      SETUP                      :
          :.................................................:
          :   optimization level             tight          :
          :   max. optcycles                   500          :
          :   ANC micro-cycles                  20          :
          :   degrees of freedom               153          :
          :.................................................:
          :   RF solver                   davidson          :
          :   write xtbopt.log                true          :
          :   linear?                        false          :
          :   energy convergence         0.1000000E-05 Eh   :
          :   grad. convergence          0.8000000E-03 Eh/α :
          :   maxmium RF displ.          1.0000000          :
          :   Hlow (freq-cutoff)         0.1000000E-01      :
          :   Hmax (freq-cutoff)         5.0000000          :
          :   S6 in model hess.         20.0000000          :
          ...................................................

generating ANC from exact Hessian ...
Using Lindh-Hessian (1995)
 Shifting diagonal of input Hessian by    9.8913925267507252E-003
 Lowest  eigenvalues of input Hessian
    0.000000    0.000000    0.000000    0.000000    0.000000    0.000000
    0.010000    0.010150    0.010185    0.010283    0.010315    0.010636
    0.011049    0.011461    0.012680    0.013371    0.014591    0.015007
 Highest eigenvalues
    1.906768    1.906836    2.107913    2.108195    2.209859    2.210078


........................................................................
.............................. CYCLE    1 ..............................
........................................................................

 iter      E             dE          RMSdq      gap      omega  full diag
   1    -81.7260334 -0.817260E+02  0.956E-05    3.91       0.0  T
   2    -81.7260334 -0.392646E-10  0.578E-05    3.91     237.8  T
   3    -81.7260334  0.895284E-11  0.354E-05    3.91     388.0  T
     SCC iter.                  ...        0 min,  0.058 sec
     gradient                   ...        0 min,  0.052 sec
 * total energy  :   -80.7103228 Eh     change       -0.1706823E-08 Eh
   gradient norm :     0.1056030 Eh/α   predicted     0.0000000E+00 (-100.00%)
   displ. norm   :     0.2575345 α      lambda       -0.1917048E-01
   maximum displ.:     0.0931138 α      in ANC's #93, #49, #104, ...

........................................................................
.............................. CYCLE    2 ..............................
........................................................................

 iter      E             dE          RMSdq      gap      omega  full diag
   1    -81.7606739 -0.817607E+02  0.194E-01    3.94       0.0  T
   2    -81.7607764 -0.102455E-03  0.122E-01    3.92       1.0  T
   3    -81.7607147  0.617065E-04  0.387E-02    3.93       1.0  T
   4    -81.7607916 -0.768796E-04  0.121E-02    3.92       1.1  T
   5    -81.7607983 -0.672184E-05  0.382E-03    3.92       3.6  T
   6    -81.7607984 -0.744931E-07  0.164E-03    3.92       8.4  T
   7    -81.7607984 -0.985308E-08  0.680E-04    3.92      20.2  T
   8    -81.7607984 -0.120358E-07  0.223E-04    3.92      61.7  T
     SCC iter.                  ...        0 min,  0.114 sec
     gradient                   ...        0 min,  0.039 sec
 * total energy  :   -80.7229339 Eh     change       -0.1261110E-01 Eh
   gradient norm :     0.0461206 Eh/α   predicted    -0.1022138E-01 ( -18.95%)
   displ. norm   :     0.1553480 α      lambda       -0.3682147E-02
   maximum displ.:     0.0571999 α      in ANC's #12, #104, #49, ...

........................................................................
.............................. CYCLE    3 ..............................
........................................................................

 iter      E             dE          RMSdq      gap      omega  full diag
   1    -81.7696119 -0.817696E+02  0.921E-02    3.92       0.0  T
   2    -81.7696460 -0.341055E-04  0.574E-02    3.92       1.0  T
   3    -81.7696367  0.928152E-05  0.193E-02    3.92       1.0  T
   4    -81.7696501 -0.133967E-04  0.711E-03    3.91       1.9  T
   5    -81.7696523 -0.222826E-05  0.222E-03    3.92       6.2  T
   6    -81.7696523 -0.327955E-07  0.968E-04    3.92      14.2  T
   7    -81.7696523 -0.211084E-08  0.428E-04    3.92      32.1  T
     SCC iter.                  ...        0 min,  0.128 sec
     gradient                   ...        0 min,  0.052 sec
 * total energy  :   -80.7249798 Eh     change       -0.2045938E-02 Eh
   gradient norm :     0.0141703 Eh/α   predicted    -0.1885897E-02 (  -7.82%)
   displ. norm   :     0.0924073 α      lambda       -0.2985350E-03
   maximum displ.:     0.0512133 α      in ANC's #12, #5, #4, ...

........................................................................
.............................. CYCLE    4 ..............................
........................................................................

 iter      E             dE          RMSdq      gap      omega  full diag
   1    -81.7684787 -0.817685E+02  0.237E-02    3.91       0.0  T
   2    -81.7684807 -0.199976E-05  0.138E-02    3.91       1.0  T
   3    -81.7684806  0.101486E-06  0.421E-03    3.91       3.3  T
   4    -81.7684809 -0.239206E-06  0.114E-03    3.91      12.0  T
   5    -81.7684809 -0.532417E-07  0.477E-04    3.91      28.8  T
   6    -81.7684809 -0.464084E-08  0.230E-04    3.91      59.8  T
     SCC iter.                  ...        0 min,  0.126 sec
     gradient                   ...        0 min,  0.060 sec
 * total energy  :   -80.7251970 Eh     change       -0.2171955E-03 Eh
   gradient norm :     0.0061265 Eh/α   predicted    -0.1505791E-03 ( -30.67%)
   displ. norm   :     0.1413264 α      lambda       -0.1925160E-03
   maximum displ.:     0.0725018 α      in ANC's #12, #5, #4, ...

........................................................................
.............................. CYCLE    5 ..............................
........................................................................

 iter      E             dE          RMSdq      gap      omega  full diag
   1    -81.7671603 -0.817672E+02  0.270E-02    3.91       0.0  T
   2    -81.7671624 -0.207346E-05  0.158E-02    3.91       1.0  T
   3    -81.7671609  0.143132E-05  0.715E-03    3.91       1.9  T
   4    -81.7671629 -0.199670E-05  0.120E-03    3.91      11.4  T
   5    -81.7671630 -0.538386E-07  0.419E-04    3.91      32.8  T
   6    -81.7671630 -0.273158E-08  0.202E-04    3.91      68.0  T
     SCC iter.                  ...        0 min,  0.086 sec
     gradient                   ...        0 min,  0.037 sec
 * total energy  :   -80.7253188 Eh     change       -0.1217546E-03 Eh
   gradient norm :     0.0031590 Eh/α   predicted    -0.9821120E-04 ( -19.34%)
   displ. norm   :     0.1081306 α      lambda       -0.6233418E-04
   maximum displ.:     0.0570908 α      in ANC's #5, #4, #12, ...

........................................................................
.............................. CYCLE    6 ..............................
........................................................................

 iter      E             dE          RMSdq      gap      omega  full diag
   1    -81.7672215 -0.817672E+02  0.166E-02    3.91       0.0  T
   2    -81.7672218 -0.371804E-06  0.987E-03    3.92       1.4  T
   3    -81.7672211  0.732205E-06  0.425E-03    3.91       3.2  T
   4    -81.7672220 -0.941839E-06  0.407E-04    3.91      33.7  T
   5    -81.7672220 -0.334273E-08  0.193E-04    3.91      71.1  T
     SCC iter.                  ...        0 min,  0.096 sec
     gradient                   ...        0 min,  0.029 sec
 * total energy  :   -80.7253693 Eh     change       -0.5045910E-04 Eh
   gradient norm :     0.0040630 Eh/α   predicted    -0.3153222E-04 ( -37.51%)
   displ. norm   :     0.1772967 α      lambda       -0.8962021E-04
   maximum displ.:     0.0941593 α      in ANC's #5, #4, #7, ...

........................................................................
.............................. CYCLE    7 ..............................
........................................................................

 iter      E             dE          RMSdq      gap      omega  full diag
   1    -81.7679312 -0.817679E+02  0.277E-02    3.92       0.0  T
   2    -81.7679315 -0.345402E-06  0.164E-02    3.92       1.0  T
   3    -81.7679306  0.977553E-06  0.442E-03    3.92       3.1  T
   4    -81.7679317 -0.117035E-05  0.533E-04    3.92      25.8  T
   5    -81.7679317 -0.362854E-08  0.295E-04    3.92      46.5  T
   6    -81.7679317 -0.767059E-09  0.109E-04    3.92     126.0  T
     SCC iter.                  ...        0 min,  0.140 sec
     gradient                   ...        0 min,  0.037 sec
 * total energy  :   -80.7254400 Eh     change       -0.7077698E-04 Eh
   gradient norm :     0.0038787 Eh/α   predicted    -0.4622359E-04 ( -34.69%)
   displ. norm   :     0.2097354 α      lambda       -0.8447252E-04
   maximum displ.:     0.1145390 α      in ANC's #5, #4, #7, ...

........................................................................
.............................. CYCLE    8 ..............................
........................................................................

 iter      E             dE          RMSdq      gap      omega  full diag
   1    -81.7688232 -0.817688E+02  0.341E-02    3.92       0.0  T
   2    -81.7688234 -0.255713E-06  0.202E-02    3.92       1.0  T
   3    -81.7688233  0.670800E-07  0.180E-03    3.92       7.6  T
   4    -81.7688235 -0.138208E-06  0.713E-04    3.92      19.3  T
   5    -81.7688235 -0.933015E-08  0.336E-04    3.92      40.9  T
     SCC iter.                  ...        0 min,  0.068 sec
     gradient                   ...        0 min,  0.023 sec
 * total energy  :   -80.7255053 Eh     change       -0.6531314E-04 Eh
   gradient norm :     0.0030599 Eh/α   predicted    -0.4410907E-04 ( -32.47%)
   displ. norm   :     0.2027883 α      lambda       -0.6565296E-04
   maximum displ.:     0.1134292 α      in ANC's #5, #4, #7, ...

........................................................................
.............................. CYCLE    9 ..............................
........................................................................

 iter      E             dE          RMSdq      gap      omega  full diag
   1    -81.7694469 -0.817694E+02  0.351E-02    3.92       0.0  T
   2    -81.7694473 -0.415404E-06  0.209E-02    3.92       1.0  T
   3    -81.7694462  0.110614E-05  0.439E-03    3.92       3.1  T
   4    -81.7694475 -0.132167E-05  0.730E-04    3.92      18.8  T
   5    -81.7694475 -0.505040E-08  0.356E-04    3.92      38.5  T
   6    -81.7694475 -0.579206E-09  0.153E-04    3.92      89.5  T
     SCC iter.                  ...        0 min,  0.098 sec
     gradient                   ...        0 min,  0.038 sec
 * total energy  :   -80.7255571 Eh     change       -0.5179688E-04 Eh
   gradient norm :     0.0023265 Eh/α   predicted    -0.3417860E-04 ( -34.01%)
   displ. norm   :     0.2084409 α      lambda       -0.5876269E-04
   maximum displ.:     0.1172894 α      in ANC's #5, #4, #7, ...

........................................................................
.............................. CYCLE   10 ..............................
........................................................................

 iter      E             dE          RMSdq      gap      omega  full diag
   1    -81.7697194 -0.817697E+02  0.383E-02    3.92       0.0  T
   2    -81.7697200 -0.549988E-06  0.228E-02    3.92       1.0  T
   3    -81.7697180  0.194757E-05  0.582E-03    3.92       2.4  T
   4    -81.7697203 -0.230345E-05  0.762E-04    3.92      18.0  T
   5    -81.7697203 -0.327557E-08  0.407E-04    3.92      33.7  T
   6    -81.7697203 -0.130393E-08  0.167E-04    3.92      82.3  T
     SCC iter.                  ...        0 min,  0.090 sec
     gradient                   ...        0 min,  0.035 sec
 * total energy  :   -80.7256036 Eh     change       -0.4641351E-04 Eh
   gradient norm :     0.0021831 Eh/α   predicted    -0.3066020E-04 ( -33.94%)
   displ. norm   :     0.2238198 α      lambda       -0.5555814E-04
   maximum displ.:     0.1250077 α      in ANC's #5, #4, #7, ...

........................................................................
.............................. CYCLE   11 ..............................
........................................................................

 iter      E             dE          RMSdq      gap      omega  full diag
   1    -81.7696350 -0.817696E+02  0.423E-02    3.92       0.0  T
   2    -81.7696355 -0.461637E-06  0.251E-02    3.92       1.0  T
   3    -81.7696339  0.157902E-05  0.525E-03    3.92       2.6  T
   4    -81.7696358 -0.188491E-05  0.794E-04    3.92      17.3  T
   5    -81.7696358 -0.251082E-08  0.425E-04    3.92      32.3  T
   6    -81.7696358 -0.153560E-08  0.142E-04    3.92      97.0  T
     SCC iter.                  ...        0 min,  0.085 sec
     gradient                   ...        0 min,  0.027 sec
 * total energy  :   -80.7256469 Eh     change       -0.4331647E-04 Eh
   gradient norm :     0.0024823 Eh/α   predicted    -0.2917351E-04 ( -32.65%)
   displ. norm   :     0.2254170 α      lambda       -0.4973504E-04
   maximum displ.:     0.1248906 α      in ANC's #5, #4, #7, ...

........................................................................
.............................. CYCLE   12 ..............................
........................................................................

 iter      E             dE          RMSdq      gap      omega  full diag
   1    -81.7693588 -0.817694E+02  0.419E-02    3.92       0.0  T
   2    -81.7693590 -0.255710E-06  0.249E-02    3.92       1.0  T
   3    -81.7693587  0.297020E-06  0.260E-03    3.92       5.3  T
   4    -81.7693592 -0.426500E-06  0.762E-04    3.92      18.0  T
   5    -81.7693592 -0.461452E-08  0.369E-04    3.92      37.2  T
     SCC iter.                  ...        0 min,  0.070 sec
     gradient                   ...        0 min,  0.037 sec
 * total energy  :   -80.7256858 Eh     change       -0.3894279E-04 Eh
   gradient norm :     0.0024926 Eh/α   predicted    -0.2613145E-04 ( -32.90%)
   displ. norm   :     0.2129432 α      lambda       -0.4521686E-04
   maximum displ.:     0.1166393 α      in ANC's #5, #7, #4, ...

........................................................................
.............................. CYCLE   13 ..............................
........................................................................

 iter      E             dE          RMSdq      gap      omega  full diag
   1    -81.7691967 -0.817692E+02  0.382E-02    3.92       0.0  T
   2    -81.7691969 -0.248162E-06  0.226E-02    3.92       1.0  T
   3    -81.7691968  0.911499E-07  0.191E-03    3.92       7.2  T
   4    -81.7691970 -0.176968E-06  0.713E-04    3.92      19.3  T
   5    -81.7691970 -0.732943E-08  0.354E-04    3.92      38.8  T
     SCC iter.                  ...        0 min,  0.070 sec
     gradient                   ...        0 min,  0.035 sec
 * total energy  :   -80.7257209 Eh     change       -0.3505974E-04 Eh
   gradient norm :     0.0020629 Eh/α   predicted    -0.2363516E-04 ( -32.59%)
   displ. norm   :     0.2029730 α      lambda       -0.3849346E-04
   maximum displ.:     0.1084042 α      in ANC's #5, #7, #4, ...

........................................................................
.............................. CYCLE   14 ..............................
........................................................................

 iter      E             dE          RMSdq      gap      omega  full diag
   1    -81.7692172 -0.817692E+02  0.355E-02    3.92       0.0  T
   2    -81.7692175 -0.347518E-06  0.211E-02    3.92       1.0  T
   3    -81.7692168  0.723587E-06  0.376E-03    3.92       3.7  T
   4    -81.7692177 -0.884344E-06  0.689E-04    3.92      19.9  T
   5    -81.7692177 -0.522583E-08  0.365E-04    3.92      37.7  T
     SCC iter.                  ...        0 min,  0.070 sec
     gradient                   ...        0 min,  0.035 sec
 * total energy  :   -80.7257474 Eh     change       -0.2654441E-04 Eh
   gradient norm :     0.0015742 Eh/α   predicted    -0.2004304E-04 ( -24.49%)
   displ. norm   :     0.1563595 α      lambda       -0.1553496E-04
   maximum displ.:     0.0810578 α      in ANC's #5, #7, #12, ...

........................................................................
.............................. CYCLE   15 ..............................
........................................................................

 iter      E             dE          RMSdq      gap      omega  full diag
   1    -81.7695877 -0.817696E+02  0.272E-02    3.92       0.0  T
   2    -81.7695880 -0.255020E-06  0.162E-02    3.92       1.0  T
   3    -81.7695873  0.707331E-06  0.370E-03    3.92       3.7  T
   4    -81.7695881 -0.850236E-06  0.552E-04    3.92      24.9  T
   5    -81.7695881 -0.297156E-08  0.310E-04    3.92      44.3  T
     SCC iter.                  ...        0 min,  0.060 sec
     gradient                   ...        0 min,  0.029 sec
 * total energy  :   -80.7257599 Eh     change       -0.1246425E-04 Eh
   gradient norm :     0.0011799 Eh/α   predicted    -0.7852866E-05 ( -37.00%)
   displ. norm   :     0.0271171 α      lambda       -0.4754585E-05
   maximum displ.:     0.0113018 α      in ANC's #6, #4, #12, ...

........................................................................
.............................. CYCLE   16 ..............................
........................................................................

 iter      E             dE          RMSdq      gap      omega  full diag
   1    -81.7699059 -0.817699E+02  0.681E-03    3.92       0.0  T
   2    -81.7699060 -0.357734E-07  0.409E-03    3.92       3.4  T
   3    -81.7699059  0.438455E-07  0.973E-04    3.92      14.1  T
   4    -81.7699060 -0.537995E-07  0.218E-04    3.92      63.0  T
     SCC iter.                  ...        0 min,  0.048 sec
     gradient                   ...        0 min,  0.029 sec
 * total energy  :   -80.7257653 Eh     change       -0.5421216E-05 Eh
   gradient norm :     0.0005426 Eh/α   predicted    -0.2380110E-05 ( -56.10%)
   displ. norm   :     0.0490397 α      lambda       -0.5243180E-05
   maximum displ.:     0.0214295 α      in ANC's #6, #4, #1, ...

........................................................................
.............................. CYCLE   17 ..............................
........................................................................

 iter      E             dE          RMSdq      gap      omega  full diag
   1    -81.7698335 -0.817698E+02  0.109E-02    3.92       0.0  T
   2    -81.7698336 -0.641690E-07  0.655E-03    3.92       2.1  T
   3    -81.7698334  0.138042E-06  0.164E-03    3.92       8.4  T
   4    -81.7698336 -0.166857E-06  0.279E-04    3.92      49.2  T
   5    -81.7698336 -0.928424E-09  0.148E-04    3.92      93.1  T
     SCC iter.                  ...        0 min,  0.118 sec
     gradient                   ...        0 min,  0.037 sec
 * total energy  :   -80.7257707 Eh     change       -0.5358759E-05 Eh
   gradient norm :     0.0006210 Eh/α   predicted    -0.2627221E-05 ( -50.97%)
   displ. norm   :     0.0473340 α      lambda       -0.3186302E-05
   maximum displ.:     0.0213908 α      in ANC's #6, #1, #8, ...

........................................................................
.............................. CYCLE   18 ..............................
........................................................................

 iter      E             dE          RMSdq      gap      omega  full diag
   1    -81.7698531 -0.817699E+02  0.918E-03    3.92       0.0  T
   2    -81.7698531 -0.186532E-07  0.551E-03    3.92       2.5  T
   3    -81.7698531  0.360172E-07  0.875E-04    3.92      15.7  T
   4    -81.7698531 -0.461659E-07  0.187E-04    3.92      73.5  T
     SCC iter.                  ...        0 min,  0.048 sec
     gradient                   ...        0 min,  0.029 sec
 * total energy  :   -80.7257744 Eh     change       -0.3751343E-05 Eh
   gradient norm :     0.0007222 Eh/α   predicted    -0.1598687E-05 ( -57.38%)
   displ. norm   :     0.0801051 α      lambda       -0.4725001E-05
   maximum displ.:     0.0322780 α      in ANC's #1, #6, #5, ...

........................................................................
.............................. CYCLE   19 ..............................
........................................................................

 iter      E             dE          RMSdq      gap      omega  full diag
   1    -81.7696764 -0.817697E+02  0.142E-02    3.92       0.0  T
   2    -81.7696765 -0.201418E-07  0.849E-03    3.92       1.6  T
   3    -81.7696765  0.364236E-08  0.569E-04    3.92      24.1  T
   4    -81.7696765 -0.143152E-07  0.238E-04    3.92      57.8  T
     SCC iter.                  ...        0 min,  0.094 sec
     gradient                   ...        0 min,  0.033 sec
 * total energy  :   -80.7257798 Eh     change       -0.5338670E-05 Eh
   gradient norm :     0.0006506 Eh/α   predicted    -0.2371085E-05 ( -55.59%)
   displ. norm   :     0.0966766 α      lambda       -0.4701052E-05
   maximum displ.:     0.0420158 α      in ANC's #5, #1, #3, ...

........................................................................
.............................. CYCLE   20 ..............................
........................................................................

 iter      E             dE          RMSdq      gap      omega  full diag
   1    -81.7695613 -0.817696E+02  0.165E-02    3.92       0.0  T
   2    -81.7695613 -0.265077E-07  0.984E-03    3.92       1.4  T
   3    -81.7695613  0.136479E-07  0.702E-04    3.92      19.6  T
   4    -81.7695614 -0.256607E-07  0.263E-04    3.92      52.2  T
     SCC iter.                  ...        0 min,  0.052 sec
     gradient                   ...        0 min,  0.028 sec
 * total energy  :   -80.7257848 Eh     change       -0.5057466E-05 Eh
   gradient norm :     0.0005508 Eh/α   predicted    -0.2361666E-05 ( -53.30%)
   displ. norm   :     0.0936357 α      lambda       -0.3790845E-05
   maximum displ.:     0.0465452 α      in ANC's #5, #1, #3, ...
 * RMSD in coord.:     0.2963600 α      energy gain  -0.1546200E-01 Eh

generating ANC from exact Hessian ...
Using Lindh-Hessian (1995)
 Shifting diagonal of input Hessian by    9.8828628422213856E-003
 Lowest  eigenvalues of input Hessian
    0.000000    0.000000    0.000000    0.000000    0.000000    0.000000
    0.010000    0.010138    0.010181    0.010288    0.010330    0.010680
    0.011149    0.011555    0.012808    0.013571    0.014846    0.015479
 Highest eigenvalues
    1.956503    1.957666    2.077356    2.078294    2.202576    2.203869


........................................................................
.............................. CYCLE   21 ..............................
........................................................................

 iter      E             dE          RMSdq      gap      omega  full diag
   1    -81.7695491 -0.817695E+02  0.158E-02    3.92       0.0  T
   2    -81.7695491 -0.268793E-07  0.941E-03    3.92       1.5  T
   3    -81.7695491  0.486584E-07  0.998E-04    3.92      13.8  T
   4    -81.7695491 -0.639715E-07  0.243E-04    3.92      56.5  T
     SCC iter.                  ...        0 min,  0.054 sec
     gradient                   ...        0 min,  0.029 sec
 * total energy  :   -80.7257890 Eh     change       -0.4184077E-05 Eh
   gradient norm :     0.0005111 Eh/α   predicted     0.0000000E+00 (-100.00%)
   displ. norm   :     0.0121059 α      lambda       -0.1416817E-05
   maximum displ.:     0.0055648 α      in ANC's #1, #16, #14, ...

........................................................................
.............................. CYCLE   22 ..............................
........................................................................

 iter      E             dE          RMSdq      gap      omega  full diag
   1    -81.7697862 -0.817698E+02  0.303E-03    3.92       0.0  T
   2    -81.7697862 -0.442613E-08  0.179E-03    3.92       7.7  T
   3    -81.7697862  0.950986E-08  0.452E-04    3.92      30.4  T
   4    -81.7697862 -0.116671E-07  0.702E-05    3.92     195.5  T
     SCC iter.                  ...        0 min,  0.048 sec
     gradient                   ...        0 min,  0.030 sec
 * total energy  :   -80.7257907 Eh     change       -0.1742551E-05 Eh
   gradient norm :     0.0002393 Eh/α   predicted    -0.7126846E-06 ( -59.10%)
   displ. norm   :     0.0444701 α      lambda       -0.3559481E-05
   maximum displ.:     0.0204508 α      in ANC's #1, #16, #6, ...

........................................................................
.............................. CYCLE   23 ..............................
........................................................................

 iter      E             dE          RMSdq      gap      omega  full diag
   1    -81.7700169 -0.817700E+02  0.963E-03    3.92       0.0  T
   2    -81.7700170 -0.263227E-07  0.572E-03    3.92       2.4  T
   3    -81.7700169  0.442383E-07  0.991E-04    3.92      13.9  T
   4    -81.7700170 -0.578161E-07  0.220E-04    3.92      62.5  T
     SCC iter.                  ...        0 min,  0.057 sec
     gradient                   ...        0 min,  0.031 sec
 * total energy  :   -80.7257941 Eh     change       -0.3369268E-05 Eh
   gradient norm :     0.0005665 Eh/α   predicted    -0.1781912E-05 ( -47.11%)
   displ. norm   :     0.0331818 α      lambda       -0.1524020E-05
   maximum displ.:     0.0166066 α      in ANC's #1, #6, #16, ...

........................................................................
.............................. CYCLE   24 ..............................
........................................................................

 iter      E             dE          RMSdq      gap      omega  full diag
   1    -81.7699010 -0.817699E+02  0.668E-03    3.92       0.0  T
   2    -81.7699010 -0.731565E-08  0.400E-03    3.92       3.4  T
   3    -81.7699010 -0.205053E-08  0.264E-04    3.92      52.1  T
   4    -81.7699010 -0.163925E-08  0.150E-04    3.92      91.3  T
     SCC iter.                  ...        0 min,  0.093 sec
     gradient                   ...        0 min,  0.037 sec
 * total energy  :   -80.7257958 Eh     change       -0.1713799E-05 Eh
   gradient norm :     0.0005261 Eh/α   predicted    -0.7626997E-06 ( -55.50%)
   displ. norm   :     0.0445464 α      lambda       -0.1766806E-05
   maximum displ.:     0.0231329 α      in ANC's #1, #6, #3, ...

........................................................................
.............................. CYCLE   25 ..............................
........................................................................

 iter      E             dE          RMSdq      gap      omega  full diag
   1    -81.7698104 -0.817698E+02  0.871E-03    3.92       0.0  T
   2    -81.7698104 -0.137555E-07  0.519E-03    3.92       2.6  T
   3    -81.7698104  0.538847E-08  0.503E-04    3.92      27.3  T
   4    -81.7698104 -0.124002E-07  0.200E-04    3.92      68.8  T
     SCC iter.                  ...        0 min,  0.064 sec
     gradient                   ...        0 min,  0.037 sec
 * total energy  :   -80.7257978 Eh     change       -0.1970669E-05 Eh
   gradient norm :     0.0002877 Eh/α   predicted    -0.8845494E-06 ( -55.11%)
   displ. norm   :     0.0413436 α      lambda       -0.1364354E-05
   maximum displ.:     0.0223861 α      in ANC's #1, #6, #3, ...

........................................................................
.............................. CYCLE   26 ..............................
........................................................................

 iter      E             dE          RMSdq      gap      omega  full diag
   1    -81.7696928 -0.817697E+02  0.779E-03    3.92       0.0  T
   2    -81.7696928 -0.119867E-07  0.462E-03    3.92       3.0  T
   3    -81.7696928  0.135353E-07  0.587E-04    3.92      23.4  T
   4    -81.7696928 -0.198670E-07  0.169E-04    3.92      81.4  T
     SCC iter.                  ...        0 min,  0.058 sec
     gradient                   ...        0 min,  0.038 sec
 * total energy  :   -80.7257993 Eh     change       -0.1532107E-05 Eh
   gradient norm :     0.0002231 Eh/α   predicted    -0.6880342E-06 ( -55.09%)
   displ. norm   :     0.0393962 α      lambda       -0.1037064E-05
   maximum displ.:     0.0218124 α      in ANC's #1, #6, #3, ...

........................................................................
.............................. CYCLE   27 ..............................
........................................................................

 iter      E             dE          RMSdq      gap      omega  full diag
   1    -81.7696867 -0.817697E+02  0.692E-03    3.92       0.0  T
   2    -81.7696867 -0.657067E-08  0.410E-03    3.92       3.3  T
   3    -81.7696867  0.328539E-08  0.371E-04    3.92      37.0  T
   4    -81.7696867 -0.693019E-08  0.132E-04    3.92     104.2  T
     SCC iter.                  ...        0 min,  0.048 sec
     gradient                   ...        0 min,  0.031 sec
 * total energy  :   -80.7258006 Eh     change       -0.1242833E-05 Eh
   gradient norm :     0.0003105 Eh/α   predicted    -0.5231739E-06 ( -57.90%)
   displ. norm   :     0.0397888 α      lambda       -0.1031441E-05
   maximum displ.:     0.0225186 α      in ANC's #1, #6, #3, ...

........................................................................
.............................. CYCLE   28 ..............................
........................................................................

 iter      E             dE          RMSdq      gap      omega  full diag
   1    -81.7697115 -0.817697E+02  0.674E-03    3.92       0.0  T
   2    -81.7697115 -0.469713E-08  0.399E-03    3.92       3.4  T
   3    -81.7697115 -0.939266E-09  0.223E-04    3.92      61.6  T
   4    -81.7697115 -0.152127E-08  0.110E-04    3.92     124.8  T
     SCC iter.                  ...        0 min,  0.049 sec
     gradient                   ...        0 min,  0.030 sec
 * total energy  :   -80.7258018 Eh     change       -0.1240820E-05 Eh
   gradient norm :     0.0003113 Eh/α   predicted    -0.5186590E-06 ( -58.20%)
   displ. norm   :     0.0452054 α      lambda       -0.1085723E-05
   maximum displ.:     0.0262235 α      in ANC's #1, #6, #3, ...

........................................................................
.............................. CYCLE   29 ..............................
........................................................................

 iter      E             dE          RMSdq      gap      omega  full diag
   1    -81.7697611 -0.817698E+02  0.757E-03    3.92       0.0  T
   2    -81.7697611 -0.614084E-08  0.448E-03    3.92       3.1  T
   3    -81.7697611  0.183326E-08  0.324E-04    3.92      42.5  T
   4    -81.7697611 -0.509156E-08  0.127E-04    3.92     108.2  T
     SCC iter.                  ...        0 min,  0.069 sec
     gradient                   ...        0 min,  0.038 sec
 * total energy  :   -80.7258031 Eh     change       -0.1328951E-05 Eh
   gradient norm :     0.0002236 Eh/α   predicted    -0.5452521E-06 ( -58.97%)
   displ. norm   :     0.0505984 α      lambda       -0.1141230E-05
   maximum displ.:     0.0300864 α      in ANC's #1, #6, #3, ...

........................................................................
.............................. CYCLE   30 ..............................
........................................................................

 iter      E             dE          RMSdq      gap      omega  full diag
   1    -81.7698038 -0.817698E+02  0.866E-03    3.92       0.0  T
   2    -81.7698038 -0.816905E-08  0.514E-03    3.92       2.7  T
   3    -81.7698038  0.591962E-08  0.426E-04    3.92      32.2  T
   4    -81.7698038 -0.104666E-07  0.145E-04    3.92      94.7  T
     SCC iter.                  ...        0 min,  0.047 sec
     gradient                   ...        0 min,  0.023 sec
 * total energy  :   -80.7258046 Eh     change       -0.1443974E-05 Eh
   gradient norm :     0.0001799 Eh/α   predicted    -0.5740764E-06 ( -60.24%)
   displ. norm   :     0.0585940 α      lambda       -0.1330687E-05
   maximum displ.:     0.0351052 α      in ANC's #1, #3, #6, ...

........................................................................
.............................. CYCLE   31 ..............................
........................................................................

 iter      E             dE          RMSdq      gap      omega  full diag
   1    -81.7698382 -0.817698E+02  0.101E-02    3.92       0.0  T
   2    -81.7698382 -0.990096E-08  0.598E-03    3.92       2.3  T
   3    -81.7698382  0.799949E-08  0.485E-04    3.92      28.3  T
   4    -81.7698382 -0.138949E-07  0.165E-04    3.92      83.4  T
     SCC iter.                  ...        0 min,  0.063 sec
     gradient                   ...        0 min,  0.031 sec
 * total energy  :   -80.7258063 Eh     change       -0.1682390E-05 Eh
   gradient norm :     0.0002593 Eh/α   predicted    -0.6690537E-06 ( -60.23%)
   displ. norm   :     0.0714901 α      lambda       -0.1532993E-05
   maximum displ.:     0.0429790 α      in ANC's #1, #3, #6, ...

........................................................................
.............................. CYCLE   32 ..............................
........................................................................

 iter      E             dE          RMSdq      gap      omega  full diag
   1    -81.7698223 -0.817698E+02  0.123E-02    3.92       0.0  T
   2    -81.7698223 -0.122392E-07  0.731E-03    3.92       1.9  T
   3    -81.7698223 -0.771550E-09  0.378E-04    3.92      36.3  T
   4    -81.7698223 -0.581680E-08  0.190E-04    3.92      72.4  T
     SCC iter.                  ...        0 min,  0.057 sec
     gradient                   ...        0 min,  0.044 sec
 * total energy  :   -80.7258081 Eh     change       -0.1840625E-05 Eh
   gradient norm :     0.0003090 Eh/α   predicted    -0.7709450E-06 ( -58.12%)
   displ. norm   :     0.0662768 α      lambda       -0.1134781E-05
   maximum displ.:     0.0404386 α      in ANC's #1, #3, #7, ...

........................................................................
.............................. CYCLE   33 ..............................
........................................................................

 iter      E             dE          RMSdq      gap      omega  full diag
   1    -81.7697774 -0.817698E+02  0.115E-02    3.92       0.0  T
   2    -81.7697774 -0.969743E-08  0.682E-03    3.92       2.0  T
   3    -81.7697774 -0.392183E-08  0.265E-04    3.92      51.9  T
   4    -81.7697774 -0.100304E-08  0.158E-04    3.92      86.8  T
     SCC iter.                  ...        0 min,  0.062 sec
     gradient                   ...        0 min,  0.030 sec
 * total energy  :   -80.7258094 Eh     change       -0.1288947E-05 Eh
   gradient norm :     0.0002333 Eh/α   predicted    -0.5699672E-06 ( -55.78%)
   displ. norm   :     0.0386389 α      lambda       -0.5003035E-06
   maximum displ.:     0.0244649 α      in ANC's #1, #3, #7, ...

........................................................................
.............................. CYCLE   34 ..............................
........................................................................

 iter      E             dE          RMSdq      gap      omega  full diag
   1    -81.7697598 -0.817698E+02  0.679E-03    3.92       0.0  T
   2    -81.7697598 -0.363512E-08  0.403E-03    3.92       3.4  T
   3    -81.7697598  0.824230E-11  0.216E-04    3.92      63.6  T
   4    -81.7697598 -0.183853E-08  0.961E-05    3.92     142.9  T
     SCC iter.                  ...        0 min,  0.065 sec
     gradient                   ...        0 min,  0.042 sec
 * total energy  :   -80.7258100 Eh     change       -0.5783159E-06 Eh
   gradient norm :     0.0001133 Eh/α   predicted    -0.2539811E-06 ( -56.08%)
   displ. norm   :     0.0386389 α      lambda        0.0000000E+00
   maximum displ.:     0.0244649 α      in ANC's #1, #3, #7, ...

   *** GEOMETRY OPTIMIZATION CONVERGED AFTER 34 ITERATIONS ***

------------------------------------------------------------------------
 total energy gain   :        -0.0154872 Eh       -9.7183 kcal/mol
 total RMSD          :         0.3291334 a0        0.1742 Å
 total power (kW/mol):        -1.1959275 (step)   -8.5059 (real)
------------------------------------------------------------------------

 ANCopt (total)                0 d,  0 h,  0 min,  4.780 sec
 optimizer setup                ...        0 min,  0.001 sec (  0.014%)
 model hessian                  ...        0 min,  0.072 sec (  1.498%)
 ANC generation                 ...        0 min,  0.009 sec (  0.182%)
 coordinate transformation      ...        0 min,  0.001 sec (  0.024%)
 single point calculation       ...        0 min,  4.586 sec ( 95.935%)
 optimization log               ...        0 min,  0.007 sec (  0.148%)
 hessian update                 ...        0 min,  0.085 sec (  1.783%)
 rational function              ...        0 min,  0.006 sec (  0.116%)

================
 final structure:
================
53
 xtb: 6.7.1 (edcfbbe)
C           -5.68040254336923        1.16539871937373        0.32046208634243
C           -6.75393745188480        1.17090990461321        1.20898055339861
C           -7.15257407688121       -0.04166765218146        1.71262267559053
C           -6.50902273147315       -1.22442928589151        1.34726597801800
C           -5.45323447583686       -1.23082225594152        0.47214825094750
C           -5.03364041336768       -0.00292539087982       -0.05116337872166
C           -3.85811781249701        0.02787633158018       -0.98656080038183
C           -2.53239835327417       -0.11704232992713       -0.22956732524934
C           -2.26072725045426        1.06719565063456        0.69361226060290
C           -0.91331266583258        0.92995509429946        1.39366897866392
O            0.10939714781940        0.97422078952596        0.42765870088905
C            1.39869404827156        0.80562076180400        0.96653569577898
C            2.41397124545233        0.80637304655154       -0.17086076361333
C            2.21393026820582       -0.38961128539547       -1.09720271326210
C            3.18762328619586       -0.37912333584379       -2.28210955201016
C            4.61054159821319       -0.54218368260718       -1.82713774353089
C            5.08764644703531       -1.79791091735568       -1.48010625292967
C            6.38625193868427       -1.99963850284258       -1.02029181816459
C            7.19063758699507       -0.89156190945605       -0.92026284331244
C            6.72312632014629        0.37581328890123       -1.26594201400193
C            5.44313403294746        0.57545592299784       -1.71929117952952
O            7.72235800872657        1.29648729798323       -1.07547253324265
C            8.83384595928284        0.56722957409380       -0.60313998677742
O            8.49582956202077       -0.79865503221039       -0.50542487911519
O           -7.10464529908401       -2.28195111979633        1.98678123941918
C           -8.14578141231452       -1.72806039473804        2.76096424613360
O           -8.16822792045059       -0.32815782269405        2.59026209121630
H           -5.34664962845428        2.10524339108889       -0.09226107864124
H           -7.25243240071030        2.08335212463439        1.48972094273275
H           -4.96907475240057       -2.15267047108295        0.19479408988413
H           -3.85161949710785        0.96584519709601       -1.54347228991712
H           -3.94356254618933       -0.79294988070956       -1.70166856329963
H           -1.71355747521670       -0.19014677710259       -0.94609407946336
H           -2.55233049714603       -1.03613030150436        0.35966322581280
H           -2.25082236553499        1.98820005223364        0.10902010305438
H           -3.04575896097383        1.14251272252416        1.44779632153936
H           -0.86702228343299       -0.02312115560639        1.94599590150160
H           -0.77716036736566        1.74638617672532        2.12203908694782
H            1.45196220987267       -0.14483648380980        1.52273612841686
H            1.61883396176652        1.62132365802126        1.67490411193401
H            2.29149438482868        1.72986258703555       -0.73849239462654
H            3.41929787662646        0.78871196121368        0.25290347036515
H            1.18986500760756       -0.36763654860318       -1.47153592105898
H            2.34926042943905       -1.31221766482801       -0.52888274161537
H            2.92614104286560       -1.19770943180708       -2.95580630068368
H            3.07784014008537        0.55934582408521       -2.82710265127925
H            4.43281394241886       -2.65123823902500       -1.57279432016910
H            6.74925814365793       -2.97860406557449       -0.75616387880737
H            5.09767282672643        1.56089492563804       -1.98435773353574
H            9.67841367809071        0.68923235070058       -1.30092162832230
H            9.12844218565791        0.94621145371778        0.38913357799869
H           -9.11047777805454       -2.15429203535179        2.44013211784904
H           -7.98179232032547       -1.96743804356614        3.82428553025590

 Bond Distances (Angstroems)
 ---------------------------
C1-C2=1.3935         C1-C6=1.3861         C1-H28=1.0794        C2-C1=1.3935         C2-C3=1.3722         C2-H29=1.0770        
C3-C2=1.3722         C3-C4=1.3952         C3-O27=1.3725        C4-C3=1.3952         C4-C5=1.3713         C4-O25=1.3719        
C5-C4=1.3713         C5-C6=1.3992         C5-H30=1.0776        C6-C1=1.3861         C6-C5=1.3992         C6-C7=1.5026         
C7-C6=1.5026         C7-C8=1.5335         C7-H31=1.0909        C7-H32=1.0920        C8-C7=1.5335         C8-C9=1.5259         
C8-H33=1.0905        C8-H34=1.0919        C9-C8=1.5259         C9-C10=1.5246        C9-H35=1.0909        C9-H36=1.0912        
C10-C9=1.5246        C10-O11=1.4075       C10-H37=1.1025       C10-H38=1.1026       O11-C10=1.4075       O11-C12=1.4075       
C12-O11=1.4075       C12-C13=1.5246       C12-H39=1.1025       C12-H40=1.1026       C13-C12=1.5246       C13-C14=1.5259       
C13-H41=1.0909       C13-H42=1.0911       C14-C13=1.5259       C14-C15=1.5337       C14-H43=1.0906       C14-H44=1.0920       
C15-C14=1.5337       C15-C16=1.5028       C15-H45=1.0919       C15-H46=1.0908       C16-C15=1.5028       C16-C17=1.3874       
C16-C21=1.3978       C17-C16=1.3874       C17-C18=1.3923       C17-H47=1.0796       C18-C17=1.3923       C18-C19=1.3729       
C18-H48=1.0770       C19-C18=1.3729       C19-C20=1.3944       C19-O24=1.3727       C20-C19=1.3944       C20-C21=1.3725       
C20-O22=1.3720       C21-C16=1.3978       C21-C20=1.3725       C21-H49=1.0774       O22-C20=1.3720       O22-C23=1.4108       
C23-O22=1.4108       C23-O24=1.4105       C23-H50=1.1023       C23-H51=1.1023       O24-C19=1.3727       O24-C23=1.4105       
O25-C4=1.3719        O25-C26=1.4107       C26-O25=1.4107       C26-O27=1.4105       C26-H52=1.1024       C26-H53=1.1022       
O27-C3=1.3725        O27-C26=1.4105       H28-C1=1.0794        H29-C2=1.0770        H30-C5=1.0776        H31-C7=1.0909        
H32-C7=1.0920        H33-C8=1.0905        H34-C8=1.0919        H35-C9=1.0909        H36-C9=1.0912        H37-C10=1.1025       
H38-C10=1.1026       H39-C12=1.1025       H40-C12=1.1026       H41-C13=1.0909       H42-C13=1.0911       H43-C14=1.0906       
H44-C14=1.0920       H45-C15=1.0919       H46-C15=1.0908       H47-C17=1.0796       H48-C18=1.0770       H49-C21=1.0774       
H50-C23=1.1023       H51-C23=1.1023       H52-C26=1.1024       H53-C26=1.1022       
 C  H  Rav=1.0916 sigma=0.0089  Rmin=1.0770  Rmax=1.1026    26
 C  C  Rav=1.4404 sigma=0.0673  Rmin=1.3713  Rmax=1.5337    20
 O  C  Rav=1.3947 sigma=0.0183  Rmin=1.3719  Rmax=1.4108    10

 selected bond angles (degree)
 --------------------
C6-C1-C2=122.26                H28-C1-C2=118.59               H28-C1-C6=119.15               C3-C2-C1=117.02                
H29-C2-C1=121.74               H29-C2-C3=121.23               C4-C3-C2=121.27                O27-C3-C2=129.35               
O27-C3-C4=109.38               C5-C4-C3=121.75                O25-C4-C3=109.34               O25-C4-C5=128.91               
C6-C5-C4=117.74                H30-C5-C4=120.94               H30-C5-C6=121.32               C5-C6-C1=119.97                
C7-C6-C1=120.97                C7-C6-C5=119.04                C8-C7-C6=111.54                H31-C7-C6=109.88               
H31-C7-C8=109.15               H32-C7-C6=109.33               H32-C7-C8=108.66               H32-C7-H31=108.21              
C9-C8-C7=112.29                H33-C8-C7=109.34               H33-C8-C9=108.41               H34-C8-C7=109.28               
H34-C8-C9=109.27               H34-C8-H33=108.17              C10-C9-C8=111.42               H35-C9-C8=109.43               
H35-C9-C10=108.30              H36-C9-C8=110.10               H36-C9-C10=108.94              H36-C9-H35=108.58              
O11-C10-C9=108.92              H37-C10-C9=110.18              H37-C10-O11=109.91             H38-C10-C9=110.23              
H38-C10-O11=109.90             H38-C10-H37=107.70             

 selected dihedral angles (degree)
 ---------------------------------
C3-C2-C1-C6=  0.11            C3-C2-C1-H28=179.92           H29-C2-C1-C6=180.19           H29-C2-C1-H28=  0.00          
C4-C3-C2-C1=359.95            C4-C3-C2-H29=179.87           O27-C3-C2-C1=180.19           O27-C3-C2-H29=  0.11          
C5-C4-C3-C2=  0.00            C5-C4-C3-O27=179.80           O25-C4-C3-C2=180.19           O25-C4-C3-O27=  0.00          
C6-C5-C4-C3=  0.00            C6-C5-C4-O25=179.77           H30-C5-C4-C3=180.33           H30-C5-C4-O25=  0.11          
C5-C6-C1-C2=359.88            C5-C6-C1-H28=180.08           C7-C6-C1-C2=181.45            C7-C6-C1-H28=  1.65           
C1-C6-C5-C4=  0.06            C1-C6-C5-H30=179.72           C7-C6-C5-C4=178.52            C7-C6-C5-H30=358.18           
C8-C7-C6-C1=101.70            C8-C7-C6-C5=283.26            H31-C7-C6-C1=340.51           H31-C7-C6-C5=162.07           
H32-C7-C6-C1=221.89           H32-C7-C6-C5= 43.45           C9-C8-C7-C6=294.77            C9-C8-C7-H31= 56.38           
C9-C8-C7-H32=174.18           H33-C8-C7-C6=174.40           H33-C8-C7-H31=296.01          H33-C8-C7-H32= 53.81          
H34-C8-C7-C6= 56.18           H34-C8-C7-H31=177.79          H34-C8-C7-H32=295.59          C10-C9-C8-C7=182.27           
C10-C9-C8-H33=303.17          C10-C9-C8-H34= 60.86          H35-C9-C8-C7=302.01           H35-C9-C8-H33= 62.92          
H35-C9-C8-H34=180.60          H36-C9-C8-C7= 61.28           H36-C9-C8-H33=182.18          H36-C9-C8-H34=299.86          
O11-C10-C9-C8= 64.45          O11-C10-C9-H35=304.04         O11-C10-C9-H36=186.11         H37-C10-C9-C8=303.82          
H37-C10-C9-H35=183.41         H37-C10-C9-H36= 65.49         H38-C10-C9-C8=185.10          H38-C10-C9-H35= 64.69         
H38-C10-C9-H36=306.76         
           -------------------------------------------------
          |                Final Singlepoint                |
           -------------------------------------------------

          ...................................................
          :                      SETUP                      :
          :.................................................:
          :  # basis functions                 134          :
          :  # atomic orbitals                 134          :
          :  # shells                           80          :
          :  # electrons                       144          :
          :  max. iterations                   250          :
          :  Hamiltonian                  GFN2-xTB          :
          :  restarted?                      false          :
          :  GBSA solvation                  false          :
          :  PC potential                    false          :
          :  electronic temp.          300.0000000     K    :
          :  accuracy                    1.0000000          :
          :  -> integral cutoff          0.2500000E+02      :
          :  -> integral neglect         0.1000000E-07      :
          :  -> SCF convergence          0.1000000E-05 Eh   :
          :  -> wf. convergence          0.1000000E-03 e    :
          :  Broyden damping             0.4000000          :
          :  net charge                          0          :
          :  unpaired electrons                  0          :
          ...................................................

 iter      E             dE          RMSdq      gap      omega  full diag
   1    -81.7697598 -0.817698E+02  0.370E-05    3.92       0.0  T
   2    -81.7697598 -0.166409E-10  0.230E-05    3.92     597.4  T
   3    -81.7697598 -0.788702E-11  0.147E-05    3.92     933.3  T

   *** convergence criteria satisfied after 3 iterations ***

         #    Occupation            Energy/Eh            Energy/eV
      -------------------------------------------------------------
         1        2.0000           -0.7452033             -20.2780
       ...           ...                  ...                  ...
        66        2.0000           -0.4257947             -11.5865
        67        2.0000           -0.4238836             -11.5345
        68        2.0000           -0.4032907             -10.9741
        69        2.0000           -0.4027463             -10.9593
        70        2.0000           -0.3943190             -10.7300
        71        2.0000           -0.3699461             -10.0667
        72        2.0000           -0.3695517             -10.0560 (HOMO)
        73                         -0.2254499              -6.1348 (LUMO)
        74                         -0.2249970              -6.1225
        75                         -0.2187049              -5.9513
        76                         -0.2182051              -5.9377
        77                         -0.0944357              -2.5697
       ...                                ...                  ...
       134                          0.6847501              18.6330
      -------------------------------------------------------------
                  HL-Gap            0.1441018 Eh            3.9212 eV
             Fermi-level           -0.2975008 Eh           -8.0954 eV

 SCC (total)                   0 d,  0 h,  0 min,  0.123 sec
 SCC setup                      ...        0 min,  0.001 sec (  1.094%)
 Dispersion                     ...        0 min,  0.005 sec (  4.133%)
 classical contributions        ...        0 min,  0.003 sec (  2.406%)
 integral evaluation            ...        0 min,  0.012 sec (  9.558%)
 iterations                     ...        0 min,  0.056 sec ( 45.872%)
 molecular gradient             ...        0 min,  0.045 sec ( 36.602%)
 printout                       ...        0 min,  0.000 sec (  0.303%)

         :::::::::::::::::::::::::::::::::::::::::::::::::::::
         ::                     SUMMARY                     ::
         :::::::::::::::::::::::::::::::::::::::::::::::::::::
         :: total energy             -80.725809968999 Eh    ::
         :: gradient norm              0.000113678307 Eh/a0 ::
         :: HOMO-LUMO gap              3.921209453182 eV    ::
         ::.................................................::
         :: SCC energy               -81.769730967257 Eh    ::
         :: -> isotropic ES            0.084429689356 Eh    ::
         :: -> anisotropic ES          0.007790846327 Eh    ::
         :: -> anisotropic XC          0.015820794912 Eh    ::
         :: -> dispersion             -0.049863271097 Eh    ::
         :: repulsion energy           1.043920998257 Eh    ::
         :: add. restraining           0.000000000000 Eh    ::
         :: total charge               0.000000000000 e     ::
         :::::::::::::::::::::::::::::::::::::::::::::::::::::

           -------------------------------------------------
          |                Property Printout                |
           -------------------------------------------------

    * Orbital Energies and Occupations

         #    Occupation            Energy/Eh            Energy/eV
      -------------------------------------------------------------
         1        2.0000           -0.7452033             -20.2780
       ...           ...                  ...                  ...
        60        2.0000           -0.4408488             -11.9961
        61        2.0000           -0.4361637             -11.8686
        62        2.0000           -0.4341862             -11.8148
        63        2.0000           -0.4323820             -11.7657
        64        2.0000           -0.4314482             -11.7403
        65        2.0000           -0.4291754             -11.6785
        66        2.0000           -0.4257947             -11.5865
        67        2.0000           -0.4238836             -11.5345
        68        2.0000           -0.4032907             -10.9741
        69        2.0000           -0.4027463             -10.9593
        70        2.0000           -0.3943190             -10.7300
        71        2.0000           -0.3699461             -10.0667
        72        2.0000           -0.3695517             -10.0560 (HOMO)
        73                         -0.2254499              -6.1348 (LUMO)
        74                         -0.2249970              -6.1225
        75                         -0.2187049              -5.9513
        76                         -0.2182051              -5.9377
        77                         -0.0944357              -2.5697
        78                         -0.0943485              -2.5674
        79                         -0.0029377              -0.0799
        80                         -0.0028897              -0.0786
        81                          0.0270114               0.7350
        82                          0.0559662               1.5229
        83                          0.0565310               1.5383
       ...                                ...                  ...
       134                          0.6847501              18.6330
      -------------------------------------------------------------
                  HL-Gap            0.1441018 Eh            3.9212 eV
             Fermi-level           -0.2975008 Eh           -8.0954 eV

     #   Z          covCN         q      C6AA      α(0)
     1   6 C        2.932    -0.051    29.271     8.873
     2   6 C        2.911    -0.060    29.497     8.906
     3   6 C        2.981     0.120    25.361     8.261
     4   6 C        2.977     0.122    25.309     8.252
     5   6 C        2.918    -0.066    29.654     8.930
     6   6 C        2.975     0.008    27.834     8.654
     7   6 C        3.809    -0.066    21.761     6.640
     8   6 C        3.804    -0.057    21.590     6.615
     9   6 C        3.802    -0.063    21.713     6.634
    10   6 C        3.703     0.088    19.258     6.274
    11   8 O        1.702    -0.317    19.288     5.930
    12   6 C        3.703     0.088    19.259     6.274
    13   6 C        3.802    -0.063    21.708     6.633
    14   6 C        3.804    -0.057    21.591     6.615
    15   6 C        3.809    -0.066    21.762     6.641
    16   6 C        2.975     0.008    27.834     8.654
    17   6 C        2.933    -0.050    29.248     8.869
    18   6 C        2.911    -0.060    29.486     8.904
    19   6 C        2.981     0.120    25.364     8.261
    20   6 C        2.977     0.122    25.317     8.253
    21   6 C        2.917    -0.067    29.672     8.933
    22   8 O        1.710    -0.287    18.767     5.849
    23   6 C        3.784     0.224    17.125     5.895
    24   8 O        1.709    -0.288    18.780     5.851
    25   8 O        1.710    -0.287    18.765     5.849
    26   6 C        3.783     0.224    17.125     5.895
    27   8 O        1.709    -0.288    18.778     5.851
    28   1 H        0.926     0.046     2.369     2.407
    29   1 H        0.926     0.054     2.276     2.359
    30   1 H        0.926     0.054     2.266     2.354
    31   1 H        0.924     0.044     2.398     2.421
    32   1 H        0.924     0.045     2.382     2.414
    33   1 H        0.924     0.052     2.293     2.368
    34   1 H        0.924     0.037     2.495     2.470
    35   1 H        0.924     0.051     2.305     2.374
    36   1 H        0.924     0.038     2.477     2.461
    37   1 H        0.923     0.014     2.827     2.629
    38   1 H        0.923     0.014     2.827     2.629
    39   1 H        0.923     0.014     2.829     2.630
    40   1 H        0.923     0.014     2.825     2.629
    41   1 H        0.924     0.051     2.302     2.373
    42   1 H        0.924     0.038     2.479     2.462
    43   1 H        0.924     0.052     2.292     2.368
    44   1 H        0.924     0.036     2.499     2.472
    45   1 H        0.924     0.045     2.387     2.416
    46   1 H        0.924     0.044     2.392     2.419
    47   1 H        0.926     0.046     2.368     2.407
    48   1 H        0.926     0.054     2.276     2.359
    49   1 H        0.926     0.054     2.264     2.353
    50   1 H        0.923     0.043     2.415     2.430
    51   1 H        0.923     0.042     2.416     2.431
    52   1 H        0.923     0.043     2.416     2.431
    53   1 H        0.923     0.043     2.414     2.430

 Mol. C6AA /au·bohr⁶  :      28959.862684
 Mol. C8AA /au·bohr⁸  :     670895.647030
 Mol. α(0) /au        :        260.691687


Wiberg/Mayer (AO) data.
largest (>0.10) Wiberg bond orders for each atom

 ---------------------------------------------------------------------------
     #   Z sym  total        # sym  WBO       # sym  WBO       # sym  WBO
 ---------------------------------------------------------------------------
     1   6 C    3.989 --     6 C    1.443     2 C    1.398    28 H    0.968
     2   6 C    3.984 --     3 C    1.423     1 C    1.398    29 H    0.968
     3   6 C    3.923 --     2 C    1.423     4 C    1.291    27 O    1.021
     4   6 C    3.924 --     5 C    1.429     3 C    1.291    25 O    1.023
     5   6 C    3.983 --     4 C    1.429     6 C    1.368    30 H    0.966
     6   6 C    3.988 --     1 C    1.443     5 C    1.368     7 C    1.014
     7   6 C    3.996 --     6 C    1.014     8 C    0.989    31 H    0.974
                            32 H    0.969
     8   6 C    3.994 --     9 C    1.009     7 C    0.989    34 H    0.977
                            33 H    0.974
     9   6 C    3.995 --     8 C    1.009    10 C    1.002    35 H    0.975
                            36 H    0.975
    10   6 C    3.957 --     9 C    1.002    11 O    0.984    38 H    0.967
                            37 H    0.966
    11   8 O    2.072 --    10 C    0.984    12 C    0.984
    12   6 C    3.957 --    13 C    1.002    11 O    0.984    40 H    0.967
                            39 H    0.966
    13   6 C    3.995 --    14 C    1.009    12 C    1.002    41 H    0.975
                            42 H    0.975
    14   6 C    3.994 --    13 C    1.009    15 C    0.988    44 H    0.977
                            43 H    0.974
    15   6 C    3.996 --    16 C    1.014    14 C    0.988    46 H    0.974
                            45 H    0.970
    16   6 C    3.988 --    17 C    1.438    21 C    1.373    15 C    1.014
    17   6 C    3.989 --    16 C    1.438    18 C    1.404    47 H    0.968
    18   6 C    3.984 --    19 C    1.418    17 C    1.404    48 H    0.968
    19   6 C    3.923 --    18 C    1.418    20 C    1.295    24 O    1.021
    20   6 C    3.924 --    21 C    1.423    19 C    1.295    22 O    1.023
    21   6 C    3.982 --    20 C    1.423    16 C    1.373    49 H    0.966
    22   8 O    2.197 --    20 C    1.023    23 C    0.980
    23   6 C    3.923 --    24 O    0.981    22 O    0.980    51 H    0.962
                            50 H    0.961
    24   8 O    2.193 --    19 C    1.021    23 C    0.981
    25   8 O    2.197 --     4 C    1.023    26 C    0.980
    26   6 C    3.923 --    27 O    0.981    25 O    0.980    53 H    0.962
                            52 H    0.961
    27   8 O    2.193 --     3 C    1.021    26 C    0.981
    28   1 H    0.997 --     1 C    0.968
    29   1 H    0.997 --     2 C    0.968
    30   1 H    0.997 --     5 C    0.966
    31   1 H    0.998 --     7 C    0.974
    32   1 H    0.997 --     7 C    0.969
    33   1 H    0.996 --     8 C    0.974
    34   1 H    0.999 --     8 C    0.977
    35   1 H    0.997 --     9 C    0.975
    36   1 H    0.998 --     9 C    0.975
    37   1 H    1.000 --    10 C    0.966
    38   1 H    1.000 --    10 C    0.967
    39   1 H    1.000 --    12 C    0.966
    40   1 H    1.000 --    12 C    0.967
    41   1 H    0.997 --    13 C    0.975
    42   1 H    0.998 --    13 C    0.975
    43   1 H    0.996 --    14 C    0.974
    44   1 H    0.999 --    14 C    0.977
    45   1 H    0.997 --    15 C    0.970
    46   1 H    0.998 --    15 C    0.974
    47   1 H    0.997 --    17 C    0.968
    48   1 H    0.997 --    18 C    0.968
    49   1 H    0.997 --    21 C    0.966
    50   1 H    0.998 --    23 C    0.961
    51   1 H    0.998 --    23 C    0.962
    52   1 H    0.998 --    26 C    0.961
    53   1 H    0.998 --    26 C    0.962
 ---------------------------------------------------------------------------

Topologies differ in total number of bonds
Writing topology from bond orders to xtbtopo.mol

molecular dipole:
                 x           y           z       tot (Debye)
 q only:       -0.085      -0.021      -0.251
   full:        0.015      -0.059       0.185       0.496
molecular quadrupole (traceless):
                xx          xy          yy          xz          yz          zz
 q only:      -12.166       0.261       4.392       4.248       0.773       7.774
  q+dip:       -7.797       3.384       3.917       2.354      -0.485       3.880
   full:       -6.609       3.804       0.966       2.499       0.271       5.643

           -------------------------------------------------
          |                Geometry Summary                 |
           -------------------------------------------------

      molecular mass/u    :      370.4396739
   center of mass at/Å    :        0.0188107      -0.1390534       0.0560657
  moments of inertia/u·Å² :        0.7352341E+03   0.1296713E+05   0.1312114E+05
rotational constants/cm⁻¹ :        0.2292825E-01   0.1300028E-02   0.1284769E-02

 * 54 selected distances

     #   Z          #   Z                                           value/Å
     1   6 C        2   6 C                                       1.3935469
     2   6 C        3   6 C                                       1.3721921
     3   6 C        4   6 C                                       1.3951951
     4   6 C        5   6 C                                       1.3713355
     1   6 C        6   6 C                                       1.3861415
     5   6 C        6   6 C                                       1.3991588
     7   6 C        8   6 C                                       1.5334840
     8   6 C        9   6 C                                       1.5259377
     9   6 C       10   6 C                                       1.5246117
    10   6 C       11   8 O                                       1.4075053
    11   8 O       12   6 C                                       1.4075160
    12   6 C       13   6 C                                       1.5246178
    13   6 C       14   6 C                                       1.5259439
    14   6 C       15   6 C                                       1.5336860 (max)
    16   6 C       17   6 C                                       1.3874117
    17   6 C       18   6 C                                       1.3923002
    18   6 C       19   6 C                                       1.3729079
    19   6 C       20   6 C                                       1.3943820
    16   6 C       21   6 C                                       1.3978411
    20   6 C       21   6 C                                       1.3725026
    20   6 C       22   8 O                                       1.3719998
    22   8 O       23   6 C                                       1.4107873
    19   6 C       24   8 O                                       1.3726794
    23   6 C       24   8 O                                       1.4104767
     4   6 C       25   8 O                                       1.3718961
    25   8 O       26   6 C                                       1.4107158
     3   6 C       27   8 O                                       1.3725453
    26   6 C       27   8 O                                       1.4104505
     1   6 C       28   1 H                                       1.0793700
     2   6 C       29   1 H                                       1.0769695 (min)
     5   6 C       30   1 H                                       1.0775622
     7   6 C       31   1 H                                       1.0908613
     7   6 C       32   1 H                                       1.0919871
     8   6 C       33   1 H                                       1.0905299
     8   6 C       34   1 H                                       1.0919308
     9   6 C       35   1 H                                       1.0909149
     9   6 C       36   1 H                                       1.0912109
    10   6 C       37   1 H                                       1.1025255
    10   6 C       38   1 H                                       1.1025518
    12   6 C       39   1 H                                       1.1025269
    12   6 C       40   1 H                                       1.1025511
    13   6 C       41   1 H                                       1.0908893
    13   6 C       42   1 H                                       1.0911324
    14   6 C       43   1 H                                       1.0905586
    14   6 C       44   1 H                                       1.0920186
    15   6 C       45   1 H                                       1.0919358
    15   6 C       46   1 H                                       1.0907770
    17   6 C       47   1 H                                       1.0796131
    18   6 C       48   1 H                                       1.0769916
    21   6 C       49   1 H                                       1.0773551
    23   6 C       50   1 H                                       1.1023061
    23   6 C       51   1 H                                       1.1022800
    26   6 C       52   1 H                                       1.1023820
    26   6 C       53   1 H                                       1.1022007

 * 3 distinct bonds (by element types)

   Z      Z             #   av. dist./Å        max./Å        min./Å
   1 H    6 C          26     1.0916128     1.1025518     1.0769695
   6 C    6 C          18     1.4335109     1.5336860     1.3713355
   6 C    8 O          10     1.3946572     1.4107873     1.3718961


optimized geometry written to: xtbopt.xyz


           -------------------------------------------------
          | TOTAL ENERGY              -80.725809968999 Eh   |
          | GRADIENT NORM               0.000113678307 Eh/α |
          | HOMO-LUMO GAP               3.921209453182 eV   |
           -------------------------------------------------

------------------------------------------------------------------------
 * finished run on 2026/07/06 at 18:37:17.313     
------------------------------------------------------------------------
 total:
 * wall-time:     0 d,  0 h,  0 min,  5.307 sec
 *  cpu-time:     0 d,  0 h,  1 min, 24.491 sec
 * ratio c/w:    15.921 speedup
 SCF:
 * wall-time:     0 d,  0 h,  0 min,  0.332 sec
 *  cpu-time:     0 d,  0 h,  0 min,  5.280 sec
 * ratio c/w:    15.903 speedup
 ANC optimizer:
 * wall-time:     0 d,  0 h,  0 min,  4.915 sec
 *  cpu-time:     0 d,  0 h,  1 min, 18.299 sec
 * ratio c/w:    15.931 speedup

