36
REP_00064 MMFF geometry for GFN2-xTB preoptimization
C  -3.726468427596 -1.009618350871  1.932900118119
C  -2.755501573517  0.150257142564  1.776770525838
N  -2.336556231817  0.320797220881  0.385243924962
C  -3.129445720701  1.231474166330 -0.442689931770
C  -2.669403639440  2.674240166550 -0.299869188504
C  -1.214017396750 -0.375899232489 -0.051898293770
O  -0.596954982479 -1.148971072064  0.683096342467
C  -0.792635342158 -0.178107740657 -1.500765582138
C   0.556252253149 -0.829681095404 -1.791015193797
C   1.673896545249 -0.089473797055 -1.096941938395
O   1.641460946108  1.095887379429 -0.794355227495
O   2.735809460497 -0.922371162097 -0.914515636542
C   3.870549474852 -0.360094009194 -0.230983935041
C   3.640243591458 -0.418138672315  1.275168843552
C   5.087256543146 -1.189916056583 -0.622318570975
H  -4.630219384094 -0.850380276426  1.335929513855
H  -4.023393055382 -1.118433639483  2.980483418004
H  -3.272873723498 -1.950962000545  1.605969677064
H  -3.214593106699  1.080204337299  2.129239903923
H  -1.875494638808 -0.029680563990  2.404551937943
H  -3.069221841994  0.932899378786 -1.492759251448
H  -4.181726308692  1.140127537170 -0.150902286624
H  -2.775526148215  3.022867058850  0.732361280868
H  -3.267259588138  3.328194123930 -0.942087027690
H  -1.617483257523  2.786999401242 -0.580017201522
H  -0.749913922732  0.889633925545 -1.734988779687
H  -1.551685484136 -0.648409848501 -2.135922563964
H   0.759840124870 -0.803268009052 -2.866867285585
H   0.553553386865 -1.876277248681 -1.466103408526
H   4.038500842497  0.674697556324 -0.553382903922
H   4.509665819164 -0.042663297361  1.823473339309
H   2.769046608804  0.180358385820  1.560773997222
H   3.435249000659 -1.444129028436  1.600397775802
H   4.949489414642 -2.242829658068 -0.352164234352
H   5.234314574249 -1.160836952213 -1.707461390530
H   5.995245188158 -0.818496069237 -0.137581433928
