36
 energy: -49.438203725142 gnorm: 0.000194796390 xtb: 6.7.1 (edcfbbe)
C           -3.64686774203475       -0.91292956427910        1.99757875038274
C           -2.49203513295274        0.05636924242508        1.76121740693747
N           -2.20204376412929        0.21065242029611        0.34599286726793
C           -2.95842112685842        1.21742460592518       -0.36604627262350
C           -2.29561378340671        2.59417710053513       -0.28408996570706
C           -1.17910198686453       -0.50220768465336       -0.17837199122198
O           -0.52730857110985       -1.27883331712906        0.49614987115372
C           -0.89277103227208       -0.31541154558803       -1.66620535607033
C            0.49349559876743       -0.87266895666335       -1.97404204873584
C            1.52057290294598       -0.09817629029266       -1.17098478101863
O            1.37976017759734        1.04577628573239       -0.81699683317082
O            2.59972243791147       -0.83374779641672       -0.93812168402583
C            3.63663218160544       -0.26016679460184       -0.12369967486724
C            3.30295141259483       -0.49404541778113        1.34534698032109
C            4.94660022767771       -0.91819973302082       -0.53153338676188
H           -4.55532264613848       -0.56624547614859        1.50900105666862
H           -3.84001419936569       -1.00608248548724        3.06279916249474
H           -3.39077246654035       -1.89228372332858        1.60227216437079
H           -2.72362021389288        1.03726344044305        2.18341584174171
H           -1.58900846222232       -0.33195565512534        2.23690956196414
H           -3.08211108236556        0.91843115810987       -1.40833762195647
H           -3.95510288141598        1.26485713515541        0.08148803757521
H           -2.29013978334547        2.95321691514198        0.74201310332983
H           -2.83926187384838        3.30805980201017       -0.89739062501894
H           -1.26484341746141        2.54444398323510       -0.62576988537373
H           -0.90975554672020        0.74104600659285       -1.92686972324115
H           -1.65400202613290       -0.84288991932384       -2.24534662681334
H            0.72655921554164       -0.76428491333440       -3.03515816650673
H            0.56683245965117       -1.92380055636066       -1.69909837173691
H            3.66600667981801        0.81860772461148       -0.32746136742820
H            4.06202190426084       -0.04121212115694        1.97711740381851
H            2.33678303382051       -0.05277370441496        1.57723672961511
H            3.25284659446691       -1.56090939081082        1.54854396071407
H            4.89089344844681       -1.98899988456700       -0.35430762300313
H            5.14272891139073       -0.75015000817357       -1.58737205312586
H            5.76371055258106       -0.50235088155595        0.05089049277568
