26
REP_00360 MMFF geometry for GFN2-xTB preoptimization
C   2.768635645507  0.890317428696 -0.023565373249
C   1.546116742379  0.041143855090 -0.115742804069
C   1.370508348974 -0.982206230958 -0.976412947847
C   0.073107244491 -1.765554239033 -0.996332813969
C  -0.881635651712 -1.196326367283  0.075171317297
C  -0.121976464557 -1.042402027604  1.434745134583
C   0.395331204960  0.310589450346  0.822063745702
C  -1.022626632565  0.389379952989  0.096330775303
C  -2.168047018616  0.932496919321  0.973917747867
C  -1.102545083117  1.108414027888 -1.256798627866
H   3.527796894952  0.589908534430 -0.752923601319
H   3.210752145794  0.813158721864  0.974722090614
H   2.516837748157  1.938819705561 -0.211503430750
H   2.143339109205 -1.259688008371 -1.686935343540
H   0.281264343647 -2.821364984471 -0.791343358957
H  -0.386366099178 -1.699189273648 -1.988037081670
H  -1.823174878709 -1.752151013984  0.129865043278
H   0.632115890998 -1.803922600112  1.663983642423
H  -0.751335436857 -0.949104173965  2.325449447058
H   0.603424457990  1.101620007145  1.548953529244
H  -3.137221470730  0.741608064778  0.499546014056
H  -2.206362925358  0.487705611598  1.971052275085
H  -2.065331166909  2.015027369947  1.109581539395
H  -2.074225884197  0.927843542143 -1.730221826561
H  -0.339670496542  0.793716863153 -1.971828489360
H  -0.988710568007  2.190158864480 -1.123736602748
