      -----------------------------------------------------------      
     |                   =====================                   |     
     |                           x T B                           |     
     |                   =====================                   |     
     |                         S. Grimme                         |     
     |          Mulliken Center for Theoretical Chemistry        |     
     |                    University of Bonn                     |     
      -----------------------------------------------------------      

   * xtb version 6.7.1 (edcfbbe) compiled by 'conda@5dfe00f5fb80' on 2026-06-10

   xtb is free software: you can redistribute it and/or modify it under
   the terms of the GNU Lesser General Public License as published by
   the Free Software Foundation, either version 3 of the License, or
   (at your option) any later version.
   
   xtb is distributed in the hope that it will be useful,
   but WITHOUT ANY WARRANTY; without even the implied warranty of
   MERCHANTABILITY or FITNESS FOR A PARTICULAR PURPOSE.  See the
   GNU Lesser General Public License for more details.
   
   Cite this work as:
   * C. Bannwarth, E. Caldeweyher, S. Ehlert, A. Hansen, P. Pracht,
     J. Seibert, S. Spicher, S. Grimme, WIREs Comput. Mol. Sci., 2020, 11,
     e01493. DOI: 10.1002/wcms.1493
   
   for GFN2-xTB:
   * C. Bannwarth, S. Ehlert and S. Grimme., J. Chem. Theory Comput., 2019,
     15, 1652-1671. DOI: 10.1021/acs.jctc.8b01176
   for GFN1-xTB:
   * S. Grimme, C. Bannwarth, P. Shushkov, J. Chem. Theory Comput., 2017,
     13, 1989-2009. DOI: 10.1021/acs.jctc.7b00118
   for GFN0-xTB:
   * P. Pracht, E. Caldeweyher, S. Ehlert, S. Grimme, ChemRxiv, 2019, preprint.
     DOI: 10.26434/chemrxiv.8326202.v1
   for GFN-FF:
   * S. Spicher and S. Grimme, Angew. Chem. Int. Ed., 2020, 59, 15665-15673.
     DOI: 10.1002/anie.202004239
   
   for ALPB and GBSA implicit solvation:
   * S. Ehlert, M. Stahn, S. Spicher, S. Grimme, J. Chem. Theory Comput.,
     2021, 17, 4250-4261. DOI: 10.1021/acs.jctc.1c00471
   
   for ddCOSMO and CPCM-X implicit solvation:
   * M. Stahn, S. Ehlert, S. Grimme, J. Phys. Chem. A,
     2023, XX, XXXX-XXXX. DOI: 10.1021/acs.jpca.3c04382
   
   for DFT-D4:
   * E. Caldeweyher, C. Bannwarth and S. Grimme, J. Chem. Phys., 2017,
     147, 034112. DOI: 10.1063/1.4993215
   * E. Caldeweyher, S. Ehlert, A. Hansen, H. Neugebauer, S. Spicher,
     C. Bannwarth and S. Grimme, J. Chem. Phys., 2019, 150, 154122.
     DOI: 10.1063/1.5090222
   * E. Caldeweyher, J.-M. Mewes, S. Ehlert and S. Grimme, Phys. Chem. Chem. Phys.
     2020, 22, 8499-8512. DOI: 10.1039/D0CP00502A
   
   for sTDA-xTB:
   * S. Grimme and C. Bannwarth, J. Chem. Phys., 2016, 145, 054103.
     DOI: 10.1063/1.4959605
   
   in the mass-spec context:
   * V. Asgeirsson, C. Bauer and S. Grimme, Chem. Sci., 2017, 8, 4879.
     DOI: 10.1039/c7sc00601b
   * J. Koopman and S. Grimme, ACS Omega 2019, 4, 12, 15120-15133.
     DOI: 10.1021/acsomega.9b02011
   
   for metadynamics refer to:
   * S. Grimme, J. Chem. Theory Comput., 2019, 155, 2847-2862
     DOI: 10.1021/acs.jctc.9b00143
   
   for SPH calculations refer to:
   * S. Spicher and S. Grimme, J. Chem. Theory Comput., 2021, 17, 1701-1714
     DOI: 10.1021/acs.jctc.0c01306
   
   for ONIOM refer to:
   * C. Plett, A. Katbashev, S. Ehlert, S. Grimme, M. Bursch,
     Phys. Chem. Chem. Phys., 2023, 25, 17860-17868. DOI: 10.1039/D3CP02178E
   
   for DIPRO refer to:
   * J. Kohn, N. Gildemeister, S. Grimme, D. Fazzi, A. Hansen,
     J. Chem. Phys., 2023, just accepted.
   
   for PTB refer to:
   * S. Grimme, M. Mueller, A. Hansen, J. Chem. Phys., 2023, 158, 124111.
     DOI: 10.1063/5.0137838
   
   with help from (in alphabetical order)
   P. Atkinson, C. Bannwarth, F. Bohle, G. Brandenburg, E. Caldeweyher
   M. Checinski, S. Dohm, S. Ehlert, S. Ehrlich, I. Gerasimov, C. Hölzer
   A. Katbashev, J. Kohn, J. Koopman, C. Lavigne, S. Lehtola, F. März, M. Müller,
   F. Musil, H. Neugebauer, J. Pisarek, C. Plett, P. Pracht, F. Pultar,
   J. Seibert, P. Shushkov, S. Spicher, M. Stahn, M. Steiner, T. Strunk,
   J. Stückrath, T. Rose, and J. Unsleber
   
 * started run on 2026/07/07 at 02:45:27.940     
   ID    Z sym.   atoms
    1    6 C      1-4, 6, 8-10, 12-15
    2    8 O      5, 7, 11, 16
    3    1 H      17-34

           -------------------------------------------------
          |                Calculation Setup                |
           -------------------------------------------------

          program call               : /home/ws/xd2484/miniforge3/envs/p3z_dft/bin/xtb xtb_input.xyz --gfn 2 --opt tight --cycles 500 --chrg 0 --uhf 0
          hostname                   : gpu10
          coordinate file            : xtb_input.xyz
          omp threads                :                    16


           -------------------------------------------------
          |                 G F N 2 - x T B                 |
           -------------------------------------------------

        Reference                      10.1021/acs.jctc.8b01176
      * Hamiltonian:
        H0-scaling (s, p, d)           1.850000    2.230000    2.230000
        zeta-weighting                 0.500000
      * Dispersion:
        s8                             2.700000
        a1                             0.520000
        a2                             5.000000
        s9                             5.000000
      * Repulsion:
        kExp                           1.500000    1.000000
        rExp                           1.000000
      * Coulomb:
        alpha                          2.000000
        third order                    shell-resolved
        anisotropic                    true
        a3                             3.000000
        a5                             4.000000
        cn-shift                       1.200000
        cn-exp                         4.000000
        max-rad                        5.000000


          ...................................................
          :                      SETUP                      :
          :.................................................:
          :  # basis functions                  82          :
          :  # atomic orbitals                  82          :
          :  # shells                           50          :
          :  # electrons                        90          :
          :  max. iterations                   250          :
          :  Hamiltonian                  GFN2-xTB          :
          :  restarted?                      false          :
          :  GBSA solvation                  false          :
          :  PC potential                    false          :
          :  electronic temp.          300.0000000     K    :
          :  accuracy                    1.0000000          :
          :  -> integral cutoff          0.2500000E+02      :
          :  -> integral neglect         0.1000000E-07      :
          :  -> SCF convergence          0.1000000E-05 Eh   :
          :  -> wf. convergence          0.1000000E-03 e    :
          :  Broyden damping             0.4000000          :
          :  net charge                          0          :
          :  unpaired electrons                  0          :
          ...................................................

 iter      E             dE          RMSdq      gap      omega  full diag
   1    -51.5881220 -0.515881E+02  0.417E+00    2.97       0.0  T
   2    -51.6891155 -0.100993E+00  0.231E+00    2.08       1.0  T
   3    -51.6918613 -0.274587E-02  0.143E+00    2.70       1.0  T
   4    -51.7082227 -0.163614E-01  0.556E-01    2.33       1.0  T
   5    -51.7143737 -0.615100E-02  0.128E-01    2.38       1.0  T
   6    -51.7147401 -0.366359E-03  0.573E-02    2.39       1.0  T
   7    -51.7147472 -0.708516E-05  0.207E-02    2.39       1.0  T
   8    -51.7147520 -0.487080E-05  0.741E-03    2.39       2.3  T
   9    -51.7147523 -0.274982E-06  0.237E-03    2.39       7.2  T
  10    -51.7147523 -0.290884E-07  0.102E-03    2.39      16.8  T
  11    -51.7147523 -0.490861E-08  0.460E-04    2.39      37.3  T
  12    -51.7147523 -0.136550E-08  0.111E-04    2.39     155.0  T

   *** convergence criteria satisfied after 12 iterations ***

         #    Occupation            Energy/Eh            Energy/eV
      -------------------------------------------------------------
         1        2.0000           -0.7504659             -20.4212
       ...           ...                  ...                  ...
        39        2.0000           -0.4565875             -12.4244
        40        2.0000           -0.4512786             -12.2799
        41        2.0000           -0.4482793             -12.1983
        42        2.0000           -0.4362831             -11.8719
        43        2.0000           -0.4335313             -11.7970
        44        2.0000           -0.4156621             -11.3107
        45        2.0000           -0.3994150             -10.8686 (HOMO)
        46                         -0.3116225              -8.4797 (LUMO)
        47                         -0.2356190              -6.4115
        48                         -0.1620640              -4.4100
        49                         -0.0378526              -1.0300
        50                         -0.0120997              -0.3292
       ...                                ...                  ...
        82                          0.6754452              18.3798
      -------------------------------------------------------------
                  HL-Gap            0.0877925 Eh            2.3890 eV
             Fermi-level           -0.3555188 Eh           -9.6742 eV

 SCC (total)                   0 d,  0 h,  0 min,  0.154 sec
 SCC setup                      ...        0 min,  0.001 sec (  0.686%)
 Dispersion                     ...        0 min,  0.003 sec (  2.104%)
 classical contributions        ...        0 min,  0.002 sec (  1.043%)
 integral evaluation            ...        0 min,  0.007 sec (  4.545%)
 iterations                     ...        0 min,  0.122 sec ( 78.742%)
 molecular gradient             ...        0 min,  0.020 sec ( 12.721%)
 printout                       ...        0 min,  0.000 sec (  0.139%)

         :::::::::::::::::::::::::::::::::::::::::::::::::::::
         ::                     SUMMARY                     ::
         :::::::::::::::::::::::::::::::::::::::::::::::::::::
         :: total energy             -51.145221233363 Eh    ::
         :: gradient norm              0.082777962524 Eh/a0 ::
         :: HOMO-LUMO gap              2.388955712859 eV    ::
         ::.................................................::
         :: SCC energy               -51.714702203929 Eh    ::
         :: -> isotropic ES            0.084048991590 Eh    ::
         :: -> anisotropic ES          0.007541107947 Eh    ::
         :: -> anisotropic XC          0.012614977663 Eh    ::
         :: -> dispersion             -0.026875248853 Eh    ::
         :: repulsion energy           0.569480970566 Eh    ::
         :: add. restraining           0.000000000000 Eh    ::
         :: total charge               0.000000000000 e     ::
         :::::::::::::::::::::::::::::::::::::::::::::::::::::

      ----------------------------------------------------------- 
     |                   =====================                   |
     |                        A N C O P T                        |
     |                   =====================                   |
     |               Approximate Normal Coordinate               |
     |                Rational Function Optimizer                |
      ----------------------------------------------------------- 
      ----------------------------------------------------------- 
     |                   =====================                   |
     |                        A N C O P T                        |
     |                   =====================                   |
     |               Approximate Normal Coordinate               |
     |                Rational Function Optimizer                |
      ----------------------------------------------------------- 

          ...................................................
          :                      SETUP                      :
          :.................................................:
          :   optimization level             tight          :
          :   max. optcycles                   500          :
          :   ANC micro-cycles                  20          :
          :   degrees of freedom                96          :
          :.................................................:
          :   RF solver                   davidson          :
          :   write xtbopt.log                true          :
          :   linear?                        false          :
          :   energy convergence         0.1000000E-05 Eh   :
          :   grad. convergence          0.8000000E-03 Eh/α :
          :   maxmium RF displ.          1.0000000          :
          :   Hlow (freq-cutoff)         0.1000000E-01      :
          :   Hmax (freq-cutoff)         5.0000000          :
          :   S6 in model hess.         20.0000000          :
          ...................................................

generating ANC from exact Hessian ...
Using Lindh-Hessian (1995)
 Shifting diagonal of input Hessian by    9.5699127466756084E-003
 Lowest  eigenvalues of input Hessian
    0.000000    0.000000    0.000000    0.000000    0.000000    0.000000
    0.010000    0.010278    0.010841    0.011841    0.013402    0.013706
    0.014902    0.016204    0.017792    0.018864    0.019292    0.020318
 Highest eigenvalues
    1.444423    1.588448    1.799242    1.936076    2.159820    2.320908


........................................................................
.............................. CYCLE    1 ..............................
........................................................................

 iter      E             dE          RMSdq      gap      omega  full diag
   1    -51.7147523 -0.517148E+02  0.507E-05    2.39       0.0  T
   2    -51.7147523 -0.719069E-11  0.307E-05    2.39     559.1  T
   3    -51.7147523 -0.319744E-12  0.145E-05    2.39    1183.6  T
     SCC iter.                  ...        0 min,  0.033 sec
     gradient                   ...        0 min,  0.029 sec
 * total energy  :   -51.1452212 Eh     change       -0.7762679E-10 Eh
   gradient norm :     0.0827780 Eh/α   predicted     0.0000000E+00 (-100.00%)
   displ. norm   :     0.2393423 α      lambda       -0.1044100E-01
   maximum displ.:     0.0719173 α      in ANC's #33, #38, #24, ...

........................................................................
.............................. CYCLE    2 ..............................
........................................................................

 iter      E             dE          RMSdq      gap      omega  full diag
   1    -51.7419677 -0.517420E+02  0.253E-01    2.49       0.0  T
   2    -51.7421024 -0.134734E-03  0.182E-01    2.44       1.0  T
   3    -51.7424010 -0.298617E-03  0.107E-01    2.48       1.0  T
   4    -51.7425055 -0.104549E-03  0.196E-02    2.46       1.0  T
   5    -51.7425151 -0.959057E-05  0.402E-03    2.46       4.3  T
   6    -51.7425152 -0.592082E-07  0.224E-03    2.46       7.7  T
   7    -51.7425152 -0.195025E-07  0.702E-04    2.46      24.4  T
   8    -51.7425152 -0.200503E-08  0.264E-04    2.46      64.9  T
     SCC iter.                  ...        0 min,  0.105 sec
     gradient                   ...        0 min,  0.034 sec
 * total energy  :   -51.1520782 Eh     change       -0.6856956E-02 Eh
   gradient norm :     0.0342551 Eh/α   predicted    -0.5520771E-02 ( -19.49%)
   displ. norm   :     0.1729311 α      lambda       -0.2350681E-02
   maximum displ.:     0.0706171 α      in ANC's #6, #24, #22, ...

........................................................................
.............................. CYCLE    3 ..............................
........................................................................

 iter      E             dE          RMSdq      gap      omega  full diag
   1    -51.7527039 -0.517527E+02  0.147E-01    2.52       0.0  T
   2    -51.7527868 -0.828401E-04  0.122E-01    2.48       1.0  T
   3    -51.7530648 -0.278006E-03  0.551E-02    2.50       1.0  T
   4    -51.7530724 -0.759519E-05  0.147E-02    2.50       1.2  T
   5    -51.7530752 -0.281167E-05  0.263E-03    2.50       6.5  T
   6    -51.7530752 -0.802757E-07  0.132E-03    2.50      13.0  T
   7    -51.7530753 -0.556626E-08  0.502E-04    2.50      34.1  T
   8    -51.7530753 -0.926164E-09  0.215E-04    2.50      79.8  T
     SCC iter.                  ...        0 min,  0.099 sec
     gradient                   ...        0 min,  0.033 sec
 * total energy  :   -51.1534200 Eh     change       -0.1341782E-02 Eh
   gradient norm :     0.0113463 Eh/α   predicted    -0.1210939E-02 (  -9.75%)
   displ. norm   :     0.1019094 α      lambda       -0.2883082E-03
   maximum displ.:     0.0615055 α      in ANC's #6, #8, #7, ...

........................................................................
.............................. CYCLE    4 ..............................
........................................................................

 iter      E             dE          RMSdq      gap      omega  full diag
   1    -51.7525346 -0.517525E+02  0.406E-02    2.50       0.0  T
   2    -51.7525436 -0.898254E-05  0.317E-02    2.49       1.0  T
   3    -51.7525603 -0.166854E-04  0.157E-02    2.50       1.1  T
   4    -51.7525614 -0.109951E-05  0.466E-03    2.50       3.7  T
   5    -51.7525616 -0.175363E-06  0.553E-04    2.50      31.0  T
   6    -51.7525616 -0.176378E-08  0.281E-04    2.50      61.0  T
     SCC iter.                  ...        0 min,  0.072 sec
     gradient                   ...        0 min,  0.032 sec
 * total energy  :   -51.1536210 Eh     change       -0.2009894E-03 Eh
   gradient norm :     0.0047489 Eh/α   predicted    -0.1456572E-03 ( -27.53%)
   displ. norm   :     0.1263976 α      lambda       -0.1683283E-03
   maximum displ.:     0.0816145 α      in ANC's #6, #2, #8, ...

........................................................................
.............................. CYCLE    5 ..............................
........................................................................

 iter      E             dE          RMSdq      gap      omega  full diag
   1    -51.7513017 -0.517513E+02  0.353E-02    2.50       0.0  T
   2    -51.7513041 -0.241181E-05  0.222E-02    2.49       1.0  T
   3    -51.7513020  0.211889E-05  0.155E-02    2.49       1.1  T
   4    -51.7513068 -0.487353E-05  0.216E-03    2.49       8.0  T
   5    -51.7513069 -0.653872E-07  0.549E-04    2.49      31.2  T
   6    -51.7513069 -0.338069E-09  0.255E-04    2.49      67.4  T
     SCC iter.                  ...        0 min,  0.079 sec
     gradient                   ...        0 min,  0.038 sec
 * total energy  :   -51.1537221 Eh     change       -0.1011152E-03 Eh
   gradient norm :     0.0037801 Eh/α   predicted    -0.8559602E-04 ( -15.35%)
   displ. norm   :     0.0797490 α      lambda       -0.4920939E-04
   maximum displ.:     0.0495428 α      in ANC's #6, #2, #4, ...

........................................................................
.............................. CYCLE    6 ..............................
........................................................................

 iter      E             dE          RMSdq      gap      omega  full diag
   1    -51.7512052 -0.517512E+02  0.220E-02    2.49       0.0  T
   2    -51.7512054 -0.289243E-06  0.129E-02    2.49       1.3  T
   3    -51.7512053  0.138202E-06  0.262E-03    2.49       6.6  T
   4    -51.7512054 -0.139080E-06  0.123E-03    2.49      13.9  T
   5    -51.7512055 -0.440053E-07  0.338E-04    2.49      50.7  T
   6    -51.7512055 -0.422183E-09  0.172E-04    2.49      99.8  T
     SCC iter.                  ...        0 min,  0.054 sec
     gradient                   ...        0 min,  0.026 sec
 * total energy  :   -51.1537569 Eh     change       -0.3477528E-04 Eh
   gradient norm :     0.0030948 Eh/α   predicted    -0.2476161E-04 ( -28.80%)
   displ. norm   :     0.1085844 α      lambda       -0.4877634E-04
   maximum displ.:     0.0605364 α      in ANC's #6, #2, #4, ...

........................................................................
.............................. CYCLE    7 ..............................
........................................................................

 iter      E             dE          RMSdq      gap      omega  full diag
   1    -51.7515246 -0.517515E+02  0.284E-02    2.49       0.0  T
   2    -51.7515255 -0.826293E-06  0.170E-02    2.49       1.0  T
   3    -51.7515237  0.179610E-05  0.866E-03    2.49       2.0  T
   4    -51.7515257 -0.206114E-05  0.180E-03    2.49       9.5  T
   5    -51.7515258 -0.834689E-07  0.482E-04    2.49      35.6  T
   6    -51.7515258 -0.568235E-09  0.261E-04    2.49      65.7  T
     SCC iter.                  ...        0 min,  0.054 sec
     gradient                   ...        0 min,  0.024 sec
 * total energy  :   -51.1537924 Eh     change       -0.3551040E-04 Eh
   gradient norm :     0.0026363 Eh/α   predicted    -0.2467690E-04 ( -30.51%)
   displ. norm   :     0.1214059 α      lambda       -0.4343155E-04
   maximum displ.:     0.0590881 α      in ANC's #2, #6, #3, ...

........................................................................
.............................. CYCLE    8 ..............................
........................................................................

 iter      E             dE          RMSdq      gap      omega  full diag
   1    -51.7519697 -0.517520E+02  0.338E-02    2.49       0.0  T
   2    -51.7519706 -0.820409E-06  0.200E-02    2.49       1.0  T
   3    -51.7519692  0.132254E-05  0.713E-03    2.49       2.4  T
   4    -51.7519707 -0.143610E-05  0.207E-03    2.49       8.3  T
   5    -51.7519708 -0.117843E-06  0.551E-04    2.49      31.1  T
   6    -51.7519708 -0.610846E-09  0.279E-04    2.49      61.4  T
     SCC iter.                  ...        0 min,  0.054 sec
     gradient                   ...        0 min,  0.024 sec
 * total energy  :   -51.1538241 Eh     change       -0.3169147E-04 Eh
   gradient norm :     0.0027527 Eh/α   predicted    -0.2204030E-04 ( -30.45%)
   displ. norm   :     0.1141715 α      lambda       -0.3315191E-04
   maximum displ.:     0.0609073 α      in ANC's #2, #3, #4, ...

........................................................................
.............................. CYCLE    9 ..............................
........................................................................

 iter      E             dE          RMSdq      gap      omega  full diag
   1    -51.7521925 -0.517522E+02  0.337E-02    2.49       0.0  T
   2    -51.7521929 -0.324121E-06  0.199E-02    2.50       1.0  T
   3    -51.7521927  0.178720E-06  0.288E-03    2.50       5.9  T
   4    -51.7521929 -0.229455E-06  0.134E-03    2.50      12.8  T
   5    -51.7521930 -0.404739E-07  0.533E-04    2.50      32.1  T
   6    -51.7521930 -0.792859E-09  0.203E-04    2.50      84.3  T
     SCC iter.                  ...        0 min,  0.065 sec
     gradient                   ...        0 min,  0.030 sec
 * total energy  :   -51.1538477 Eh     change       -0.2361850E-04 Eh
   gradient norm :     0.0021519 Eh/α   predicted    -0.1679484E-04 ( -28.89%)
   displ. norm   :     0.0807956 α      lambda       -0.1925458E-04
   maximum displ.:     0.0478131 α      in ANC's #2, #3, #16, ...

........................................................................
.............................. CYCLE   10 ..............................
........................................................................

 iter      E             dE          RMSdq      gap      omega  full diag
   1    -51.7522965 -0.517523E+02  0.240E-02    2.50       0.0  T
   2    -51.7522968 -0.249666E-06  0.142E-02    2.50       1.2  T
   3    -51.7522967  0.171840E-07  0.166E-03    2.50      10.3  T
   4    -51.7522968 -0.480229E-07  0.745E-04    2.50      23.0  T
   5    -51.7522968 -0.102768E-07  0.430E-04    2.50      39.9  T
     SCC iter.                  ...        0 min,  0.046 sec
     gradient                   ...        0 min,  0.027 sec
 * total energy  :   -51.1538612 Eh     change       -0.1351440E-04 Eh
   gradient norm :     0.0011551 Eh/α   predicted    -0.9691613E-05 ( -28.29%)
   displ. norm   :     0.0798171 α      lambda       -0.9811499E-05
   maximum displ.:     0.0511174 α      in ANC's #2, #3, #16, ...

........................................................................
.............................. CYCLE   11 ..............................
........................................................................

 iter      E             dE          RMSdq      gap      omega  full diag
   1    -51.7522541 -0.517523E+02  0.214E-02    2.50       0.0  T
   2    -51.7522545 -0.391327E-06  0.126E-02    2.50       1.4  T
   3    -51.7522544  0.595746E-07  0.237E-03    2.51       7.2  T
   4    -51.7522545 -0.704455E-07  0.105E-03    2.50      16.4  T
   5    -51.7522545 -0.318206E-07  0.406E-04    2.50      42.2  T
   6    -51.7522545 -0.131803E-08  0.198E-04    2.50      86.5  T
     SCC iter.                  ...        0 min,  0.072 sec
     gradient                   ...        0 min,  0.034 sec
 * total energy  :   -51.1538698 Eh     change       -0.8572044E-05 Eh
   gradient norm :     0.0010772 Eh/α   predicted    -0.4921762E-05 ( -42.58%)
   displ. norm   :     0.0289973 α      lambda       -0.3592129E-05
   maximum displ.:     0.0192319 α      in ANC's #2, #6, #3, ...

........................................................................
.............................. CYCLE   12 ..............................
........................................................................

 iter      E             dE          RMSdq      gap      omega  full diag
   1    -51.7522258 -0.517522E+02  0.563E-03    2.51       0.0  T
   2    -51.7522258 -0.100994E-07  0.335E-03    2.51       5.1  T
   3    -51.7522258  0.124136E-07  0.744E-04    2.50      23.0  T
   4    -51.7522258 -0.148676E-07  0.231E-04    2.51      74.3  T
     SCC iter.                  ...        0 min,  0.052 sec
     gradient                   ...        0 min,  0.043 sec
 * total energy  :   -51.1538740 Eh     change       -0.4234677E-05 Eh
   gradient norm :     0.0007177 Eh/α   predicted    -0.1798245E-05 ( -57.54%)
   displ. norm   :     0.0415686 α      lambda       -0.4025460E-05
   maximum displ.:     0.0255240 α      in ANC's #2, #6, #3, ...

........................................................................
.............................. CYCLE   13 ..............................
........................................................................

 iter      E             dE          RMSdq      gap      omega  full diag
   1    -51.7522723 -0.517523E+02  0.824E-03    2.50       0.0  T
   2    -51.7522723 -0.264930E-07  0.487E-03    2.50       3.5  T
   3    -51.7522723 -0.112960E-08  0.433E-04    2.50      39.6  T
   4    -51.7522723 -0.300874E-08  0.175E-04    2.50      98.2  T
     SCC iter.                  ...        0 min,  0.083 sec
     gradient                   ...        0 min,  0.060 sec
 * total energy  :   -51.1538778 Eh     change       -0.3801012E-05 Eh
   gradient norm :     0.0004494 Eh/α   predicted    -0.2017651E-05 ( -46.92%)
   displ. norm   :     0.0414113 α      lambda        0.1369238E-05
   maximum displ.:     0.0254142 α      in ANC's #2, #6, #3, ...

........................................................................
.............................. CYCLE   14 ..............................
........................................................................

 iter      E             dE          RMSdq      gap      omega  full diag
   1    -51.7522925 -0.517523E+02  0.820E-03    2.50       0.0  T
   2    -51.7522925 -0.266914E-07  0.485E-03    2.50       3.5  T
   3    -51.7522925 -0.323858E-09  0.472E-04    2.50      36.3  T
   4    -51.7522925 -0.356553E-08  0.211E-04    2.50      81.3  T
     SCC iter.                  ...        0 min,  0.077 sec
     gradient                   ...        0 min,  0.047 sec
 * total energy  :   -51.1538771 Eh     change        0.7157572E-06 Eh
   gradient norm :     0.0010613 Eh/α   predicted     0.6851202E-06 (  -4.28%)
   displ. norm   :     0.0127794 α      lambda       -0.2909879E-05
   maximum displ.:     0.0088818 α      in ANC's #6, #14, #5, ...

........................................................................
.............................. CYCLE   15 ..............................
........................................................................

 iter      E             dE          RMSdq      gap      omega  full diag
   1    -51.7522693 -0.517523E+02  0.495E-03    2.50       0.0  T
   2    -51.7522694 -0.212491E-07  0.296E-03    2.50       5.8  T
   3    -51.7522694  0.117225E-07  0.826E-04    2.50      20.8  T
   4    -51.7522694 -0.129064E-07  0.280E-04    2.50      61.2  T
     SCC iter.                  ...        0 min,  0.070 sec
     gradient                   ...        0 min,  0.055 sec
 * total energy  :   -51.1538795 Eh     change       -0.2428317E-05 Eh
   gradient norm :     0.0005256 Eh/α   predicted    -0.1456864E-05 ( -40.01%)
   displ. norm   :     0.0145503 α      lambda       -0.1189082E-05
   maximum displ.:     0.0080096 α      in ANC's #6, #2, #3, ...

........................................................................
.............................. CYCLE   16 ..............................
........................................................................

 iter      E             dE          RMSdq      gap      omega  full diag
   1    -51.7522108 -0.517522E+02  0.312E-03    2.50       0.0  T
   2    -51.7522108 -0.459321E-08  0.190E-03    2.50       9.0  T
   3    -51.7522108  0.264812E-07  0.976E-04    2.50      17.6  T
   4    -51.7522108 -0.301133E-07  0.110E-04    2.50     155.3  T
     SCC iter.                  ...        0 min,  0.062 sec
     gradient                   ...        0 min,  0.044 sec
 * total energy  :   -51.1538809 Eh     change       -0.1359881E-05 Eh
   gradient norm :     0.0001782 Eh/α   predicted    -0.5974052E-06 ( -56.07%)
   displ. norm   :     0.0291821 α      lambda       -0.1533903E-05
   maximum displ.:     0.0191996 α      in ANC's #2, #3, #5, ...

........................................................................
.............................. CYCLE   17 ..............................
........................................................................

 iter      E             dE          RMSdq      gap      omega  full diag
   1    -51.7522763 -0.517523E+02  0.558E-03    2.50       0.0  T
   2    -51.7522763 -0.464110E-08  0.332E-03    2.50       5.2  T
   3    -51.7522762  0.254653E-07  0.972E-04    2.50      17.6  T
   4    -51.7522763 -0.293406E-07  0.153E-04    2.50     112.4  T
     SCC iter.                  ...        0 min,  0.054 sec
     gradient                   ...        0 min,  0.043 sec
 * total energy  :   -51.1538827 Eh     change       -0.1835889E-05 Eh
   gradient norm :     0.0003251 Eh/α   predicted    -0.7678543E-06 ( -58.18%)
   displ. norm   :     0.0437796 α      lambda       -0.1655458E-05
   maximum displ.:     0.0293022 α      in ANC's #2, #3, #1, ...

........................................................................
.............................. CYCLE   18 ..............................
........................................................................

 iter      E             dE          RMSdq      gap      omega  full diag
   1    -51.7522277 -0.517522E+02  0.862E-03    2.50       0.0  T
   2    -51.7522277 -0.154237E-07  0.510E-03    2.50       3.4  T
   3    -51.7522277  0.111101E-07  0.748E-04    2.50      22.9  T
   4    -51.7522277 -0.153617E-07  0.287E-04    2.50      59.8  T
     SCC iter.                  ...        0 min,  0.062 sec
     gradient                   ...        0 min,  0.043 sec
 * total energy  :   -51.1538847 Eh     change       -0.1983894E-05 Eh
   gradient norm :     0.0003564 Eh/α   predicted    -0.8308685E-06 ( -58.12%)
   displ. norm   :     0.0464463 α      lambda       -0.1355937E-05
   maximum displ.:     0.0312367 α      in ANC's #2, #3, #1, ...

........................................................................
.............................. CYCLE   19 ..............................
........................................................................

 iter      E             dE          RMSdq      gap      omega  full diag
   1    -51.7522811 -0.517523E+02  0.941E-03    2.50       0.0  T
   2    -51.7522811 -0.909632E-08  0.556E-03    2.50       3.1  T
   3    -51.7522811  0.624246E-08  0.631E-04    2.50      27.2  T
   4    -51.7522811 -0.115357E-07  0.243E-04    2.50      70.6  T
     SCC iter.                  ...        0 min,  0.060 sec
     gradient                   ...        0 min,  0.042 sec
 * total energy  :   -51.1538863 Eh     change       -0.1589984E-05 Eh
   gradient norm :     0.0002539 Eh/α   predicted    -0.6795295E-06 ( -57.26%)
   displ. norm   :     0.0440163 α      lambda       -0.9624177E-06
   maximum displ.:     0.0300129 α      in ANC's #2, #3, #1, ...

........................................................................
.............................. CYCLE   20 ..............................
........................................................................

 iter      E             dE          RMSdq      gap      omega  full diag
   1    -51.7522936 -0.517523E+02  0.843E-03    2.50       0.0  T
   2    -51.7522936 -0.106319E-07  0.499E-03    2.50       3.4  T
   3    -51.7522936  0.167384E-08  0.464E-04    2.50      37.0  T
   4    -51.7522936 -0.484194E-08  0.236E-04    2.50      72.6  T
     SCC iter.                  ...        0 min,  0.063 sec
     gradient                   ...        0 min,  0.037 sec
 * total energy  :   -51.1538874 Eh     change       -0.1102217E-05 Eh
   gradient norm :     0.0001416 Eh/α   predicted    -0.4840113E-06 ( -56.09%)
   displ. norm   :     0.0398785 α      lambda       -0.6679336E-06
   maximum displ.:     0.0269101 α      in ANC's #2, #3, #1, ...
 * RMSD in coord.:     0.1818781 α      energy gain  -0.8666144E-02 Eh

generating ANC from exact Hessian ...
Using Lindh-Hessian (1995)
 Shifting diagonal of input Hessian by    9.5249725773565944E-003
 Lowest  eigenvalues of input Hessian
    0.000000    0.000000    0.000000    0.000000    0.000000    0.000000
    0.010000    0.010263    0.010839    0.011945    0.013623    0.013766
    0.015158    0.016440    0.018088    0.019442    0.019772    0.020608
 Highest eigenvalues
    1.469958    1.635175    1.910770    2.012445    2.251841    2.431428


........................................................................
.............................. CYCLE   21 ..............................
........................................................................

 iter      E             dE          RMSdq      gap      omega  full diag
   1    -51.7522758 -0.517523E+02  0.697E-03    2.50       0.0  T
   2    -51.7522758 -0.439762E-08  0.414E-03    2.50       4.1  T
   3    -51.7522758  0.296093E-07  0.100E-03    2.50      17.1  T
   4    -51.7522758 -0.341365E-07  0.159E-04    2.50     107.7  T
   5    -51.7522758 -0.107406E-09  0.816E-05    2.50     210.3  T
     SCC iter.                  ...        0 min,  0.081 sec
     gradient                   ...        0 min,  0.045 sec
 * total energy  :   -51.1538881 Eh     change       -0.7436996E-06 Eh
   gradient norm :     0.0001522 Eh/α   predicted     0.0000000E+00 (-100.00%)
   displ. norm   :     0.0039998 α      lambda       -0.2551516E-07
   maximum displ.:     0.0028021 α      in ANC's #11, #1, #9, ...

   *** GEOMETRY OPTIMIZATION CONVERGED AFTER 21 ITERATIONS ***

------------------------------------------------------------------------
 total energy gain   :        -0.0086669 Eh       -5.4386 kcal/mol
 total RMSD          :         0.1818781 a0        0.0962 Å
 total power (kW/mol):        -1.0835672 (step)   -7.8621 (real)
------------------------------------------------------------------------

 ANCopt (total)                0 d,  0 h,  0 min,  2.894 sec
 optimizer setup                ...        0 min,  0.001 sec (  0.024%)
 model hessian                  ...        0 min,  0.034 sec (  1.188%)
 ANC generation                 ...        0 min,  0.003 sec (  0.119%)
 coordinate transformation      ...        0 min,  0.000 sec (  0.011%)
 single point calculation       ...        0 min,  2.773 sec ( 95.825%)
 optimization log               ...        0 min,  0.003 sec (  0.117%)
 hessian update                 ...        0 min,  0.071 sec (  2.453%)
 rational function              ...        0 min,  0.002 sec (  0.072%)

================
 final structure:
================
34
 xtb: 6.7.1 (edcfbbe)
C            5.23966541145506       -1.46528199707799        1.45036865437120
C            4.58017635156158       -0.27172526692730        0.77069571697255
C            3.07111938245955       -0.46411360034550        0.64289923665886
C            2.41360084200709        0.72708629459359       -0.03644558984533
O            1.00826572953497        0.48410605357925       -0.11940594457060
C            0.28168174805218        1.42938618675598       -0.69883997923428
O            0.72291859636616        2.45803486139987       -1.14595396889719
C           -1.17536260767720        1.07079185219245       -0.73736776173477
C           -2.06571390613398        1.93970705035142       -1.26159091174823
C           -3.46776405807319        1.57585596112727       -1.40388508889552
O           -4.34283055720065        2.33377298882246       -1.75616869813019
C           -3.71937414302284        0.09845430232739       -1.13303012813862
C           -2.85412348852729       -0.42461690398966        0.01414377376559
C           -3.27093264866395        0.21965724424289        1.33952832373134
C           -2.92599070764864       -1.94693293542392        0.10640047293796
O           -1.46211283090236       -0.11950976370394       -0.21365092593882
H            5.06692122435045       -2.37386066170859        0.87824886074653
H            4.83430867464468       -1.60770877320873        2.44941545113362
H            6.31246688708534       -1.31105509312029        1.53400623510828
H            4.78153898130823        0.63316522489019        1.34780511284364
H            5.01232929071016       -0.13355015919907       -0.22253556384040
H            2.85847138746967       -1.36281247440735        0.06154668479213
H            2.62796285977137       -0.59454162515349        1.63159574169971
H            2.58049074264631        1.65110916959239        0.52911467989462
H            2.80776715582872        0.87756154357446       -1.04803917005049
H           -1.72849682724813        2.90119104929199       -1.61126950030499
H           -3.47886474221816       -0.43791171540250       -2.05647296887136
H           -4.77482107116443       -0.06199874430052       -0.91395299001038
H           -4.29365376578364       -0.05456027612032        1.58170195085111
H           -2.61461355599050       -0.11961660278357        2.13723513681532
H           -3.20820368735208        1.30377496980575        1.27294224657843
H           -2.58513856281239       -2.39496827974382       -0.82335563674013
H           -2.28504138893057       -2.29604587023657        0.91119238968803
H           -3.94664671590139       -2.26284400969647        0.29986802558910

 Bond Distances (Angstroems)
 ---------------------------
C1-C2=1.5236         C1-H17=1.0875        C1-H18=1.0875        C1-H19=1.0871        C2-C1=1.5236         C2-C3=1.5266         
C2-H20=1.0920        C2-H21=1.0920        C3-C2=1.5266         C3-C4=1.5208         C3-H22=1.0913        C3-H23=1.0913        
C4-C3=1.5208         C4-O5=1.4286         C4-H24=1.0961        C4-H25=1.0961        O5-C4=1.4286         O5-C6=1.3256         
C6-O5=1.3256         C6-O7=1.2053         C6-C8=1.5010         O7-C6=1.2053         C8-C6=1.5010         C8-C9=1.3500         
C8-O16=1.3317        C9-C8=1.3500         C9-C10=1.4555        C9-H26=1.0772        C10-C9=1.4555        C10-O11=1.2101       
C10-C12=1.5230       O11-C10=1.2101       C12-C10=1.5230       C12-C13=1.5291       C12-H27=1.0947       C12-H28=1.0898       
C13-C12=1.5291       C13-C14=1.5315       C13-C15=1.5268       C13-O16=1.4431       C14-C13=1.5315       C14-H29=1.0862       
C14-H30=1.0873       C14-H31=1.0880       C15-C13=1.5268       C15-H32=1.0869       C15-H33=1.0865       C15-H34=1.0858       
O16-C8=1.3317        O16-C13=1.4431       H17-C1=1.0875        H18-C1=1.0875        H19-C1=1.0871        H20-C2=1.0920        
H21-C2=1.0920        H22-C3=1.0913        H23-C3=1.0913        H24-C4=1.0961        H25-C4=1.0961        H26-C9=1.0772        
H27-C12=1.0947       H28-C12=1.0898       H29-C14=1.0862       H30-C14=1.0873       H31-C14=1.0880       H32-C15=1.0869       
H33-C15=1.0865       H34-C15=1.0858       
 C  H  Rav=1.0891 sigma=0.0044  Rmin=1.0772  Rmax=1.0961    18
 C  C  Rav=1.4988 sigma=0.0541  Rmin=1.3500  Rmax=1.5315    10
 O  C  Rav=1.3241 sigma=0.0933  Rmin=1.2053  Rmax=1.4431     6

 selected bond angles (degree)
 --------------------
H17-C1-C2=110.55               H18-C1-C2=110.55               H18-C1-H17=108.34              H19-C1-C2=110.51               
H19-C1-H17=108.41              H19-C1-H18=108.41              C3-C2-C1=111.50                H20-C2-C1=109.49               
H20-C2-C3=109.33               H21-C2-C1=109.49               H21-C2-C3=109.33               H21-C2-H20=107.63              
C4-C3-C2=111.47                H22-C3-C2=109.94               H22-C3-C4=108.83               H23-C3-C2=109.92               
H23-C3-C4=108.83               H23-C3-H22=107.76              O5-C4-C3=108.54                H24-C4-C3=111.34               
H24-C4-O5=108.85               H25-C4-C3=111.37               H25-C4-O5=108.88               H25-C4-H24=107.80              
C6-O5-C4=116.31                O7-C6-O5=124.76                C8-C6-O5=111.90                C8-C6-O7=123.35                
C9-C8-C6=119.76                O16-C8-C6=114.36               O16-C8-C9=125.87               C10-C9-C8=120.82               
H26-C9-C8=119.61               H26-C9-C10=119.53              O11-C10-C9=124.65              C12-C10-C9=112.60              
C12-C10-O11=122.68             

 selected dihedral angles (degree)
 ---------------------------------
C3-C2-C1-H17= 60.05           C3-C2-C1-H18=300.08           C3-C2-C1-H19=180.07           H20-C2-C1-H17=181.16          
H20-C2-C1-H18= 61.19          H20-C2-C1-H19=301.18          H21-C2-C1-H17=298.93          H21-C2-C1-H18=178.97          
H21-C2-C1-H19= 58.95          C4-C3-C2-C1=180.04            C4-C3-C2-H20= 58.84           C4-C3-C2-H21=301.25           
H22-C3-C2-C1=300.82           H22-C3-C2-H20=179.62          H22-C3-C2-H21= 62.02          H23-C3-C2-C1= 59.28           
H23-C3-C2-H20=298.08          H23-C3-C2-H21=180.49          O5-C4-C3-C2=180.18            O5-C4-C3-H22= 58.76           
O5-C4-C3-H23=301.57           H24-C4-C3-C2=299.98           H24-C4-C3-H22=178.56          H24-C4-C3-H23= 61.37          
H25-C4-C3-C2= 60.34           H25-C4-C3-H22=298.91          H25-C4-C3-H23=181.73          C6-O5-C4-C3=180.47            
C6-O5-C4-H24= 59.12           C6-O5-C4-H25=301.85           O7-C6-O5-C4=359.80            C8-C6-O5-C4=179.78            
C9-C8-C6-O5=178.20            C9-C8-C6-O7=358.18            O16-C8-C6-O5=358.88           O16-C8-C6-O7=178.87           
C10-C9-C8-C6=175.29           C10-C9-C8-O16=354.52          H26-C9-C8-C6=357.48           H26-C9-C8-O16=176.71          
O11-C10-C9-C8=173.41          O11-C10-C9-H26=351.22         C12-C10-C9-C8=350.25          C12-C10-C9-H26=168.06         
           -------------------------------------------------
          |                Final Singlepoint                |
           -------------------------------------------------

          ...................................................
          :                      SETUP                      :
          :.................................................:
          :  # basis functions                  82          :
          :  # atomic orbitals                  82          :
          :  # shells                           50          :
          :  # electrons                        90          :
          :  max. iterations                   250          :
          :  Hamiltonian                  GFN2-xTB          :
          :  restarted?                      false          :
          :  GBSA solvation                  false          :
          :  PC potential                    false          :
          :  electronic temp.          300.0000000     K    :
          :  accuracy                    1.0000000          :
          :  -> integral cutoff          0.2500000E+02      :
          :  -> integral neglect         0.1000000E-07      :
          :  -> SCF convergence          0.1000000E-05 Eh   :
          :  -> wf. convergence          0.1000000E-03 e    :
          :  Broyden damping             0.4000000          :
          :  net charge                          0          :
          :  unpaired electrons                  0          :
          ...................................................

 iter      E             dE          RMSdq      gap      omega  full diag
   1    -51.7522758 -0.517523E+02  0.175E-05    2.50       0.0  T
   2    -51.7522758 -0.186162E-11  0.108E-05    2.50    1595.1  T
   3    -51.7522758 -0.490274E-12  0.696E-06    2.50    2463.0  T

   *** convergence criteria satisfied after 3 iterations ***

         #    Occupation            Energy/Eh            Energy/eV
      -------------------------------------------------------------
         1        2.0000           -0.7564519             -20.5841
       ...           ...                  ...                  ...
        39        2.0000           -0.4582800             -12.4704
        40        2.0000           -0.4522263             -12.3057
        41        2.0000           -0.4493825             -12.2283
        42        2.0000           -0.4381942             -11.9239
        43        2.0000           -0.4304464             -11.7130
        44        2.0000           -0.4100089             -11.1569
        45        2.0000           -0.3964543             -10.7881 (HOMO)
        46                         -0.3044063              -8.2833 (LUMO)
        47                         -0.2257584              -6.1432
        48                         -0.1522156              -4.1420
        49                         -0.0272829              -0.7424
        50                         -0.0152381              -0.4147
       ...                                ...                  ...
        82                          0.7136720              19.4200
      -------------------------------------------------------------
                  HL-Gap            0.0920480 Eh            2.5048 eV
             Fermi-level           -0.3504303 Eh           -9.5357 eV

 SCC (total)                   0 d,  0 h,  0 min,  0.111 sec
 SCC setup                      ...        0 min,  0.005 sec (  4.129%)
 Dispersion                     ...        0 min,  0.009 sec (  8.099%)
 classical contributions        ...        0 min,  0.002 sec (  2.057%)
 integral evaluation            ...        0 min,  0.014 sec ( 12.729%)
 iterations                     ...        0 min,  0.044 sec ( 39.894%)
 molecular gradient             ...        0 min,  0.036 sec ( 32.912%)
 printout                       ...        0 min,  0.000 sec (  0.156%)

         :::::::::::::::::::::::::::::::::::::::::::::::::::::
         ::                     SUMMARY                     ::
         :::::::::::::::::::::::::::::::::::::::::::::::::::::
         :: total energy             -51.153888121232 Eh    ::
         :: gradient norm              0.000151823532 Eh/a0 ::
         :: HOMO-LUMO gap              2.504754445405 eV    ::
         ::.................................................::
         :: SCC energy               -51.752220269472 Eh    ::
         :: -> isotropic ES            0.082848796314 Eh    ::
         :: -> anisotropic ES          0.007079917078 Eh    ::
         :: -> anisotropic XC          0.011268079545 Eh    ::
         :: -> dispersion             -0.027083936014 Eh    ::
         :: repulsion energy           0.598332148240 Eh    ::
         :: add. restraining           0.000000000000 Eh    ::
         :: total charge              -0.000000000000 e     ::
         :::::::::::::::::::::::::::::::::::::::::::::::::::::

           -------------------------------------------------
          |                Property Printout                |
           -------------------------------------------------

    * Orbital Energies and Occupations

         #    Occupation            Energy/Eh            Energy/eV
      -------------------------------------------------------------
         1        2.0000           -0.7564519             -20.5841
       ...           ...                  ...                  ...
        33        2.0000           -0.4824078             -13.1270
        34        2.0000           -0.4813405             -13.0979
        35        2.0000           -0.4761713             -12.9573
        36        2.0000           -0.4746842             -12.9168
        37        2.0000           -0.4630040             -12.5990
        38        2.0000           -0.4595698             -12.5055
        39        2.0000           -0.4582800             -12.4704
        40        2.0000           -0.4522263             -12.3057
        41        2.0000           -0.4493825             -12.2283
        42        2.0000           -0.4381942             -11.9239
        43        2.0000           -0.4304464             -11.7130
        44        2.0000           -0.4100089             -11.1569
        45        2.0000           -0.3964543             -10.7881 (HOMO)
        46                         -0.3044063              -8.2833 (LUMO)
        47                         -0.2257584              -6.1432
        48                         -0.1522156              -4.1420
        49                         -0.0272829              -0.7424
        50                         -0.0152381              -0.4147
        51                          0.0518138               1.4099
        52                          0.0657831               1.7900
        53                          0.0749202               2.0387
        54                          0.0787115               2.1418
        55                          0.1036038               2.8192
        56                          0.1067618               2.9051
       ...                                ...                  ...
        82                          0.7136720              19.4200
      -------------------------------------------------------------
                  HL-Gap            0.0920480 Eh            2.5048 eV
             Fermi-level           -0.3504303 Eh           -9.5357 eV

     #   Z          covCN         q      C6AA      α(0)
     1   6 C        3.753    -0.106    22.585     6.777
     2   6 C        3.802    -0.057    21.598     6.617
     3   6 C        3.803    -0.068    21.798     6.647
     4   6 C        3.709     0.078    19.407     6.296
     5   8 O        1.705    -0.238    17.938     5.718
     6   6 C        2.729     0.348    21.096     7.519
     7   8 O        0.856    -0.399    21.666     6.241
     8   6 C        2.848     0.131    25.134     8.217
     9   6 C        2.899    -0.098    30.476     9.052
    10   6 C        2.822     0.240    22.997     7.858
    11   8 O        0.857    -0.361    20.924     6.133
    12   6 C        3.811    -0.100    22.405     6.738
    13   6 C        3.797     0.145    18.258     6.084
    14   6 C        3.756    -0.119    22.836     6.814
    15   6 C        3.757    -0.121    22.862     6.817
    16   8 O        1.704    -0.234    17.884     5.710
    17   1 H        0.925     0.040     2.455     2.450
    18   1 H        0.925     0.039     2.457     2.451
    19   1 H        0.925     0.041     2.434     2.440
    20   1 H        0.924     0.036     2.498     2.471
    21   1 H        0.924     0.036     2.497     2.471
    22   1 H        0.924     0.054     2.267     2.355
    23   1 H        0.924     0.054     2.273     2.358
    24   1 H        0.924     0.054     2.269     2.356
    25   1 H        0.924     0.054     2.267     2.355
    26   1 H        0.926     0.087     1.911     2.162
    27   1 H        0.924     0.065     2.139     2.287
    28   1 H        0.925     0.069     2.096     2.264
    29   1 H        0.925     0.055     2.263     2.353
    30   1 H        0.925     0.056     2.247     2.344
    31   1 H        0.925     0.047     2.356     2.400
    32   1 H        0.925     0.056     2.250     2.346
    33   1 H        0.925     0.063     2.170     2.304
    34   1 H        0.925     0.054     2.266     2.354

 Mol. C6AA /au·bohr⁶  :      10318.199680
 Mol. C8AA /au·bohr⁸  :     229620.425025
 Mol. α(0) /au        :        151.756370


Wiberg/Mayer (AO) data.
largest (>0.10) Wiberg bond orders for each atom

 ---------------------------------------------------------------------------
     #   Z sym  total        # sym  WBO       # sym  WBO       # sym  WBO
 ---------------------------------------------------------------------------
     1   6 C    3.996 --     2 C    1.020    18 H    0.988    17 H    0.988
                            19 H    0.987
     2   6 C    3.996 --     1 C    1.020     3 C    1.006    21 H    0.978
                            20 H    0.978
     3   6 C    3.991 --     2 C    1.006     4 C    1.005    23 H    0.975
                            22 H    0.975
     4   6 C    3.919 --     3 C    1.005    25 H    0.967    24 H    0.966
                             5 O    0.932
     5   8 O    2.339 --     6 C    1.161     4 C    0.932     7 O    0.186
     6   6 C    3.931 --     7 O    1.725     5 O    1.161     8 C    0.962
     7   8 O    2.041 --     6 C    1.725     5 O    0.186
     8   6 C    3.944 --     9 C    1.633    16 O    1.148     6 C    0.962
     9   6 C    3.979 --     8 C    1.633    10 C    1.091    26 H    0.958
                            16 O    0.131
    10   6 C    3.939 --    11 O    1.800     9 C    1.091    12 C    0.969
    11   8 O    2.065 --    10 C    1.800
    12   6 C    3.995 --    13 C    0.983    10 C    0.969    28 H    0.968
                            27 H    0.949
    13   6 C    3.926 --    15 C    0.995    14 C    0.990    12 C    0.983
                            16 O    0.910
    14   6 C    3.993 --    13 C    0.990    30 H    0.984    31 H    0.983
                            29 H    0.982
    15   6 C    3.991 --    13 C    0.995    32 H    0.984    34 H    0.984
                            33 H    0.982
    16   8 O    2.319 --     8 C    1.148    13 C    0.910     9 C    0.131
    17   1 H    0.998 --     1 C    0.988
    18   1 H    0.998 --     1 C    0.988
    19   1 H    0.998 --     1 C    0.987
    20   1 H    0.999 --     2 C    0.978
    21   1 H    0.999 --     2 C    0.978
    22   1 H    0.997 --     3 C    0.975
    23   1 H    0.997 --     3 C    0.975
    24   1 H    0.997 --     4 C    0.966
    25   1 H    0.997 --     4 C    0.967
    26   1 H    0.992 --     9 C    0.958
    27   1 H    0.996 --    12 C    0.949
    28   1 H    0.995 --    12 C    0.968
    29   1 H    0.997 --    14 C    0.982
    30   1 H    0.997 --    14 C    0.984
    31   1 H    0.998 --    14 C    0.983
    32   1 H    0.997 --    15 C    0.984
    33   1 H    0.996 --    15 C    0.982
    34   1 H    0.996 --    15 C    0.984
 ---------------------------------------------------------------------------

Topologies differ in total number of bonds
Writing topology from bond orders to xtbtopo.mol

molecular dipole:
                 x           y           z       tot (Debye)
 q only:        0.798      -1.857       1.082
   full:        0.839      -1.925       1.066       5.986
molecular quadrupole (traceless):
                xx          xy          yy          xz          yz          zz
 q only:        6.454      12.292      -7.439      -5.810       7.714       0.985
  q+dip:        3.625      14.963      -8.322      -7.518      10.961       4.697
   full:        3.373      14.773      -8.872      -7.738      11.446       5.499

           -------------------------------------------------
          |                Geometry Summary                 |
           -------------------------------------------------

      molecular mass/u    :      226.2693840
   center of mass at/Å    :       -0.4592124       0.4626342      -0.2435785
  moments of inertia/u·Å² :        0.4867347E+03   0.2231720E+04   0.2594116E+04
rotational constants/cm⁻¹ :        0.3463413E-01   0.7553649E-02   0.6498412E-02

 * 31 selected distances

     #   Z          #   Z                                           value/Å
     1   6 C        2   6 C                                       1.5236336
     2   6 C        3   6 C                                       1.5266298
     3   6 C        4   6 C                                       1.5207885
     4   6 C        5   8 O                                       1.4285969
     5   8 O        6   6 C                                       1.3256029
     6   6 C        7   8 O                                       1.2052880
     8   6 C        9   6 C                                       1.3500183
    10   6 C       11   8 O                                       1.2100759
    12   6 C       13   6 C                                       1.5291405
    13   6 C       14   6 C                                       1.5314907 (max)
    13   6 C       15   6 C                                       1.5268015
     8   6 C       16   8 O                                       1.3316618
    13   6 C       16   8 O                                       1.4431475
     1   6 C       17   1 H                                       1.0875096
     1   6 C       18   1 H                                       1.0875174
     1   6 C       19   1 H                                       1.0870531
     2   6 C       20   1 H                                       1.0919841
     2   6 C       21   1 H                                       1.0919511
     3   6 C       22   1 H                                       1.0912607
     3   6 C       23   1 H                                       1.0912929
     4   6 C       24   1 H                                       1.0961429
     4   6 C       25   1 H                                       1.0960528
     9   6 C       26   1 H                                       1.0772382 (min)
    12   6 C       27   1 H                                       1.0946598
    12   6 C       28   1 H                                       1.0898204
    14   6 C       29   1 H                                       1.0861869
    14   6 C       30   1 H                                       1.0872892
    14   6 C       31   1 H                                       1.0879706
    15   6 C       32   1 H                                       1.0869050
    15   6 C       33   1 H                                       1.0864558
    15   6 C       34   1 H                                       1.0858031

 * 3 distinct bonds (by element types)

   Z      Z             #   av. dist./Å        max./Å        min./Å
   1 H    6 C          18     1.0890607     1.0961429     1.0772382
   6 C    6 C           7     1.5012147     1.5314907     1.3500183
   6 C    8 O           6     1.3240622     1.4431475     1.2052880


optimized geometry written to: xtbopt.xyz


           -------------------------------------------------
          | TOTAL ENERGY              -51.153888121232 Eh   |
          | GRADIENT NORM               0.000151823532 Eh/α |
          | HOMO-LUMO GAP               2.504754445405 eV   |
           -------------------------------------------------

------------------------------------------------------------------------
 * finished run on 2026/07/07 at 02:45:31.148     
------------------------------------------------------------------------
 total:
 * wall-time:     0 d,  0 h,  0 min,  3.208 sec
 *  cpu-time:     0 d,  0 h,  0 min, 50.998 sec
 * ratio c/w:    15.898 speedup
 SCF:
 * wall-time:     0 d,  0 h,  0 min,  0.155 sec
 *  cpu-time:     0 d,  0 h,  0 min,  2.374 sec
 * ratio c/w:    15.355 speedup
 ANC optimizer:
 * wall-time:     0 d,  0 h,  0 min,  3.010 sec
 *  cpu-time:     0 d,  0 h,  0 min, 48.113 sec
 * ratio c/w:    15.982 speedup

