18
 energy: -29.339234847110 gnorm: 0.000440299331 xtb: 6.7.1 (edcfbbe)
C            3.44365954656827       -0.11019685285311       -0.00124723147328
C            2.03535049751011        0.38690126420446        0.19641557411397
O            1.73058936163525        1.39203988844043        0.77632073636140
O            1.16746067143589       -0.47047664769771       -0.36896088201640
C           -0.20185137685070       -0.22589904560271       -0.37265249000306
C           -0.74250827037138        1.02709667135543       -0.61802583446713
C           -2.11905594168842        1.17329261985595       -0.65023293165321
C           -2.94809541720555        0.08385825808104       -0.44880005161006
C           -2.39945930595300       -1.16636344773984       -0.21461595266562
C           -1.02718236712665       -1.32560050439033       -0.17428069576759
H            3.49529525236243       -1.17526189250462        0.20599964469988
H            3.73073747841348        0.05006124425621       -1.03864027859082
H            4.11790268365584        0.43901369122125        0.64837384174500
H           -0.09841077399716        1.87713516672814       -0.77507291455479
H           -2.54251896311512        2.14862933557782       -0.83696495849351
H           -4.02021360100093        0.20737069953199       -0.47539961312693
H           -3.04107723303272       -2.02073877365378       -0.05946218533779
H           -0.58062224123856       -2.29086167481167        0.00730235793687
