      -----------------------------------------------------------      
     |                   =====================                   |     
     |                           x T B                           |     
     |                   =====================                   |     
     |                         S. Grimme                         |     
     |          Mulliken Center for Theoretical Chemistry        |     
     |                    University of Bonn                     |     
      -----------------------------------------------------------      

   * xtb version 6.7.1 (edcfbbe) compiled by 'conda@5dfe00f5fb80' on 2026-06-10

   xtb is free software: you can redistribute it and/or modify it under
   the terms of the GNU Lesser General Public License as published by
   the Free Software Foundation, either version 3 of the License, or
   (at your option) any later version.
   
   xtb is distributed in the hope that it will be useful,
   but WITHOUT ANY WARRANTY; without even the implied warranty of
   MERCHANTABILITY or FITNESS FOR A PARTICULAR PURPOSE.  See the
   GNU Lesser General Public License for more details.
   
   Cite this work as:
   * C. Bannwarth, E. Caldeweyher, S. Ehlert, A. Hansen, P. Pracht,
     J. Seibert, S. Spicher, S. Grimme, WIREs Comput. Mol. Sci., 2020, 11,
     e01493. DOI: 10.1002/wcms.1493
   
   for GFN2-xTB:
   * C. Bannwarth, S. Ehlert and S. Grimme., J. Chem. Theory Comput., 2019,
     15, 1652-1671. DOI: 10.1021/acs.jctc.8b01176
   for GFN1-xTB:
   * S. Grimme, C. Bannwarth, P. Shushkov, J. Chem. Theory Comput., 2017,
     13, 1989-2009. DOI: 10.1021/acs.jctc.7b00118
   for GFN0-xTB:
   * P. Pracht, E. Caldeweyher, S. Ehlert, S. Grimme, ChemRxiv, 2019, preprint.
     DOI: 10.26434/chemrxiv.8326202.v1
   for GFN-FF:
   * S. Spicher and S. Grimme, Angew. Chem. Int. Ed., 2020, 59, 15665-15673.
     DOI: 10.1002/anie.202004239
   
   for ALPB and GBSA implicit solvation:
   * S. Ehlert, M. Stahn, S. Spicher, S. Grimme, J. Chem. Theory Comput.,
     2021, 17, 4250-4261. DOI: 10.1021/acs.jctc.1c00471
   
   for ddCOSMO and CPCM-X implicit solvation:
   * M. Stahn, S. Ehlert, S. Grimme, J. Phys. Chem. A,
     2023, XX, XXXX-XXXX. DOI: 10.1021/acs.jpca.3c04382
   
   for DFT-D4:
   * E. Caldeweyher, C. Bannwarth and S. Grimme, J. Chem. Phys., 2017,
     147, 034112. DOI: 10.1063/1.4993215
   * E. Caldeweyher, S. Ehlert, A. Hansen, H. Neugebauer, S. Spicher,
     C. Bannwarth and S. Grimme, J. Chem. Phys., 2019, 150, 154122.
     DOI: 10.1063/1.5090222
   * E. Caldeweyher, J.-M. Mewes, S. Ehlert and S. Grimme, Phys. Chem. Chem. Phys.
     2020, 22, 8499-8512. DOI: 10.1039/D0CP00502A
   
   for sTDA-xTB:
   * S. Grimme and C. Bannwarth, J. Chem. Phys., 2016, 145, 054103.
     DOI: 10.1063/1.4959605
   
   in the mass-spec context:
   * V. Asgeirsson, C. Bauer and S. Grimme, Chem. Sci., 2017, 8, 4879.
     DOI: 10.1039/c7sc00601b
   * J. Koopman and S. Grimme, ACS Omega 2019, 4, 12, 15120-15133.
     DOI: 10.1021/acsomega.9b02011
   
   for metadynamics refer to:
   * S. Grimme, J. Chem. Theory Comput., 2019, 155, 2847-2862
     DOI: 10.1021/acs.jctc.9b00143
   
   for SPH calculations refer to:
   * S. Spicher and S. Grimme, J. Chem. Theory Comput., 2021, 17, 1701-1714
     DOI: 10.1021/acs.jctc.0c01306
   
   for ONIOM refer to:
   * C. Plett, A. Katbashev, S. Ehlert, S. Grimme, M. Bursch,
     Phys. Chem. Chem. Phys., 2023, 25, 17860-17868. DOI: 10.1039/D3CP02178E
   
   for DIPRO refer to:
   * J. Kohn, N. Gildemeister, S. Grimme, D. Fazzi, A. Hansen,
     J. Chem. Phys., 2023, just accepted.
   
   for PTB refer to:
   * S. Grimme, M. Mueller, A. Hansen, J. Chem. Phys., 2023, 158, 124111.
     DOI: 10.1063/5.0137838
   
   with help from (in alphabetical order)
   P. Atkinson, C. Bannwarth, F. Bohle, G. Brandenburg, E. Caldeweyher
   M. Checinski, S. Dohm, S. Ehlert, S. Ehrlich, I. Gerasimov, C. Hölzer
   A. Katbashev, J. Kohn, J. Koopman, C. Lavigne, S. Lehtola, F. März, M. Müller,
   F. Musil, H. Neugebauer, J. Pisarek, C. Plett, P. Pracht, F. Pultar,
   J. Seibert, P. Shushkov, S. Spicher, M. Stahn, M. Steiner, T. Strunk,
   J. Stückrath, T. Rose, and J. Unsleber
   
 * started run on 2026/07/09 at 18:54:36.608     
   ID    Z sym.   atoms
    1    6 C      1, 2, 4, 6-11
    2    8 O      3, 5, 12
    3    1 H      13-22

           -------------------------------------------------
          |                Calculation Setup                |
           -------------------------------------------------

          program call               : /home/ws/xd2484/miniforge3/envs/p3z_dft/bin/xtb xtb_input.xyz --gfn 2 --opt tight --cycles 500 --chrg 0 --uhf 0
          hostname                   : gpu10
          coordinate file            : xtb_input.xyz
          omp threads                :                    16


           -------------------------------------------------
          |                 G F N 2 - x T B                 |
           -------------------------------------------------

        Reference                      10.1021/acs.jctc.8b01176
      * Hamiltonian:
        H0-scaling (s, p, d)           1.850000    2.230000    2.230000
        zeta-weighting                 0.500000
      * Dispersion:
        s8                             2.700000
        a1                             0.520000
        a2                             5.000000
        s9                             5.000000
      * Repulsion:
        kExp                           1.500000    1.000000
        rExp                           1.000000
      * Coulomb:
        alpha                          2.000000
        third order                    shell-resolved
        anisotropic                    true
        a3                             3.000000
        a5                             4.000000
        cn-shift                       1.200000
        cn-exp                         4.000000
        max-rad                        5.000000


          ...................................................
          :                      SETUP                      :
          :.................................................:
          :  # basis functions                  58          :
          :  # atomic orbitals                  58          :
          :  # shells                           34          :
          :  # electrons                        64          :
          :  max. iterations                   250          :
          :  Hamiltonian                  GFN2-xTB          :
          :  restarted?                      false          :
          :  GBSA solvation                  false          :
          :  PC potential                    false          :
          :  electronic temp.          300.0000000     K    :
          :  accuracy                    1.0000000          :
          :  -> integral cutoff          0.2500000E+02      :
          :  -> integral neglect         0.1000000E-07      :
          :  -> SCF convergence          0.1000000E-05 Eh   :
          :  -> wf. convergence          0.1000000E-03 e    :
          :  Broyden damping             0.4000000          :
          :  net charge                          0          :
          :  unpaired electrons                  0          :
          ...................................................

 iter      E             dE          RMSdq      gap      omega  full diag
   1    -36.9714677 -0.369715E+02  0.483E+00    3.46       0.0  T
   2    -37.0211861 -0.497184E-01  0.268E+00    3.08       1.0  T
   3    -37.0195748  0.161125E-02  0.134E+00    3.22       1.0  T
   4    -37.0270720 -0.749717E-02  0.285E-01    3.07       1.0  T
   5    -37.0278177 -0.745691E-03  0.103E-01    3.10       1.0  T
   6    -37.0279027 -0.849966E-04  0.488E-02    3.10       1.0  T
   7    -37.0279097 -0.702435E-05  0.185E-02    3.11       1.2  T
   8    -37.0279116 -0.192500E-05  0.896E-03    3.10       2.4  T
   9    -37.0279125 -0.815652E-06  0.274E-03    3.10       7.8  T
  10    -37.0279125 -0.457324E-07  0.128E-03    3.10      16.7  T
  11    -37.0279125 -0.379416E-08  0.613E-04    3.10      34.8  T
  12    -37.0279125 -0.271166E-08  0.178E-04    3.10     120.0  T

   *** convergence criteria satisfied after 12 iterations ***

         #    Occupation            Energy/Eh            Energy/eV
      -------------------------------------------------------------
         1        2.0000           -0.7446231             -20.2622
       ...           ...                  ...                  ...
        26        2.0000           -0.4665202             -12.6947
        27        2.0000           -0.4600605             -12.5189
        28        2.0000           -0.4460262             -12.1370
        29        2.0000           -0.4404163             -11.9843
        30        2.0000           -0.4182848             -11.3821
        31        2.0000           -0.4138500             -11.2614
        32        2.0000           -0.3926367             -10.6842 (HOMO)
        33                         -0.2785901              -7.5808 (LUMO)
        34                         -0.2292430              -6.2380
        35                         -0.1977588              -5.3813
        36                         -0.0956676              -2.6032
        37                         -0.0048477              -0.1319
       ...                                ...                  ...
        58                          0.6505188              17.7015
      -------------------------------------------------------------
                  HL-Gap            0.1140466 Eh            3.1034 eV
             Fermi-level           -0.3356134 Eh           -9.1325 eV

 SCC (total)                   0 d,  0 h,  0 min,  0.223 sec
 SCC setup                      ...        0 min,  0.001 sec (  0.672%)
 Dispersion                     ...        0 min,  0.004 sec (  1.742%)
 classical contributions        ...        0 min,  0.003 sec (  1.397%)
 integral evaluation            ...        0 min,  0.008 sec (  3.372%)
 iterations                     ...        0 min,  0.166 sec ( 74.596%)
 molecular gradient             ...        0 min,  0.040 sec ( 18.132%)
 printout                       ...        0 min,  0.000 sec (  0.073%)

         :::::::::::::::::::::::::::::::::::::::::::::::::::::
         ::                     SUMMARY                     ::
         :::::::::::::::::::::::::::::::::::::::::::::::::::::
         :: total energy             -36.580264369874 Eh    ::
         :: gradient norm              0.060257828054 Eh/a0 ::
         :: HOMO-LUMO gap              3.103367018050 eV    ::
         ::.................................................::
         :: SCC energy               -37.027930176702 Eh    ::
         :: -> isotropic ES            0.064294374750 Eh    ::
         :: -> anisotropic ES         -0.000486836114 Eh    ::
         :: -> anisotropic XC          0.009498776726 Eh    ::
         :: -> dispersion             -0.017565484734 Eh    ::
         :: repulsion energy           0.447665806829 Eh    ::
         :: add. restraining           0.000000000000 Eh    ::
         :: total charge              -0.000000000000 e     ::
         :::::::::::::::::::::::::::::::::::::::::::::::::::::

      ----------------------------------------------------------- 
     |                   =====================                   |
     |                        A N C O P T                        |
     |                   =====================                   |
     |               Approximate Normal Coordinate               |
     |                Rational Function Optimizer                |
      ----------------------------------------------------------- 
      ----------------------------------------------------------- 
     |                   =====================                   |
     |                        A N C O P T                        |
     |                   =====================                   |
     |               Approximate Normal Coordinate               |
     |                Rational Function Optimizer                |
      ----------------------------------------------------------- 

          ...................................................
          :                      SETUP                      :
          :.................................................:
          :   optimization level             tight          :
          :   max. optcycles                   500          :
          :   ANC micro-cycles                  20          :
          :   degrees of freedom                60          :
          :.................................................:
          :   RF solver                   davidson          :
          :   write xtbopt.log                true          :
          :   linear?                        false          :
          :   energy convergence         0.1000000E-05 Eh   :
          :   grad. convergence          0.8000000E-03 Eh/α :
          :   maxmium RF displ.          1.0000000          :
          :   Hlow (freq-cutoff)         0.1000000E-01      :
          :   Hmax (freq-cutoff)         5.0000000          :
          :   S6 in model hess.         20.0000000          :
          ...................................................

generating ANC from exact Hessian ...
Using Lindh-Hessian (1995)
 Shifting diagonal of input Hessian by    8.7796188282517132E-003
 Lowest  eigenvalues of input Hessian
    0.000000    0.000000    0.000000    0.000000    0.000000    0.000000
    0.010000    0.010803    0.011690    0.015490    0.018997    0.020263
    0.024551    0.028334    0.028970    0.029516    0.032030    0.052757
 Highest eigenvalues
    1.664444    1.757231    1.851349    1.995264    2.011630    2.313463


........................................................................
.............................. CYCLE    1 ..............................
........................................................................

 iter      E             dE          RMSdq      gap      omega  full diag
   1    -37.0279125 -0.370279E+02  0.854E-05    3.10       0.0  T
   2    -37.0279125 -0.206981E-10  0.534E-05    3.10     399.4  T
   3    -37.0279125 -0.602540E-11  0.338E-05    3.10     631.2  T
     SCC iter.                  ...        0 min,  0.035 sec
     gradient                   ...        0 min,  0.028 sec
 * total energy  :   -36.5802644 Eh     change       -0.3085958E-09 Eh
   gradient norm :     0.0602586 Eh/α   predicted     0.0000000E+00 (-100.00%)
   displ. norm   :     0.1325420 α      lambda       -0.4917979E-02
   maximum displ.:     0.0541299 α      in ANC's #33, #10, #15, ...

........................................................................
.............................. CYCLE    2 ..............................
........................................................................

 iter      E             dE          RMSdq      gap      omega  full diag
   1    -37.0503309 -0.370503E+02  0.172E-01    3.16       0.0  T
   2    -37.0504156 -0.847410E-04  0.984E-02    3.18       1.0  T
   3    -37.0504218 -0.619494E-05  0.563E-02    3.18       1.0  T
   4    -37.0504372 -0.153381E-04  0.110E-02    3.18       1.9  T
   5    -37.0504384 -0.122251E-05  0.363E-03    3.18       5.9  T
   6    -37.0504385 -0.117399E-06  0.190E-03    3.18      11.2  T
   7    -37.0504385 -0.644655E-08  0.673E-04    3.18      31.7  T
   8    -37.0504385 -0.154687E-08  0.279E-04    3.18      76.3  T
     SCC iter.                  ...        0 min,  0.087 sec
     gradient                   ...        0 min,  0.041 sec
 * total energy  :   -36.5835787 Eh     change       -0.3314356E-02 Eh
   gradient norm :     0.0279052 Eh/α   predicted    -0.2502241E-02 ( -24.50%)
   displ. norm   :     0.0952637 α      lambda       -0.1223832E-02
   maximum displ.:     0.0538272 α      in ANC's #10, #7, #15, ...

........................................................................
.............................. CYCLE    3 ..............................
........................................................................

 iter      E             dE          RMSdq      gap      omega  full diag
   1    -37.0584488 -0.370584E+02  0.114E-01    3.18       0.0  T
   2    -37.0585142 -0.653503E-04  0.613E-02    3.20       1.0  T
   3    -37.0585234 -0.918594E-05  0.367E-02    3.20       1.0  T
   4    -37.0585278 -0.445164E-05  0.104E-02    3.20       2.0  T
   5    -37.0585285 -0.711321E-06  0.258E-03    3.20       8.3  T
   6    -37.0585286 -0.569118E-07  0.133E-03    3.20      16.0  T
   7    -37.0585286 -0.470305E-08  0.570E-04    3.20      37.4  T
   8    -37.0585286 -0.475488E-09  0.238E-04    3.20      89.5  T
     SCC iter.                  ...        0 min,  0.200 sec
     gradient                   ...        0 min,  0.039 sec
 * total energy  :   -36.5842483 Eh     change       -0.6695882E-03 Eh
   gradient norm :     0.0076116 Eh/α   predicted    -0.6175949E-03 (  -7.76%)
   displ. norm   :     0.0325704 α      lambda       -0.8134170E-04
   maximum displ.:     0.0210619 α      in ANC's #7, #10, #24, ...

........................................................................
.............................. CYCLE    4 ..............................
........................................................................

 iter      E             dE          RMSdq      gap      omega  full diag
   1    -37.0574007 -0.370574E+02  0.257E-02    3.19       0.0  T
   2    -37.0574034 -0.269160E-05  0.134E-02    3.19       1.6  T
   3    -37.0574036 -0.192934E-06  0.833E-03    3.19       2.6  T
   4    -37.0574039 -0.347276E-06  0.188E-03    3.19      11.4  T
   5    -37.0574040 -0.256857E-07  0.399E-04    3.19      53.4  T
   6    -37.0574040 -0.119788E-08  0.211E-04    3.19     100.9  T
     SCC iter.                  ...        0 min,  0.080 sec
     gradient                   ...        0 min,  0.039 sec
 * total energy  :   -36.5843051 Eh     change       -0.5678375E-04 Eh
   gradient norm :     0.0033121 Eh/α   predicted    -0.4072218E-04 ( -28.29%)
   displ. norm   :     0.0266324 α      lambda       -0.3170099E-04
   maximum displ.:     0.0189636 α      in ANC's #7, #24, #10, ...

........................................................................
.............................. CYCLE    5 ..............................
........................................................................

 iter      E             dE          RMSdq      gap      omega  full diag
   1    -37.0561853 -0.370562E+02  0.172E-02    3.18       0.0  T
   2    -37.0561860 -0.659846E-06  0.919E-03    3.18       2.3  T
   3    -37.0561859  0.464221E-07  0.573E-03    3.18       3.7  T
   4    -37.0561862 -0.270823E-06  0.734E-04    3.18      29.0  T
   5    -37.0561862 -0.482595E-08  0.267E-04    3.18      79.7  T
     SCC iter.                  ...        0 min,  0.061 sec
     gradient                   ...        0 min,  0.030 sec
 * total energy  :   -36.5843229 Eh     change       -0.1776143E-04 Eh
   gradient norm :     0.0009622 Eh/α   predicted    -0.1587770E-04 ( -10.61%)
   displ. norm   :     0.0115956 α      lambda       -0.2349246E-05
   maximum displ.:     0.0073744 α      in ANC's #3, #7, #15, ...

........................................................................
.............................. CYCLE    6 ..............................
........................................................................

 iter      E             dE          RMSdq      gap      omega  full diag
   1    -37.0560336 -0.370560E+02  0.483E-03    3.18       0.0  T
   2    -37.0560336 -0.330041E-07  0.293E-03    3.18       7.3  T
   3    -37.0560336  0.127691E-07  0.161E-03    3.18      13.3  T
   4    -37.0560337 -0.291075E-07  0.275E-04    3.18      77.4  T
   5    -37.0560337 -0.785612E-09  0.150E-04    3.18     142.0  T
     SCC iter.                  ...        0 min,  0.060 sec
     gradient                   ...        0 min,  0.035 sec
 * total energy  :   -36.5843248 Eh     change       -0.1980163E-05 Eh
   gradient norm :     0.0004412 Eh/α   predicted    -0.1175253E-05 ( -40.65%)
   displ. norm   :     0.0070916 α      lambda       -0.5184044E-06
   maximum displ.:     0.0065084 α      in ANC's #3, #14, #15, ...

........................................................................
.............................. CYCLE    7 ..............................
........................................................................

 iter      E             dE          RMSdq      gap      omega  full diag
   1    -37.0561577 -0.370562E+02  0.267E-03    3.18       0.0  T
   2    -37.0561577 -0.983407E-08  0.164E-03    3.18      13.0  T
   3    -37.0561577  0.385987E-08  0.671E-04    3.18      31.8  T
   4    -37.0561577 -0.621513E-08  0.156E-04    3.18     137.1  T
     SCC iter.                  ...        0 min,  0.045 sec
     gradient                   ...        0 min,  0.034 sec
 * total energy  :   -36.5843253 Eh     change       -0.4738462E-06 Eh
   gradient norm :     0.0001980 Eh/α   predicted    -0.2690192E-06 ( -43.23%)
   displ. norm   :     0.0066568 α      lambda        0.2835613E-06
   maximum displ.:     0.0060602 α      in ANC's #3, #15, #14, ...

   *** GEOMETRY OPTIMIZATION CONVERGED AFTER 7 ITERATIONS ***

------------------------------------------------------------------------
 total energy gain   :        -0.0040609 Eh       -2.5483 kcal/mol
 total RMSD          :         0.0540891 a0        0.0286 Å
 total power (kW/mol):        -1.5231436 (step)  -10.3461 (real)
------------------------------------------------------------------------

 ANCopt (total)                0 d,  0 h,  0 min,  1.031 sec
 optimizer setup                ...        0 min,  0.001 sec (  0.060%)
 model hessian                  ...        0 min,  0.004 sec (  0.366%)
 ANC generation                 ...        0 min,  0.001 sec (  0.079%)
 coordinate transformation      ...        0 min,  0.000 sec (  0.007%)
 single point calculation       ...        0 min,  0.998 sec ( 96.861%)
 optimization log               ...        0 min,  0.001 sec (  0.066%)
 hessian update                 ...        0 min,  0.023 sec (  2.234%)
 rational function              ...        0 min,  0.002 sec (  0.224%)

================
 final structure:
================
22
 xtb: 6.7.1 (edcfbbe)
C            0.94859049592988       -2.93112316217659        2.22298300182274
C            0.69273202302149       -2.61495577099124        0.76199403926363
O            0.36558824150148       -1.22942082638038        0.65448209054463
C            0.10809439388179       -0.77432050298561       -0.57019630940585
O            0.14728807764227       -1.49683255699102       -1.55576524105011
C           -0.22118682643173        0.65516360818706       -0.61580797355865
C           -0.24919726003708        1.42804670117820        0.54876327519755
C           -0.55895267227319        2.76772995835335        0.49683299478497
C           -0.84772945804532        3.36083436618822       -0.72821746283035
C           -0.82626026494789        2.61954315982607       -1.88796403839224
C           -0.51394598618488        1.25724833074311       -1.85631852031048
O           -0.50642469753359        0.58151770652600       -3.00900851325102
H            1.77150049710542       -2.32843345895761        2.59783665818003
H            1.19995581902682       -3.98215878912897        2.32990464995076
H            0.06220290566071       -2.71529299610060        2.81346195146683
H           -0.13938256760533       -3.20680408133545        0.36372473797233
H            1.57703042702700       -2.81833702401985        0.14720141671757
H           -0.02246590987361        0.95017651487095        1.48872154649643
H           -0.57804042797168        3.35607605416308        1.40106056106277
H           -1.09114178924070        4.41200731192321       -0.77185723810825
H           -1.04776465750090        3.06484725089334       -2.84491354126513
H           -0.27049036315496       -0.35551179375225       -2.81986868466517

 Bond Distances (Angstroems)
 ---------------------------
C1-C2=1.5165         C1-H13=1.0867        C1-H14=1.0860        C1-H15=1.0867        C2-C1=1.5165         C2-O3=1.4277         
C2-H16=1.0960        C2-H17=1.0960        O3-C2=1.4277         O3-C4=1.3316         C4-O3=1.3316         C4-O5=1.2227         
C4-C6=1.4676         O5-C4=1.2227         C6-C4=1.4676         C6-C7=1.3980         C6-C11=1.4096        C7-C6=1.3980         
C7-C8=1.3760         C7-H18=1.0786        C8-C7=1.3760         C8-C9=1.3914         C8-H19=1.0790        C9-C8=1.3914         
C9-C10=1.3766        C9-H20=1.0799        C10-C9=1.3766        C10-C11=1.3980       C10-H21=1.0785       C11-C6=1.4096        
C11-C10=1.3980       C11-O12=1.3362       O12-C11=1.3362       O12-H22=0.9846       H13-C1=1.0867        H14-C1=1.0860        
H15-C1=1.0867        H16-C2=1.0960        H17-C2=1.0960        H18-C7=1.0786        H19-C8=1.0790        H20-C9=1.0799        
H21-C10=1.0785       H22-O12=0.9846       
 C  H  Rav=1.0853 sigma=0.0066  Rmin=1.0785  Rmax=1.0960     9
 C  C  Rav=1.4167 sigma=0.0464  Rmin=1.3760  Rmax=1.5165     8
 O  H  Rav=0.9846 sigma=0.0000  Rmin=0.9846  Rmax=0.9846     1
 O  C  Rav=1.3295 sigma=0.0726  Rmin=1.2227  Rmax=1.4277     4

 selected bond angles (degree)
 --------------------
H13-C1-C2=110.15               H14-C1-C2=109.61               H14-C1-H13=109.12              H15-C1-C2=110.15               
H15-C1-H13=108.67              H15-C1-H14=109.12              O3-C2-C1=108.27                H16-C2-C1=111.44               
H16-C2-O3=108.83               H17-C2-C1=111.44               H17-C2-O3=108.83               H17-C2-H16=107.97              
C4-O3-C2=116.44                O5-C4-O3=122.22                C6-C4-O3=113.88                C6-C4-O5=123.90                
C7-C6-C4=121.14                C11-C6-C4=119.34               C11-C6-C7=119.52               C8-C7-C6=120.75                
H18-C7-C6=118.48               H18-C7-C8=120.77               C9-C8-C7=119.67                H19-C8-C7=120.22               
H19-C8-C9=120.12               C10-C9-C8=120.60               H20-C9-C8=119.82               H20-C9-C10=119.58              
C11-C10-C9=120.61              H21-C10-C9=121.47              H21-C10-C11=117.93             

 selected dihedral angles (degree)
 ---------------------------------
O3-C2-C1-H13=300.07           O3-C2-C1-H14=180.00           O3-C2-C1-H15= 59.93           H16-C2-C1-H13=180.42          
H16-C2-C1-H14= 60.34          H16-C2-C1-H15=300.27          H17-C2-C1-H13= 59.73          H17-C2-C1-H14=299.66          
H17-C2-C1-H15=179.58          C4-O3-C2-C1=180.00            C4-O3-C2-H16=301.29           C4-O3-C2-H17= 58.71           
O5-C4-O3-C2=  0.00            C6-C4-O3-C2=180.00            C7-C6-C4-O3=  0.00            C7-C6-C4-O5=180.00            
C11-C6-C4-O3=180.00           C11-C6-C4-O5=  0.00           C8-C7-C6-C4=180.00            C8-C7-C6-C11=  0.00           
H18-C7-C6-C4=  0.00           H18-C7-C6-C11=180.00          C9-C8-C7-C6=  0.00            C9-C8-C7-H18=180.00           
H19-C8-C7-C6=180.00           H19-C8-C7-H18=  0.00          C10-C9-C8-C7=  0.00           C10-C9-C8-H19=180.00          
H20-C9-C8-C7=180.00           H20-C9-C8-H19=  0.00          C11-C10-C9-C8=  0.00          C11-C10-C9-H20=180.00         
H21-C10-C9-C8=180.00          H21-C10-C9-H20=  0.00         
           -------------------------------------------------
          |                Final Singlepoint                |
           -------------------------------------------------

          ...................................................
          :                      SETUP                      :
          :.................................................:
          :  # basis functions                  58          :
          :  # atomic orbitals                  58          :
          :  # shells                           34          :
          :  # electrons                        64          :
          :  max. iterations                   250          :
          :  Hamiltonian                  GFN2-xTB          :
          :  restarted?                      false          :
          :  GBSA solvation                  false          :
          :  PC potential                    false          :
          :  electronic temp.          300.0000000     K    :
          :  accuracy                    1.0000000          :
          :  -> integral cutoff          0.2500000E+02      :
          :  -> integral neglect         0.1000000E-07      :
          :  -> SCF convergence          0.1000000E-05 Eh   :
          :  -> wf. convergence          0.1000000E-03 e    :
          :  Broyden damping             0.4000000          :
          :  net charge                          0          :
          :  unpaired electrons                  0          :
          ...................................................

 iter      E             dE          RMSdq      gap      omega  full diag
   1    -37.0561577 -0.370562E+02  0.693E-05    3.18       0.0  T
   2    -37.0561577 -0.244782E-10  0.449E-05    3.18     475.0  T
   3    -37.0561577 -0.123421E-10  0.289E-05    3.18     737.4  T

   *** convergence criteria satisfied after 3 iterations ***

         #    Occupation            Energy/Eh            Energy/eV
      -------------------------------------------------------------
         1        2.0000           -0.7469308             -20.3250
       ...           ...                  ...                  ...
        26        2.0000           -0.4696487             -12.7798
        27        2.0000           -0.4589878             -12.4897
        28        2.0000           -0.4448319             -12.1045
        29        2.0000           -0.4390353             -11.9468
        30        2.0000           -0.4188085             -11.3964
        31        2.0000           -0.4121185             -11.2143
        32        2.0000           -0.3917538             -10.6602 (HOMO)
        33                         -0.2749395              -7.4815 (LUMO)
        34                         -0.2249775              -6.1219
        35                         -0.1911533              -5.2015
        36                         -0.0893350              -2.4309
        37                          0.0008638               0.0235
       ...                                ...                  ...
        58                          0.6720923              18.2886
      -------------------------------------------------------------
                  HL-Gap            0.1168143 Eh            3.1787 eV
             Fermi-level           -0.3333466 Eh           -9.0708 eV

 SCC (total)                   0 d,  0 h,  0 min,  0.092 sec
 SCC setup                      ...        0 min,  0.004 sec (  4.117%)
 Dispersion                     ...        0 min,  0.007 sec (  8.093%)
 classical contributions        ...        0 min,  0.003 sec (  3.229%)
 integral evaluation            ...        0 min,  0.011 sec ( 12.189%)
 iterations                     ...        0 min,  0.034 sec ( 36.991%)
 molecular gradient             ...        0 min,  0.032 sec ( 35.217%)
 printout                       ...        0 min,  0.000 sec (  0.134%)

         :::::::::::::::::::::::::::::::::::::::::::::::::::::
         ::                     SUMMARY                     ::
         :::::::::::::::::::::::::::::::::::::::::::::::::::::
         :: total energy             -36.584325313345 Eh    ::
         :: gradient norm              0.000199621011 Eh/a0 ::
         :: HOMO-LUMO gap              3.178679637407 eV    ::
         ::.................................................::
         :: SCC energy               -37.056175545427 Eh    ::
         :: -> isotropic ES            0.064766080618 Eh    ::
         :: -> anisotropic ES         -0.001249168571 Eh    ::
         :: -> anisotropic XC          0.007939714432 Eh    ::
         :: -> dispersion             -0.017680576566 Eh    ::
         :: repulsion energy           0.471850232082 Eh    ::
         :: add. restraining           0.000000000000 Eh    ::
         :: total charge              -0.000000000000 e     ::
         :::::::::::::::::::::::::::::::::::::::::::::::::::::

           -------------------------------------------------
          |                Property Printout                |
           -------------------------------------------------

    * Orbital Energies and Occupations

         #    Occupation            Energy/Eh            Energy/eV
      -------------------------------------------------------------
         1        2.0000           -0.7469308             -20.3250
       ...           ...                  ...                  ...
        20        2.0000           -0.5027618             -13.6808
        21        2.0000           -0.4903850             -13.3441
        22        2.0000           -0.4887388             -13.2993
        23        2.0000           -0.4837341             -13.1631
        24        2.0000           -0.4802840             -13.0692
        25        2.0000           -0.4721738             -12.8485
        26        2.0000           -0.4696487             -12.7798
        27        2.0000           -0.4589878             -12.4897
        28        2.0000           -0.4448319             -12.1045
        29        2.0000           -0.4390353             -11.9468
        30        2.0000           -0.4188085             -11.3964
        31        2.0000           -0.4121185             -11.2143
        32        2.0000           -0.3917538             -10.6602 (HOMO)
        33                         -0.2749395              -7.4815 (LUMO)
        34                         -0.2249775              -6.1219
        35                         -0.1911533              -5.2015
        36                         -0.0893350              -2.4309
        37                          0.0008638               0.0235
        38                          0.0944188               2.5693
        39                          0.0986666               2.6849
        40                          0.1210302               3.2934
        41                          0.1361756               3.7055
        42                          0.1391526               3.7865
        43                          0.1430659               3.8930
       ...                                ...                  ...
        58                          0.6720923              18.2886
      -------------------------------------------------------------
                  HL-Gap            0.1168143 Eh            3.1787 eV
             Fermi-level           -0.3333466 Eh           -9.0708 eV

     #   Z          covCN         q      C6AA      α(0)
     1   6 C        3.751    -0.116    22.786     6.807
     2   6 C        3.704     0.087    19.280     6.278
     3   8 O        1.705    -0.260    18.311     5.777
     4   6 C        2.730     0.351    21.042     7.510
     5   8 O        0.857    -0.459    22.889     6.414
     6   6 C        2.969    -0.066    29.645     8.931
     7   6 C        2.921    -0.024    28.612     8.772
     8   6 C        2.916    -0.041    29.011     8.832
     9   6 C        2.919    -0.021    28.538     8.760
    10   6 C        2.917    -0.054    29.351     8.884
    11   6 C        2.846     0.164    24.451     8.104
    12   8 O        1.658    -0.380    20.471     6.108
    13   1 H        0.925     0.059     2.214     2.327
    14   1 H        0.925     0.053     2.277     2.360
    15   1 H        0.925     0.059     2.214     2.327
    16   1 H        0.924     0.052     2.296     2.370
    17   1 H        0.924     0.052     2.296     2.370
    18   1 H        0.926     0.055     2.258     2.350
    19   1 H        0.926     0.041     2.431     2.438
    20   1 H        0.926     0.046     2.372     2.408
    21   1 H        0.926     0.059     2.209     2.324
    22   1 H        0.802     0.344     0.603     1.220

 Mol. C6AA /au·bohr⁶  :       5388.548678
 Mol. C8AA /au·bohr⁸  :     126426.567052
 Mol. α(0) /au        :        113.671200


Wiberg/Mayer (AO) data.
largest (>0.10) Wiberg bond orders for each atom

 ---------------------------------------------------------------------------
     #   Z sym  total        # sym  WBO       # sym  WBO       # sym  WBO
 ---------------------------------------------------------------------------
     1   6 C    3.991 --     2 C    1.020    15 H    0.985    13 H    0.985
                            14 H    0.984
     2   6 C    3.926 --     1 C    1.020    16 H    0.968    17 H    0.968
                             3 O    0.936
     3   8 O    2.315 --     4 C    1.142     2 C    0.936     5 O    0.157
     4   6 C    3.916 --     5 O    1.636     3 O    1.142     6 C    1.049
     5   8 O    2.016 --     4 C    1.636     3 O    0.157
     6   6 C    3.978 --     7 C    1.359    11 C    1.298     4 C    1.049
     7   6 C    3.990 --     8 C    1.484     6 C    1.359    18 H    0.966
                            10 C    0.108
     8   6 C    3.991 --     7 C    1.484     9 C    1.389    19 H    0.970
     9   6 C    3.990 --    10 C    1.485     8 C    1.389    20 H    0.970
    10   6 C    3.987 --     9 C    1.485    11 C    1.335    21 H    0.967
                             7 C    0.108
    11   6 C    3.948 --    10 C    1.335     6 C    1.298    12 O    1.153
    12   8 O    2.182 --    11 C    1.153    22 H    0.809
    13   1 H    0.997 --     1 C    0.985
    14   1 H    0.996 --     1 C    0.984
    15   1 H    0.997 --     1 C    0.985
    16   1 H    0.997 --     2 C    0.968
    17   1 H    0.997 --     2 C    0.968
    18   1 H    0.997 --     7 C    0.966
    19   1 H    0.998 --     8 C    0.970
    20   1 H    0.997 --     9 C    0.970
    21   1 H    0.996 --    10 C    0.967
    22   1 H    0.882 --    12 O    0.809
 ---------------------------------------------------------------------------

Topologies differ in total number of bonds
Writing topology from bond orders to xtbtopo.mol

molecular dipole:
                 x           y           z       tot (Debye)
 q only:        0.106       0.111       1.042
   full:        0.161      -0.051       1.184       3.040
molecular quadrupole (traceless):
                xx          xy          yy          xz          yz          zz
 q only:       -2.263      -2.970       7.075       1.008      -5.364      -4.811
  q+dip:       -1.885      -3.074       8.488       0.510      -4.389      -6.603
   full:        0.198      -2.350       7.516       0.109      -4.513      -7.714

           -------------------------------------------------
          |                Geometry Summary                 |
           -------------------------------------------------

      molecular mass/u    :      166.1742454
   center of mass at/Å    :       -0.0966082       0.1884361      -0.4656098
  moments of inertia/u·Å² :        0.2680765E+03   0.8590356E+03   0.1120801E+04
rotational constants/cm⁻¹ :        0.6288367E-01   0.1962391E-01   0.1504071E-01

 * 21 selected distances

     #   Z          #   Z                                           value/Å
     1   6 C        2   6 C                                       1.5165469 (max)
     2   6 C        3   8 O                                       1.4276867
     3   8 O        4   6 C                                       1.3316369
     4   6 C        5   8 O                                       1.2226636
     6   6 C        7   6 C                                       1.3979841
     7   6 C        8   6 C                                       1.3760075
     8   6 C        9   6 C                                       1.3913712
     9   6 C       10   6 C                                       1.3765849
     6   6 C       11   6 C                                       1.4096385
    10   6 C       11   6 C                                       1.3979947
    11   6 C       12   8 O                                       1.3361748
     1   6 C       13   1 H                                       1.0867066
     1   6 C       14   1 H                                       1.0859525
     1   6 C       15   1 H                                       1.0867066
     2   6 C       16   1 H                                       1.0960464
     2   6 C       17   1 H                                       1.0960464
     7   6 C       18   1 H                                       1.0785587
     8   6 C       19   1 H                                       1.0789547
     9   6 C       20   1 H                                       1.0798698
    10   6 C       21   1 H                                       1.0784769
    12   8 O       22   1 H                                       0.9846133 (min)

 * 4 distinct bonds (by element types)

   Z      Z             #   av. dist./Å        max./Å        min./Å
   1 H    6 C           9     1.0852576     1.0960464     1.0784769
   6 C    6 C           7     1.4094468     1.5165469     1.3760075
   1 H    8 O           1     0.9846133     0.9846133     0.9846133
   6 C    8 O           4     1.3295405     1.4276867     1.2226636


optimized geometry written to: xtbopt.xyz


           -------------------------------------------------
          | TOTAL ENERGY              -36.584325313345 Eh   |
          | GRADIENT NORM               0.000199621011 Eh/α |
          | HOMO-LUMO GAP               3.178679637407 eV   |
           -------------------------------------------------

------------------------------------------------------------------------
 * finished run on 2026/07/09 at 18:54:38.080     
------------------------------------------------------------------------
 total:
 * wall-time:     0 d,  0 h,  0 min,  1.472 sec
 *  cpu-time:     0 d,  0 h,  0 min, 23.243 sec
 * ratio c/w:    15.795 speedup
 SCF:
 * wall-time:     0 d,  0 h,  0 min,  0.223 sec
 *  cpu-time:     0 d,  0 h,  0 min,  3.545 sec
 * ratio c/w:    15.896 speedup
 ANC optimizer:
 * wall-time:     0 d,  0 h,  0 min,  1.132 sec
 *  cpu-time:     0 d,  0 h,  0 min, 18.031 sec
 * ratio c/w:    15.922 speedup

