      -----------------------------------------------------------      
     |                   =====================                   |     
     |                           x T B                           |     
     |                   =====================                   |     
     |                         S. Grimme                         |     
     |          Mulliken Center for Theoretical Chemistry        |     
     |                    University of Bonn                     |     
      -----------------------------------------------------------      

   * xtb version 6.7.1 (edcfbbe) compiled by 'conda@5dfe00f5fb80' on 2026-06-10

   xtb is free software: you can redistribute it and/or modify it under
   the terms of the GNU Lesser General Public License as published by
   the Free Software Foundation, either version 3 of the License, or
   (at your option) any later version.
   
   xtb is distributed in the hope that it will be useful,
   but WITHOUT ANY WARRANTY; without even the implied warranty of
   MERCHANTABILITY or FITNESS FOR A PARTICULAR PURPOSE.  See the
   GNU Lesser General Public License for more details.
   
   Cite this work as:
   * C. Bannwarth, E. Caldeweyher, S. Ehlert, A. Hansen, P. Pracht,
     J. Seibert, S. Spicher, S. Grimme, WIREs Comput. Mol. Sci., 2020, 11,
     e01493. DOI: 10.1002/wcms.1493
   
   for GFN2-xTB:
   * C. Bannwarth, S. Ehlert and S. Grimme., J. Chem. Theory Comput., 2019,
     15, 1652-1671. DOI: 10.1021/acs.jctc.8b01176
   for GFN1-xTB:
   * S. Grimme, C. Bannwarth, P. Shushkov, J. Chem. Theory Comput., 2017,
     13, 1989-2009. DOI: 10.1021/acs.jctc.7b00118
   for GFN0-xTB:
   * P. Pracht, E. Caldeweyher, S. Ehlert, S. Grimme, ChemRxiv, 2019, preprint.
     DOI: 10.26434/chemrxiv.8326202.v1
   for GFN-FF:
   * S. Spicher and S. Grimme, Angew. Chem. Int. Ed., 2020, 59, 15665-15673.
     DOI: 10.1002/anie.202004239
   
   for ALPB and GBSA implicit solvation:
   * S. Ehlert, M. Stahn, S. Spicher, S. Grimme, J. Chem. Theory Comput.,
     2021, 17, 4250-4261. DOI: 10.1021/acs.jctc.1c00471
   
   for ddCOSMO and CPCM-X implicit solvation:
   * M. Stahn, S. Ehlert, S. Grimme, J. Phys. Chem. A,
     2023, XX, XXXX-XXXX. DOI: 10.1021/acs.jpca.3c04382
   
   for DFT-D4:
   * E. Caldeweyher, C. Bannwarth and S. Grimme, J. Chem. Phys., 2017,
     147, 034112. DOI: 10.1063/1.4993215
   * E. Caldeweyher, S. Ehlert, A. Hansen, H. Neugebauer, S. Spicher,
     C. Bannwarth and S. Grimme, J. Chem. Phys., 2019, 150, 154122.
     DOI: 10.1063/1.5090222
   * E. Caldeweyher, J.-M. Mewes, S. Ehlert and S. Grimme, Phys. Chem. Chem. Phys.
     2020, 22, 8499-8512. DOI: 10.1039/D0CP00502A
   
   for sTDA-xTB:
   * S. Grimme and C. Bannwarth, J. Chem. Phys., 2016, 145, 054103.
     DOI: 10.1063/1.4959605
   
   in the mass-spec context:
   * V. Asgeirsson, C. Bauer and S. Grimme, Chem. Sci., 2017, 8, 4879.
     DOI: 10.1039/c7sc00601b
   * J. Koopman and S. Grimme, ACS Omega 2019, 4, 12, 15120-15133.
     DOI: 10.1021/acsomega.9b02011
   
   for metadynamics refer to:
   * S. Grimme, J. Chem. Theory Comput., 2019, 155, 2847-2862
     DOI: 10.1021/acs.jctc.9b00143
   
   for SPH calculations refer to:
   * S. Spicher and S. Grimme, J. Chem. Theory Comput., 2021, 17, 1701-1714
     DOI: 10.1021/acs.jctc.0c01306
   
   for ONIOM refer to:
   * C. Plett, A. Katbashev, S. Ehlert, S. Grimme, M. Bursch,
     Phys. Chem. Chem. Phys., 2023, 25, 17860-17868. DOI: 10.1039/D3CP02178E
   
   for DIPRO refer to:
   * J. Kohn, N. Gildemeister, S. Grimme, D. Fazzi, A. Hansen,
     J. Chem. Phys., 2023, just accepted.
   
   for PTB refer to:
   * S. Grimme, M. Mueller, A. Hansen, J. Chem. Phys., 2023, 158, 124111.
     DOI: 10.1063/5.0137838
   
   with help from (in alphabetical order)
   P. Atkinson, C. Bannwarth, F. Bohle, G. Brandenburg, E. Caldeweyher
   M. Checinski, S. Dohm, S. Ehlert, S. Ehrlich, I. Gerasimov, C. Hölzer
   A. Katbashev, J. Kohn, J. Koopman, C. Lavigne, S. Lehtola, F. März, M. Müller,
   F. Musil, H. Neugebauer, J. Pisarek, C. Plett, P. Pracht, F. Pultar,
   J. Seibert, P. Shushkov, S. Spicher, M. Stahn, M. Steiner, T. Strunk,
   J. Stückrath, T. Rose, and J. Unsleber
   
 * started run on 2026/07/08 at 17:29:38.658     
   ID    Z sym.   atoms
    1    8 O      1, 6
    2    6 C      2-5
    3    1 H      7-12

           -------------------------------------------------
          |                Calculation Setup                |
           -------------------------------------------------

          program call               : /home/ws/xd2484/miniforge3/envs/p3z_dft/bin/xtb xtb_input.xyz --gfn 2 --opt tight --cycles 500 --chrg 0 --uhf 0
          hostname                   : gpu10
          coordinate file            : xtb_input.xyz
          omp threads                :                    16


           -------------------------------------------------
          |                 G F N 2 - x T B                 |
           -------------------------------------------------

        Reference                      10.1021/acs.jctc.8b01176
      * Hamiltonian:
        H0-scaling (s, p, d)           1.850000    2.230000    2.230000
        zeta-weighting                 0.500000
      * Dispersion:
        s8                             2.700000
        a1                             0.520000
        a2                             5.000000
        s9                             5.000000
      * Repulsion:
        kExp                           1.500000    1.000000
        rExp                           1.000000
      * Coulomb:
        alpha                          2.000000
        third order                    shell-resolved
        anisotropic                    true
        a3                             3.000000
        a5                             4.000000
        cn-shift                       1.200000
        cn-exp                         4.000000
        max-rad                        5.000000


          ...................................................
          :                      SETUP                      :
          :.................................................:
          :  # basis functions                  30          :
          :  # atomic orbitals                  30          :
          :  # shells                           18          :
          :  # electrons                        34          :
          :  max. iterations                   250          :
          :  Hamiltonian                  GFN2-xTB          :
          :  restarted?                      false          :
          :  GBSA solvation                  false          :
          :  PC potential                    false          :
          :  electronic temp.          300.0000000     K    :
          :  accuracy                    1.0000000          :
          :  -> integral cutoff          0.2500000E+02      :
          :  -> integral neglect         0.1000000E-07      :
          :  -> SCF convergence          0.1000000E-05 Eh   :
          :  -> wf. convergence          0.1000000E-03 e    :
          :  Broyden damping             0.4000000          :
          :  net charge                          0          :
          :  unpaired electrons                  0          :
          ...................................................

 iter      E             dE          RMSdq      gap      omega  full diag
   1    -19.9079371 -0.199079E+02  0.457E+00    5.61       0.0  T
   2    -19.9567149 -0.487778E-01  0.234E+00    4.51       1.0  T
   3    -19.9598076 -0.309272E-02  0.138E+00    5.03       1.0  T
   4    -19.9627936 -0.298595E-02  0.158E-01    4.75       1.0  T
   5    -19.9629427 -0.149150E-03  0.738E-02    4.80       1.0  T
   6    -19.9629448 -0.208822E-05  0.191E-02    4.79       1.5  T
   7    -19.9629454 -0.592821E-06  0.639E-03    4.79       4.5  T
   8    -19.9629455 -0.652849E-07  0.238E-03    4.79      12.1  T
   9    -19.9629455 -0.498547E-08  0.934E-04    4.79      30.9  T
  10    -19.9629455 -0.206191E-08  0.195E-04    4.79     148.2  T

   *** convergence criteria satisfied after 10 iterations ***

         #    Occupation            Energy/Eh            Energy/eV
      -------------------------------------------------------------
         1        2.0000           -0.7476505             -20.3446
       ...           ...                  ...                  ...
        11        2.0000           -0.5288847             -14.3917
        12        2.0000           -0.5111398             -13.9088
        13        2.0000           -0.4988765             -13.5751
        14        2.0000           -0.4864130             -13.2360
        15        2.0000           -0.4704485             -12.8016
        16        2.0000           -0.4486739             -12.2090
        17        2.0000           -0.4196431             -11.4191 (HOMO)
        18                         -0.2435161              -6.6264 (LUMO)
        19                         -0.0041444              -0.1128
        20                          0.0566090               1.5404
        21                          0.0843335               2.2948
        22                          0.0937107               2.5500
       ...                                ...                  ...
        30                          0.5846195              15.9083
      -------------------------------------------------------------
                  HL-Gap            0.1761270 Eh            4.7927 eV
             Fermi-level           -0.3315796 Eh           -9.0227 eV

 SCC (total)                   0 d,  0 h,  0 min,  0.173 sec
 SCC setup                      ...        0 min,  0.003 sec (  1.972%)
 Dispersion                     ...        0 min,  0.007 sec (  4.181%)
 classical contributions        ...        0 min,  0.004 sec (  2.115%)
 integral evaluation            ...        0 min,  0.011 sec (  6.461%)
 iterations                     ...        0 min,  0.115 sec ( 66.074%)
 molecular gradient             ...        0 min,  0.033 sec ( 19.108%)
 printout                       ...        0 min,  0.000 sec (  0.074%)

         :::::::::::::::::::::::::::::::::::::::::::::::::::::
         ::                     SUMMARY                     ::
         :::::::::::::::::::::::::::::::::::::::::::::::::::::
         :: total energy             -19.766965253319 Eh    ::
         :: gradient norm              0.064564672106 Eh/a0 ::
         :: HOMO-LUMO gap              4.792659607537 eV    ::
         ::.................................................::
         :: SCC energy               -19.962940536971 Eh    ::
         :: -> isotropic ES            0.044529063438 Eh    ::
         :: -> anisotropic ES          0.002154448958 Eh    ::
         :: -> anisotropic XC          0.002936877183 Eh    ::
         :: -> dispersion             -0.006504046746 Eh    ::
         :: repulsion energy           0.195975283652 Eh    ::
         :: add. restraining           0.000000000000 Eh    ::
         :: total charge              -0.000000000000 e     ::
         :::::::::::::::::::::::::::::::::::::::::::::::::::::

      ----------------------------------------------------------- 
     |                   =====================                   |
     |                        A N C O P T                        |
     |                   =====================                   |
     |               Approximate Normal Coordinate               |
     |                Rational Function Optimizer                |
      ----------------------------------------------------------- 
      ----------------------------------------------------------- 
     |                   =====================                   |
     |                        A N C O P T                        |
     |                   =====================                   |
     |               Approximate Normal Coordinate               |
     |                Rational Function Optimizer                |
      ----------------------------------------------------------- 

          ...................................................
          :                      SETUP                      :
          :.................................................:
          :   optimization level             tight          :
          :   max. optcycles                   500          :
          :   ANC micro-cycles                  20          :
          :   degrees of freedom                30          :
          :.................................................:
          :   RF solver                   davidson          :
          :   write xtbopt.log                true          :
          :   linear?                        false          :
          :   energy convergence         0.1000000E-05 Eh   :
          :   grad. convergence          0.8000000E-03 Eh/α :
          :   maxmium RF displ.          1.0000000          :
          :   Hlow (freq-cutoff)         0.1000000E-01      :
          :   Hmax (freq-cutoff)         5.0000000          :
          :   S6 in model hess.         20.0000000          :
          ...................................................

generating ANC from exact Hessian ...
Using Lindh-Hessian (1995)
 Shifting diagonal of input Hessian by    0.0000000000000000     
 Lowest  eigenvalues of input Hessian
    0.000000    0.000000    0.000000    0.000000    0.000000    0.000000
    0.013811    0.026469    0.040127    0.052327    0.054570    0.056717
    0.062820    0.072286    0.082394    0.084609    0.107340    0.123080
 Highest eigenvalues
    1.198456    1.292433    1.304949    1.390929    1.630404    2.262688


........................................................................
.............................. CYCLE    1 ..............................
........................................................................

 iter      E             dE          RMSdq      gap      omega  full diag
   1    -19.9629455 -0.199629E+02  0.942E-05    4.79       0.0  T
   2    -19.9629455 -0.130491E-10  0.566E-05    4.79     509.6  T
   3    -19.9629455 -0.134648E-11  0.317E-05    4.79     909.5  T
     SCC iter.                  ...        0 min,  0.031 sec
     gradient                   ...        0 min,  0.039 sec
 * total energy  :   -19.7669653 Eh     change       -0.1162803E-09 Eh
   gradient norm :     0.0645637 Eh/α   predicted     0.0000000E+00 (-100.00%)
   displ. norm   :     0.1768502 α      lambda       -0.4721973E-02
   maximum displ.:     0.0961639 α      in ANC's #7, #10, #1, ...

........................................................................
.............................. CYCLE    2 ..............................
........................................................................

 iter      E             dE          RMSdq      gap      omega  full diag
   1    -19.9704545 -0.199705E+02  0.251E-01    5.04       0.0  T
   2    -19.9705140 -0.594626E-04  0.156E-01    5.02       1.0  T
   3    -19.9705120  0.196685E-05  0.458E-02    5.03       1.0  T
   4    -19.9705188 -0.678892E-05  0.734E-03    5.02       3.9  T
   5    -19.9705190 -0.260582E-06  0.432E-03    5.02       6.7  T
   6    -19.9705191 -0.394535E-07  0.128E-03    5.02      22.6  T
   7    -19.9705191 -0.848502E-09  0.626E-04    5.02      46.1  T
   8    -19.9705191 -0.395989E-09  0.103E-04    5.02     279.3  T
     SCC iter.                  ...        0 min,  0.102 sec
     gradient                   ...        0 min,  0.039 sec
 * total energy  :   -19.7699010 Eh     change       -0.2935707E-02 Eh
   gradient norm :     0.0182322 Eh/α   predicted    -0.2434828E-02 ( -17.06%)
   displ. norm   :     0.0971263 α      lambda       -0.6943383E-03
   maximum displ.:     0.0617935 α      in ANC's #3, #1, #10, ...

........................................................................
.............................. CYCLE    3 ..............................
........................................................................

 iter      E             dE          RMSdq      gap      omega  full diag
   1    -19.9725313 -0.199725E+02  0.108E-01    5.11       0.0  T
   2    -19.9725400 -0.875903E-05  0.666E-02    5.10       1.0  T
   3    -19.9725395  0.464281E-06  0.182E-02    5.11       1.6  T
   4    -19.9725409 -0.130860E-05  0.315E-03    5.10       9.2  T
   5    -19.9725409 -0.340017E-07  0.185E-03    5.10      15.6  T
   6    -19.9725409 -0.642541E-08  0.582E-04    5.10      49.6  T
   7    -19.9725409 -0.227029E-09  0.256E-04    5.10     112.7  T
     SCC iter.                  ...        0 min,  0.092 sec
     gradient                   ...        0 min,  0.039 sec
 * total energy  :   -19.7702698 Eh     change       -0.3687932E-03 Eh
   gradient norm :     0.0063379 Eh/α   predicted    -0.3504431E-03 (  -4.98%)
   displ. norm   :     0.0688982 α      lambda       -0.1269398E-03
   maximum displ.:     0.0594889 α      in ANC's #1, #2, #3, ...

........................................................................
.............................. CYCLE    4 ..............................
........................................................................

 iter      E             dE          RMSdq      gap      omega  full diag
   1    -19.9724608 -0.199725E+02  0.431E-02    5.10       0.0  T
   2    -19.9724621 -0.126909E-05  0.261E-02    5.10       1.1  T
   3    -19.9724621 -0.192685E-07  0.526E-03    5.10       5.5  T
   4    -19.9724621 -0.165443E-07  0.967E-04    5.10      29.9  T
   5    -19.9724622 -0.360773E-08  0.541E-04    5.10      53.4  T
     SCC iter.                  ...        0 min,  0.075 sec
     gradient                   ...        0 min,  0.038 sec
 * total energy  :   -19.7703399 Eh     change       -0.7009754E-04 Eh
   gradient norm :     0.0035582 Eh/α   predicted    -0.6377277E-04 (  -9.02%)
   displ. norm   :     0.0588596 α      lambda       -0.5183752E-04
   maximum displ.:     0.0506549 α      in ANC's #1, #2, #3, ...

........................................................................
.............................. CYCLE    5 ..............................
........................................................................

 iter      E             dE          RMSdq      gap      omega  full diag
   1    -19.9722249 -0.199722E+02  0.353E-02    5.10       0.0  T
   2    -19.9722256 -0.708132E-06  0.210E-02    5.10       1.4  T
   3    -19.9722256 -0.688796E-08  0.412E-03    5.10       7.0  T
   4    -19.9722256 -0.204857E-07  0.739E-04    5.10      39.1  T
   5    -19.9722256 -0.169382E-08  0.381E-04    5.10      75.8  T
     SCC iter.                  ...        0 min,  0.112 sec
     gradient                   ...        0 min,  0.038 sec
 * total energy  :   -19.7703792 Eh     change       -0.3932746E-04 Eh
   gradient norm :     0.0018597 Eh/α   predicted    -0.2600891E-04 ( -33.87%)
   displ. norm   :     0.1266287 α      lambda       -0.4542709E-04
   maximum displ.:     0.1134132 α      in ANC's #1, #2, #3, ...

........................................................................
.............................. CYCLE    6 ..............................
........................................................................

 iter      E             dE          RMSdq      gap      omega  full diag
   1    -19.9720406 -0.199720E+02  0.692E-02    5.09       0.0  T
   2    -19.9720417 -0.103269E-05  0.415E-02    5.09       1.0  T
   3    -19.9720416  0.608235E-07  0.564E-03    5.09       5.1  T
   4    -19.9720418 -0.171165E-06  0.145E-03    5.09      19.9  T
   5    -19.9720418 -0.536646E-08  0.779E-04    5.09      37.0  T
   6    -19.9720418 -0.355417E-09  0.249E-04    5.09     116.2  T
     SCC iter.                  ...        0 min,  0.075 sec
     gradient                   ...        0 min,  0.034 sec
 * total energy  :   -19.7704152 Eh     change       -0.3600143E-04 Eh
   gradient norm :     0.0021383 Eh/α   predicted    -0.2287547E-04 ( -36.46%)
   displ. norm   :     0.0207098 α      lambda       -0.8121363E-05
   maximum displ.:     0.0202625 α      in ANC's #1, #7, #18, ...

........................................................................
.............................. CYCLE    7 ..............................
........................................................................

 iter      E             dE          RMSdq      gap      omega  full diag
   1    -19.9722714 -0.199723E+02  0.988E-03    5.10       0.0  T
   2    -19.9722714 -0.276383E-07  0.586E-03    5.10       4.9  T
   3    -19.9722714  0.353158E-08  0.106E-03    5.10      27.2  T
   4    -19.9722714 -0.705298E-08  0.247E-04    5.10     116.7  T
   5    -19.9722714 -0.161304E-09  0.132E-04    5.10     218.3  T
     SCC iter.                  ...        0 min,  0.055 sec
     gradient                   ...        0 min,  0.040 sec
 * total energy  :   -19.7704217 Eh     change       -0.6488574E-05 Eh
   gradient norm :     0.0011531 Eh/α   predicted    -0.4063768E-05 ( -37.37%)
   displ. norm   :     0.0312039 α      lambda       -0.6121094E-05
   maximum displ.:     0.0299056 α      in ANC's #1, #2, #3, ...

........................................................................
.............................. CYCLE    8 ..............................
........................................................................

 iter      E             dE          RMSdq      gap      omega  full diag
   1    -19.9725809 -0.199726E+02  0.162E-02    5.10       0.0  T
   2    -19.9725810 -0.102115E-06  0.946E-03    5.10       3.1  T
   3    -19.9725810 -0.588456E-08  0.136E-03    5.10      21.2  T
   4    -19.9725810 -0.262053E-08  0.430E-04    5.10      67.1  T
   5    -19.9725810 -0.496819E-09  0.234E-04    5.10     123.3  T
     SCC iter.                  ...        0 min,  0.058 sec
     gradient                   ...        0 min,  0.041 sec
 * total energy  :   -19.7704269 Eh     change       -0.5190163E-05 Eh
   gradient norm :     0.0007213 Eh/α   predicted    -0.3061805E-05 ( -41.01%)
   displ. norm   :     0.0152133 α      lambda       -0.1443012E-05
   maximum displ.:     0.0147707 α      in ANC's #1, #2, #9, ...

........................................................................
.............................. CYCLE    9 ..............................
........................................................................

 iter      E             dE          RMSdq      gap      omega  full diag
   1    -19.9724725 -0.199725E+02  0.741E-03    5.10       0.0  T
   2    -19.9724725 -0.519054E-08  0.439E-03    5.10       6.6  T
   3    -19.9724725  0.545270E-10  0.465E-04    5.10      62.1  T
   4    -19.9724725 -0.155348E-08  0.153E-04    5.10     189.1  T
     SCC iter.                  ...        0 min,  0.055 sec
     gradient                   ...        0 min,  0.039 sec
 * total energy  :   -19.7704286 Eh     change       -0.1776653E-05 Eh
   gradient norm :     0.0004586 Eh/α   predicted    -0.7222351E-06 ( -59.35%)
   displ. norm   :     0.0165314 α      lambda       -0.1148108E-05
   maximum displ.:     0.0158583 α      in ANC's #1, #2, #14, ...

........................................................................
.............................. CYCLE   10 ..............................
........................................................................

 iter      E             dE          RMSdq      gap      omega  full diag
   1    -19.9724345 -0.199724E+02  0.902E-03    5.10       0.0  T
   2    -19.9724345 -0.104126E-07  0.533E-03    5.10       5.4  T
   3    -19.9724345 -0.151754E-09  0.518E-04    5.10      55.7  T
   4    -19.9724345 -0.159752E-08  0.161E-04    5.10     178.9  T
     SCC iter.                  ...        0 min,  0.053 sec
     gradient                   ...        0 min,  0.038 sec
 * total energy  :   -19.7704298 Eh     change       -0.1199426E-05 Eh
   gradient norm :     0.0001520 Eh/α   predicted    -0.5727920E-06 ( -52.24%)
   displ. norm   :     0.0101356 α      lambda       -0.3168480E-06
   maximum displ.:     0.0100121 α      in ANC's #1, #2, #3, ...

........................................................................
.............................. CYCLE   11 ..............................
........................................................................

 iter      E             dE          RMSdq      gap      omega  full diag
   1    -19.9723986 -0.199724E+02  0.463E-03    5.10       0.0  T
   2    -19.9723986 -0.289598E-08  0.273E-03    5.10      10.6  T
   3    -19.9723986 -0.265945E-09  0.214E-04    5.10     134.9  T
   4    -19.9723986 -0.163482E-09  0.873E-05    5.10     330.8  T
     SCC iter.                  ...        0 min,  0.049 sec
     gradient                   ...        0 min,  0.039 sec
 * total energy  :   -19.7704302 Eh     change       -0.3566211E-06 Eh
   gradient norm :     0.0001037 Eh/α   predicted    -0.1574964E-06 ( -55.84%)
   displ. norm   :     0.0057481 α      lambda       -0.1172575E-06
   maximum displ.:     0.0056928 α      in ANC's #1, #14, #18, ...

   *** GEOMETRY OPTIMIZATION CONVERGED AFTER 11 ITERATIONS ***

------------------------------------------------------------------------
 total energy gain   :        -0.0034649 Eh       -2.1743 kcal/mol
 total RMSD          :         0.1428483 a0        0.0756 Å
 total power (kW/mol):        -0.8270175 (step)   -5.8919 (real)
------------------------------------------------------------------------

 ANCopt (total)                0 d,  0 h,  0 min,  1.544 sec
 optimizer setup                ...        0 min,  0.001 sec (  0.034%)
 model hessian                  ...        0 min,  0.003 sec (  0.182%)
 ANC generation                 ...        0 min,  0.000 sec (  0.018%)
 coordinate transformation      ...        0 min,  0.000 sec (  0.005%)
 single point calculation       ...        0 min,  1.494 sec ( 96.766%)
 optimization log               ...        0 min,  0.001 sec (  0.053%)
 hessian update                 ...        0 min,  0.043 sec (  2.794%)
 rational function              ...        0 min,  0.001 sec (  0.065%)

================
 final structure:
================
12
 xtb: 6.7.1 (edcfbbe)
O            2.28717947267318       -1.23084308945618        0.33774838980184
C            1.20069008826187       -0.74134180700633        0.25422753010342
C            0.85357969734971        0.64966317580932       -0.26218811047542
C           -0.64909237601215        0.56475898843496       -0.50124420144610
C           -1.06478346311117       -0.55299840172678        0.46319994017714
O            0.08053607913578       -1.37614665873285        0.62966020257665
H            1.10643469972910        1.36854383332153        0.51991912415548
H            1.43754431212291        0.88744590974675       -1.14796677374948
H           -0.85434419038228        0.26990146717681       -1.53074783099812
H           -1.17367379876474        1.49370529805625       -0.29185016392862
H           -1.87522677479454       -1.17775948768843        0.08480709173278
H           -1.34884374620767       -0.15492922793502        1.44443480205145

 Bond Distances (Angstroems)
 ---------------------------
O1-C2=1.1946         C2-O1=1.1946         C2-C3=1.5238         C2-O6=1.3411         C3-C2=1.5238         C3-C4=1.5239         
C3-H7=1.0920         C3-H8=1.0873         C4-C3=1.5239         C4-C5=1.5337         C4-H9=1.0904         C4-H10=1.0872        
C5-C4=1.5337         C5-O6=1.4202         C5-H11=1.0910        C5-H12=1.0963        O6-C2=1.3411         O6-C5=1.4202         
H7-C3=1.0920         H8-C3=1.0873         H9-C4=1.0904         H10-C4=1.0872        H11-C5=1.0910        H12-C5=1.0963        
 C  H  Rav=1.0907 sigma=0.0031  Rmin=1.0872  Rmax=1.0963     6
 C  C  Rav=1.5272 sigma=0.0046  Rmin=1.5238  Rmax=1.5337     3
 O  C  Rav=1.3187 sigma=0.0935  Rmin=1.1946  Rmax=1.4202     3

 selected bond angles (degree)
 --------------------
C3-C2-O1=127.22                O6-C2-O1=123.10                O6-C2-C3=109.68                C4-C3-C2=103.12                
H7-C3-C2=107.79                H7-C3-C4=112.17                H8-C3-C2=110.69                H8-C3-C4=114.46                
H8-C3-H7=108.37                C5-C4-C3=102.08                H9-C4-C3=110.41                H9-C4-C5=110.22                
H10-C4-C3=113.45               H10-C4-C5=111.77               H10-C4-H9=108.79               O6-C5-C4=106.11                
H11-C5-C4=113.61               H11-C5-O6=107.93               H12-C5-C4=111.62               H12-C5-O6=108.33               
H12-C5-H11=109.02              C5-O6-C2=111.49                

 selected dihedral angles (degree)
 ---------------------------------
C4-C3-C2-O1=164.61            C4-C3-C2-O6=344.20            H7-C3-C2-O1=283.40            H7-C3-C2-O6=103.00            
H8-C3-C2-O1= 41.76            H8-C3-C2-O6=221.36            C5-C4-C3-C2= 24.86            C5-C4-C3-H7=269.16            
C5-C4-C3-H8=145.17            H9-C4-C3-C2=267.69            H9-C4-C3-H7=151.99            H9-C4-C3-H8= 27.99            
H10-C4-C3-C2=145.27           H10-C4-C3-H7= 29.57           H10-C4-C3-H8=265.57           O6-C5-C4-C3=333.31            
O6-C5-C4-H9= 90.62            O6-C5-C4-H10=211.73           H11-C5-C4-C3=214.89           H11-C5-C4-H9=332.20           
H11-C5-C4-H10= 93.31          H12-C5-C4-C3= 91.12           H12-C5-C4-H9=208.44           H12-C5-C4-H10=329.54          
C5-O6-C2-O1=178.16            C5-O6-C2-C3=358.54            C2-O6-C5-C4= 18.23            C2-O6-C5-H11=140.35           
C2-O6-C5-H12=258.25           
           -------------------------------------------------
          |                Final Singlepoint                |
           -------------------------------------------------

          ...................................................
          :                      SETUP                      :
          :.................................................:
          :  # basis functions                  30          :
          :  # atomic orbitals                  30          :
          :  # shells                           18          :
          :  # electrons                        34          :
          :  max. iterations                   250          :
          :  Hamiltonian                  GFN2-xTB          :
          :  restarted?                      false          :
          :  GBSA solvation                  false          :
          :  PC potential                    false          :
          :  electronic temp.          300.0000000     K    :
          :  accuracy                    1.0000000          :
          :  -> integral cutoff          0.2500000E+02      :
          :  -> integral neglect         0.1000000E-07      :
          :  -> SCF convergence          0.1000000E-05 Eh   :
          :  -> wf. convergence          0.1000000E-03 e    :
          :  Broyden damping             0.4000000          :
          :  net charge                          0          :
          :  unpaired electrons                  0          :
          ...................................................

 iter      E             dE          RMSdq      gap      omega  full diag
   1    -19.9723986 -0.199724E+02  0.503E-05    5.10       0.0  T
   2    -19.9723986 -0.179767E-11  0.323E-05    5.10     894.8  T
   3    -19.9723986 -0.241585E-12  0.124E-05    5.10    2335.2  T

   *** convergence criteria satisfied after 3 iterations ***

         #    Occupation            Energy/Eh            Energy/eV
      -------------------------------------------------------------
         1        2.0000           -0.7508733             -20.4323
       ...           ...                  ...                  ...
        11        2.0000           -0.5276588             -14.3583
        12        2.0000           -0.5098968             -13.8750
        13        2.0000           -0.4976923             -13.5429
        14        2.0000           -0.4862852             -13.2325
        15        2.0000           -0.4698192             -12.7844
        16        2.0000           -0.4470332             -12.1644
        17        2.0000           -0.4188179             -11.3966 (HOMO)
        18                         -0.2313202              -6.2945 (LUMO)
        19                         -0.0002599              -0.0071
        20                          0.0535481               1.4571
        21                          0.0786267               2.1395
        22                          0.0887373               2.4147
       ...                                ...                  ...
        30                          0.6656076              18.1121
      -------------------------------------------------------------
                  HL-Gap            0.1874976 Eh            5.1021 eV
             Fermi-level           -0.3250690 Eh           -8.8456 eV

 SCC (total)                   0 d,  0 h,  0 min,  0.099 sec
 SCC setup                      ...        0 min,  0.003 sec (  3.053%)
 Dispersion                     ...        0 min,  0.007 sec (  7.391%)
 classical contributions        ...        0 min,  0.004 sec (  3.604%)
 integral evaluation            ...        0 min,  0.011 sec ( 10.841%)
 iterations                     ...        0 min,  0.042 sec ( 42.238%)
 molecular gradient             ...        0 min,  0.032 sec ( 32.748%)
 printout                       ...        0 min,  0.000 sec (  0.097%)

         :::::::::::::::::::::::::::::::::::::::::::::::::::::
         ::                     SUMMARY                     ::
         :::::::::::::::::::::::::::::::::::::::::::::::::::::
         :: total energy             -19.770430191043 Eh    ::
         :: gradient norm              0.000103652743 Eh/a0 ::
         :: HOMO-LUMO gap              5.102070495306 eV    ::
         ::.................................................::
         :: SCC energy               -19.972393451347 Eh    ::
         :: -> isotropic ES            0.043448428144 Eh    ::
         :: -> anisotropic ES          0.001858152648 Eh    ::
         :: -> anisotropic XC          0.002740224874 Eh    ::
         :: -> dispersion             -0.006489982281 Eh    ::
         :: repulsion energy           0.201963260304 Eh    ::
         :: add. restraining           0.000000000000 Eh    ::
         :: total charge               0.000000000000 e     ::
         :::::::::::::::::::::::::::::::::::::::::::::::::::::

           -------------------------------------------------
          |                Property Printout                |
           -------------------------------------------------

    * Orbital Energies and Occupations

         #    Occupation            Energy/Eh            Energy/eV
      -------------------------------------------------------------
         1        2.0000           -0.7508733             -20.4323
       ...           ...                  ...                  ...
         5        2.0000           -0.6269262             -17.0595
         6        2.0000           -0.6080887             -16.5469
         7        2.0000           -0.5987399             -16.2925
         8        2.0000           -0.5732812             -15.5998
         9        2.0000           -0.5524322             -15.0324
        10        2.0000           -0.5363291             -14.5943
        11        2.0000           -0.5276588             -14.3583
        12        2.0000           -0.5098968             -13.8750
        13        2.0000           -0.4976923             -13.5429
        14        2.0000           -0.4862852             -13.2325
        15        2.0000           -0.4698192             -12.7844
        16        2.0000           -0.4470332             -12.1644
        17        2.0000           -0.4188179             -11.3966 (HOMO)
        18                         -0.2313202              -6.2945 (LUMO)
        19                         -0.0002599              -0.0071
        20                          0.0535481               1.4571
        21                          0.0786267               2.1395
        22                          0.0887373               2.4147
        23                          0.1063700               2.8945
        24                          0.1286235               3.5000
        25                          0.1546704               4.2088
        26                          0.2019008               5.4940
        27                          0.2354010               6.4056
        28                          0.2858311               7.7779
       ...                                ...                  ...
        30                          0.6656076              18.1121
      -------------------------------------------------------------
                  HL-Gap            0.1874976 Eh            5.1021 eV
             Fermi-level           -0.3250690 Eh           -8.8456 eV

     #   Z          covCN         q      C6AA      α(0)
     1   8 O        0.856    -0.375    21.184     6.171
     2   6 C        2.770     0.360    20.892     7.486
     3   6 C        3.823    -0.097    22.329     6.724
     4   6 C        3.820    -0.069    21.799     6.644
     5   6 C        3.759     0.068    19.493     6.294
     6   8 O        1.706    -0.252    18.179     5.757
     7   1 H        0.924     0.071     2.080     2.255
     8   1 H        0.925     0.071     2.070     2.250
     9   1 H        0.924     0.053     2.277     2.360
    10   1 H        0.925     0.053     2.280     2.361
    11   1 H        0.924     0.063     2.163     2.300
    12   1 H        0.924     0.053     2.283     2.363

 Mol. C6AA /au·bohr⁶  :       1297.992526
 Mol. C8AA /au·bohr⁸  :      28604.924745
 Mol. α(0) /au        :         52.965599


Wiberg/Mayer (AO) data.
largest (>0.10) Wiberg bond orders for each atom

 ---------------------------------------------------------------------------
     #   Z sym  total        # sym  WBO       # sym  WBO       # sym  WBO
 ---------------------------------------------------------------------------
     1   8 O    2.075 --     2 C    1.787     6 O    0.165
     2   6 C    3.917 --     1 O    1.787     6 O    1.121     3 C    0.958
     3   6 C    3.996 --     4 C    1.012     8 H    0.967     2 C    0.958
                             7 H    0.953
     4   6 C    3.994 --     3 C    1.012     5 C    0.996     9 H    0.980
                            10 H    0.979
     5   6 C    3.933 --     4 C    0.996    11 H    0.972    12 H    0.970
                             6 O    0.957
     6   8 O    2.314 --     2 C    1.121     5 C    0.957     1 O    0.165
     7   1 H    0.995 --     3 C    0.953
     8   1 H    0.995 --     3 C    0.967
     9   1 H    0.997 --     4 C    0.980
    10   1 H    0.997 --     4 C    0.979
    11   1 H    0.996 --     5 C    0.972
    12   1 H    0.997 --     5 C    0.970
 ---------------------------------------------------------------------------

Topologies differ in total number of bonds
Writing topology from bond orders to xtbtopo.mol

molecular dipole:
                 x           y           z       tot (Debye)
 q only:       -1.271       1.084      -0.309
   full:       -1.464       1.235      -0.321       4.937
molecular quadrupole (traceless):
                xx          xy          yy          xz          yz          zz
 q only:       -2.388       5.445      -0.721      -1.761       1.281       3.109
  q+dip:       -4.969       7.136      -0.564      -2.096       2.674       5.534
   full:       -4.613       6.971      -0.846      -1.985       2.602       5.459

           -------------------------------------------------
          |                Geometry Summary                 |
           -------------------------------------------------

      molecular mass/u    :       86.0893979
   center of mass at/Å    :        0.4558147      -0.4641909       0.1625832
  moments of inertia/u·Å² :        0.6900974E+02   0.1393956E+03   0.1962203E+03
rotational constants/cm⁻¹ :        0.2442790E+00   0.1209338E+00   0.8591175E-01

 * 11 selected distances

     #   Z          #   Z                                           value/Å
     1   8 O        2   6 C                                       1.1945906
     3   6 C        4   6 C                                       1.5239358
     4   6 C        5   6 C                                       1.5337319 (max)
     2   6 C        6   8 O                                       1.3411459
     5   6 C        6   8 O                                       1.4202251
     3   6 C        7   1 H                                       1.0919785
     3   6 C        8   1 H                                       1.0872715
     4   6 C        9   1 H                                       1.0903886
     4   6 C       10   1 H                                       1.0871858 (min)
     5   6 C       11   1 H                                       1.0910207
     5   6 C       12   1 H                                       1.0963446

 * 3 distinct bonds (by element types)

   Z      Z             #   av. dist./Å        max./Å        min./Å
   1 H    6 C           6     1.0906983     1.0963446     1.0871858
   6 C    6 C           2     1.5288339     1.5337319     1.5239358
   6 C    8 O           3     1.3186538     1.4202251     1.1945906


optimized geometry written to: xtbopt.xyz


           -------------------------------------------------
          | TOTAL ENERGY              -19.770430191043 Eh   |
          | GRADIENT NORM               0.000103652743 Eh/α |
          | HOMO-LUMO GAP               5.102070495306 eV   |
           -------------------------------------------------

------------------------------------------------------------------------
 * finished run on 2026/07/08 at 17:29:40.531     
------------------------------------------------------------------------
 total:
 * wall-time:     0 d,  0 h,  0 min,  1.873 sec
 *  cpu-time:     0 d,  0 h,  0 min, 29.851 sec
 * ratio c/w:    15.938 speedup
 SCF:
 * wall-time:     0 d,  0 h,  0 min,  0.173 sec
 *  cpu-time:     0 d,  0 h,  0 min,  2.771 sec
 * ratio c/w:    15.980 speedup
 ANC optimizer:
 * wall-time:     0 d,  0 h,  0 min,  1.647 sec
 *  cpu-time:     0 d,  0 h,  0 min, 26.305 sec
 * ratio c/w:    15.968 speedup

