16
DEC_00092 MMFF geometry for GFN2-xTB preoptimization
N   3.340919797276  1.328627910410 -0.656663300777
C   2.670406705020  0.396809338263 -0.489352106106
C   1.804529494755 -0.770777533105 -0.277648068829
C   0.365126502143 -0.508528499666 -0.729605549944
C  -0.365126627712  0.508527749140  0.161279737289
C  -1.804529370305  0.770777832766 -0.290678030782
C  -2.670407151096 -0.396809030391 -0.078976160592
N  -3.340920625383 -1.328627552246  0.088333464835
H   2.204706485383 -1.617323138962 -0.847789535850
H   1.819205453820 -1.063210220224  0.778358370638
H   0.357143171363 -0.158221118364 -1.769565252778
H  -0.174601264951 -1.462825148524 -0.710021670854
H  -0.357143593385  0.158220140413  1.201239385338
H   0.174601697100  1.462824042465  0.141696344215
H  -2.204706161419  1.617323028248  0.279464274503
H  -1.819204512612  1.063212199776 -1.346683995902
