42
 energy: -49.473567791137 gnorm: 0.000168900636 xtb: 6.7.1 (edcfbbe)
C           -1.99440113594973       -2.08101630247779       -1.26106629756523
C           -1.58127486347772       -1.86018309738587        0.19804400093383
C           -0.18580079113825       -2.42318162163315        0.50195217734055
C            0.96869475779583       -1.84166696362509       -0.30920547100767
C            1.33286293556645       -0.40225350285668        0.06917413899908
C            2.80588301558196       -0.09117738327114       -0.32154523821750
C            3.04011856211674       -0.15217257660367       -1.83017763800594
C            3.24665259298820        1.27841589932417        0.21816948828945
O            3.65285115060288       -1.08761272515750        0.24035484079928
C            0.33346956577086        0.60141084683101       -0.51903089447220
C           -0.96091773423426        0.62089057484808        0.23506053559809
C           -1.73395032380140       -0.41073287211059        0.55968424008550
C           -2.91022276750049        0.01493733652334        1.39852013571200
C           -2.89692724754914        1.54566528007111        1.31629736275795
C           -1.50036614556549        1.92385409216653        0.78777694839393
C           -1.57228731667475        3.04474215952052       -0.24709848188919
H           -3.04146666944683       -1.81737857221060       -1.39354328486484
H           -1.86240451855800       -3.12446027589080       -1.53971347002573
H           -1.40618670741624       -1.46234142447348       -1.93199536392273
H           -2.28262725975481       -2.42706434093884        0.82375888692185
H           -0.21811221051202       -3.50122485139135        0.32024144226200
H            0.01735433180213       -2.27835966430172        1.56663181943511
H            1.84752898388083       -2.46884415282541       -0.13894232102258
H            0.73189761453428       -1.89399626859317       -1.37159925513777
H            1.28200960563530       -0.32000170035044        1.16410002067273
H            4.08241889782717        0.07543818375777       -2.03759128914845
H            2.41038566573678        0.56434926836401       -2.34759947685991
H            2.83303635055452       -1.15187950235654       -2.19812201999851
H            2.83432630159094        2.09268490367486       -0.36930856783874
H            2.93996056700322        1.40338453913984        1.25572161783092
H            4.33182867310368        1.34146437065889        0.16747791603327
H            3.56466448651693       -1.05502067214241        1.19945840562186
H            0.14942748560403        0.35606332293006       -1.56810560476081
H            0.76154545055816        1.60182370154981       -0.48596620969737
H           -3.84570123039351       -0.41231441620913        1.03242792276560
H           -2.77190066645393       -0.33378786740947        2.42659594732849
H           -3.11072834167784        2.01263090568390        2.27643237212602
H           -3.65183572407138        1.88222267388250        0.60482070365259
H           -0.85472328069614        2.25597221704255        1.61136286485224
H           -0.58088332128861        3.35166579023195       -0.57194617818485
H           -2.07036562484569        3.91308316905560        0.17952527549382
H           -2.13383311376194        2.71597151896062       -1.11895389705193
