22
DEC_00251 MMFF geometry for GFN2-xTB preoptimization
C  -3.739436215436 -0.853560637892 -0.447880205386
C  -2.720291755606 -0.382609544331  0.571007520367
O  -1.496455926663 -0.099581371100 -0.119065606509
C  -0.492107875990  0.344387266836  0.680151235623
O  -0.561860601601  0.496621683091  1.890494871089
C   0.720157442474  0.612395029674 -0.138181833415
C   0.501082959679  1.268060451515 -1.384985970087
N   0.342951244952  1.808400057503 -2.400520168765
C   1.958303363897  0.272372179977  0.299169746438
C   3.226246271170  0.588159983787 -0.462660590095
C   2.229338389987 -0.472141902556  1.585744649099
H  -3.380467255031 -1.748517813146 -0.966815723008
H  -4.694528023142 -1.082967376953  0.032762425017
H  -3.903067902202 -0.086595897812 -1.212152525337
H  -2.550653310232 -1.168042877750  1.315958331655
H  -3.083725043350  0.524682836746  1.066400470488
H   3.911281946245  1.158267634699  0.174332540446
H   3.062066067528  1.179584824320 -1.367105056785
H   3.725119734961 -0.339505985989 -0.762758567161
H   1.359322912427 -1.011383123871  1.968151340853
H   3.005279812507 -1.229856549910  1.427782662799
H   2.581443763428  0.221831133163  2.355437463400
