35
REP_00163 MMFF geometry for GFN2-xTB preoptimization
O  -0.015852575558 -2.515779752276  1.291408445424
C  -0.237870721124 -1.524533227849  0.600939636661
O   0.150350771079 -0.261889605023  0.908460998645
C   0.915540980281 -0.113685952450  2.115466180378
C   2.388165423157 -0.413084314425  1.858329714670
C   2.893863699018  0.820630654593  1.115966472482
C   2.002133404849  1.976822676485  1.567388742335
C   0.940214906785  1.366392761827  2.481334095111
C  -1.041630766911 -1.593667802458 -0.714959088288
O  -1.170790714886 -2.995259784456 -1.048398446049
C  -2.464640219099 -1.056441534070 -0.518631535278
C  -2.561613863637  0.465259902950 -0.580515994817
C  -1.917101240221  1.016116142024 -1.846793724293
C  -0.463246677417  0.578319795993 -1.975135717061
C  -0.312138094646 -0.939770754927 -1.896260259801
H   0.484348175145 -0.713739966291  2.924167884262
H   2.922705676119 -0.515075212850  2.810081283439
H   2.551977853500 -1.319181050908  1.267844310327
H   2.794822296308  0.678666135398  0.033236930429
H   3.950820077672  1.011575254839  1.326419092747
H   2.574696605653  2.748449335749  2.092324659979
H   1.535933345303  2.451540696785  0.696484462074
H   1.246061560974  1.489540596503  3.526998027118
H  -0.028879053594  1.855588299819  2.341694604065
H  -1.125889415205 -3.489956357838 -0.204711322806
H  -2.874335632519 -1.407836304396  0.437012117122
H  -3.120368751234 -1.481226727315 -1.291066400558
H  -2.086972004498  0.910689748187  0.300948740346
H  -3.616153606294  0.762945525068 -0.549105708688
H  -2.480642846247  0.672576306841 -2.723043175760
H  -1.972260219632  2.110583314108 -1.841980189399
H  -0.059364031052  0.932278248745 -2.930998611478
H   0.135124529882  1.061052103980 -1.195376813568
H  -0.691642113147 -1.371269175494 -2.832905152215
H   0.754633241196 -1.196629976865 -1.869585128194
