21
DEC_00323 MMFF geometry for GFN2-xTB preoptimization
C   3.621551517154 -0.925515114290  0.332158110919
C   2.791792450049  0.316554399878  0.072245580147
O   1.410366241096 -0.064108474927  0.060219492325
C   0.552727271034  0.961612745597 -0.164087867063
O   0.864178515635  2.127611673602 -0.346968007109
C  -0.854644789346  0.478784130641 -0.160015993585
C  -1.875427418046  1.416413485329 -0.378333915531
C  -3.213144249201  1.016373967331 -0.384582651810
C  -3.537951356952 -0.322920957430 -0.172675685829
C  -2.524569931446 -1.255984738911  0.044442856021
Cl -2.931795792194 -2.907875936706  0.305438500364
C  -1.185805898761 -0.865751960874  0.052435670883
H   4.688260270921 -0.685453584965  0.350704089379
H   3.344563424428 -1.380817935602  1.288765242572
H   3.441604778656 -1.678270643980 -0.442502118685
H   3.064894955535  0.748131074339 -0.897227161306
H   2.966041483187  1.051151166188  0.866427998694
H  -1.630356066839  2.464635903890 -0.544699606787
H  -3.999229353664  1.748477313491 -0.554432182817
H  -4.580043531547 -0.632774645317 -0.177849733550
H  -0.413012519700 -1.610271867284  0.223673888600
