12
DEC_00012 MMFF geometry for GFN2-xTB preoptimization
C  -0.464683773409  1.291092778221  0.058102651101
N  -0.101799550454 -0.105558636530 -0.083088192449
C   1.295617945087 -0.460170815030  0.055780620306
C  -1.081134108817 -1.072903685537 -0.172960906126
O  -2.289021963295 -0.875070926136 -0.187399622742
H   0.118244597834  1.883316771165 -0.653069440821
H  -1.529093125120  1.451370720546 -0.132849148897
H  -0.233794177814  1.612004807351  1.078066984511
H   1.448607175352 -1.530558536899 -0.107190425471
H   1.625789459324 -0.202815244121  1.066323827003
H   1.880711392626  0.102560575307 -0.677000429621
H  -0.669443871313 -2.093267808336 -0.244715916795
