      -----------------------------------------------------------      
     |                   =====================                   |     
     |                           x T B                           |     
     |                   =====================                   |     
     |                         S. Grimme                         |     
     |          Mulliken Center for Theoretical Chemistry        |     
     |                    University of Bonn                     |     
      -----------------------------------------------------------      

   * xtb version 6.7.1 (edcfbbe) compiled by 'conda@5dfe00f5fb80' on 2026-06-10

   xtb is free software: you can redistribute it and/or modify it under
   the terms of the GNU Lesser General Public License as published by
   the Free Software Foundation, either version 3 of the License, or
   (at your option) any later version.
   
   xtb is distributed in the hope that it will be useful,
   but WITHOUT ANY WARRANTY; without even the implied warranty of
   MERCHANTABILITY or FITNESS FOR A PARTICULAR PURPOSE.  See the
   GNU Lesser General Public License for more details.
   
   Cite this work as:
   * C. Bannwarth, E. Caldeweyher, S. Ehlert, A. Hansen, P. Pracht,
     J. Seibert, S. Spicher, S. Grimme, WIREs Comput. Mol. Sci., 2020, 11,
     e01493. DOI: 10.1002/wcms.1493
   
   for GFN2-xTB:
   * C. Bannwarth, S. Ehlert and S. Grimme., J. Chem. Theory Comput., 2019,
     15, 1652-1671. DOI: 10.1021/acs.jctc.8b01176
   for GFN1-xTB:
   * S. Grimme, C. Bannwarth, P. Shushkov, J. Chem. Theory Comput., 2017,
     13, 1989-2009. DOI: 10.1021/acs.jctc.7b00118
   for GFN0-xTB:
   * P. Pracht, E. Caldeweyher, S. Ehlert, S. Grimme, ChemRxiv, 2019, preprint.
     DOI: 10.26434/chemrxiv.8326202.v1
   for GFN-FF:
   * S. Spicher and S. Grimme, Angew. Chem. Int. Ed., 2020, 59, 15665-15673.
     DOI: 10.1002/anie.202004239
   
   for ALPB and GBSA implicit solvation:
   * S. Ehlert, M. Stahn, S. Spicher, S. Grimme, J. Chem. Theory Comput.,
     2021, 17, 4250-4261. DOI: 10.1021/acs.jctc.1c00471
   
   for ddCOSMO and CPCM-X implicit solvation:
   * M. Stahn, S. Ehlert, S. Grimme, J. Phys. Chem. A,
     2023, XX, XXXX-XXXX. DOI: 10.1021/acs.jpca.3c04382
   
   for DFT-D4:
   * E. Caldeweyher, C. Bannwarth and S. Grimme, J. Chem. Phys., 2017,
     147, 034112. DOI: 10.1063/1.4993215
   * E. Caldeweyher, S. Ehlert, A. Hansen, H. Neugebauer, S. Spicher,
     C. Bannwarth and S. Grimme, J. Chem. Phys., 2019, 150, 154122.
     DOI: 10.1063/1.5090222
   * E. Caldeweyher, J.-M. Mewes, S. Ehlert and S. Grimme, Phys. Chem. Chem. Phys.
     2020, 22, 8499-8512. DOI: 10.1039/D0CP00502A
   
   for sTDA-xTB:
   * S. Grimme and C. Bannwarth, J. Chem. Phys., 2016, 145, 054103.
     DOI: 10.1063/1.4959605
   
   in the mass-spec context:
   * V. Asgeirsson, C. Bauer and S. Grimme, Chem. Sci., 2017, 8, 4879.
     DOI: 10.1039/c7sc00601b
   * J. Koopman and S. Grimme, ACS Omega 2019, 4, 12, 15120-15133.
     DOI: 10.1021/acsomega.9b02011
   
   for metadynamics refer to:
   * S. Grimme, J. Chem. Theory Comput., 2019, 155, 2847-2862
     DOI: 10.1021/acs.jctc.9b00143
   
   for SPH calculations refer to:
   * S. Spicher and S. Grimme, J. Chem. Theory Comput., 2021, 17, 1701-1714
     DOI: 10.1021/acs.jctc.0c01306
   
   for ONIOM refer to:
   * C. Plett, A. Katbashev, S. Ehlert, S. Grimme, M. Bursch,
     Phys. Chem. Chem. Phys., 2023, 25, 17860-17868. DOI: 10.1039/D3CP02178E
   
   for DIPRO refer to:
   * J. Kohn, N. Gildemeister, S. Grimme, D. Fazzi, A. Hansen,
     J. Chem. Phys., 2023, just accepted.
   
   for PTB refer to:
   * S. Grimme, M. Mueller, A. Hansen, J. Chem. Phys., 2023, 158, 124111.
     DOI: 10.1063/5.0137838
   
   with help from (in alphabetical order)
   P. Atkinson, C. Bannwarth, F. Bohle, G. Brandenburg, E. Caldeweyher
   M. Checinski, S. Dohm, S. Ehlert, S. Ehrlich, I. Gerasimov, C. Hölzer
   A. Katbashev, J. Kohn, J. Koopman, C. Lavigne, S. Lehtola, F. März, M. Müller,
   F. Musil, H. Neugebauer, J. Pisarek, C. Plett, P. Pracht, F. Pultar,
   J. Seibert, P. Shushkov, S. Spicher, M. Stahn, M. Steiner, T. Strunk,
   J. Stückrath, T. Rose, and J. Unsleber
   
 * started run on 2026/07/06 at 21:08:30.409     
   ID    Z sym.   atoms
    1    6 C      1-10, 12, 14, 15, 17-20
    2    8 O      11, 13
    3    9 F      16, 21
    4    1 H      22-41

           -------------------------------------------------
          |                Calculation Setup                |
           -------------------------------------------------

          program call               : /home/ws/xd2484/miniforge3/envs/p3z_dft/bin/xtb xtb_input.xyz --gfn 2 --opt tight --cycles 500 --chrg 0 --uhf 0
          hostname                   : gpu10
          coordinate file            : xtb_input.xyz
          omp threads                :                    16


           -------------------------------------------------
          |                 G F N 2 - x T B                 |
           -------------------------------------------------

        Reference                      10.1021/acs.jctc.8b01176
      * Hamiltonian:
        H0-scaling (s, p, d)           1.850000    2.230000    2.230000
        zeta-weighting                 0.500000
      * Dispersion:
        s8                             2.700000
        a1                             0.520000
        a2                             5.000000
        s9                             5.000000
      * Repulsion:
        kExp                           1.500000    1.000000
        rExp                           1.000000
      * Coulomb:
        alpha                          2.000000
        third order                    shell-resolved
        anisotropic                    true
        a3                             3.000000
        a5                             4.000000
        cn-shift                       1.200000
        cn-exp                         4.000000
        max-rad                        5.000000


          ...................................................
          :                      SETUP                      :
          :.................................................:
          :  # basis functions                 104          :
          :  # atomic orbitals                 104          :
          :  # shells                           62          :
          :  # electrons                       114          :
          :  max. iterations                   250          :
          :  Hamiltonian                  GFN2-xTB          :
          :  restarted?                      false          :
          :  GBSA solvation                  false          :
          :  PC potential                    false          :
          :  electronic temp.          300.0000000     K    :
          :  accuracy                    1.0000000          :
          :  -> integral cutoff          0.2500000E+02      :
          :  -> integral neglect         0.1000000E-07      :
          :  -> SCF convergence          0.1000000E-05 Eh   :
          :  -> wf. convergence          0.1000000E-03 e    :
          :  Broyden damping             0.4000000          :
          :  net charge                          0          :
          :  unpaired electrons                  0          :
          ...................................................

 iter      E             dE          RMSdq      gap      omega  full diag
   1    -64.8650409 -0.648650E+02  0.403E+00    3.86       0.0  T
   2    -64.9512975 -0.862566E-01  0.234E+00    3.28       1.0  T
   3    -64.9487822  0.251529E-02  0.134E+00    2.94       1.0  T
   4    -64.9678233 -0.190411E-01  0.447E-01    2.56       1.0  T
   5    -64.9718102 -0.398697E-02  0.174E-01    2.45       1.0  T
   6    -64.9725621 -0.751861E-03  0.578E-02    2.45       1.0  T
   7    -64.9725923 -0.302356E-04  0.290E-02    2.47       1.0  T
   8    -64.9726003 -0.796592E-05  0.835E-03    2.49       1.9  T
   9    -64.9726004 -0.152321E-06  0.398E-03    2.49       3.9  T
  10    -64.9726007 -0.259994E-06  0.206E-03    2.49       7.6  T
  11    -64.9726008 -0.995270E-07  0.647E-04    2.49      24.1  T
  12    -64.9726008 -0.251337E-08  0.349E-04    2.49      44.8  T

   *** convergence criteria satisfied after 12 iterations ***

         #    Occupation            Energy/Eh            Energy/eV
      -------------------------------------------------------------
         1        2.0000           -0.8372178             -22.7819
       ...           ...                  ...                  ...
        51        2.0000           -0.4362227             -11.8702
        52        2.0000           -0.4307611             -11.7216
        53        2.0000           -0.4252694             -11.5722
        54        2.0000           -0.4214917             -11.4694
        55        2.0000           -0.4187369             -11.3944
        56        2.0000           -0.3916381             -10.6570
        57        2.0000           -0.3745328             -10.1916 (HOMO)
        58                         -0.2831919              -7.7060 (LUMO)
        59                         -0.2618848              -7.1262
        60                         -0.2272131              -6.1828
        61                         -0.2130109              -5.7963
        62                         -0.1929325              -5.2500
       ...                                ...                  ...
       104                          0.6432061              17.5025
      -------------------------------------------------------------
                  HL-Gap            0.0913409 Eh            2.4855 eV
             Fermi-level           -0.3288623 Eh           -8.9488 eV

 SCC (total)                   0 d,  0 h,  0 min,  0.311 sec
 SCC setup                      ...        0 min,  0.004 sec (  1.221%)
 Dispersion                     ...        0 min,  0.010 sec (  3.209%)
 classical contributions        ...        0 min,  0.004 sec (  1.374%)
 integral evaluation            ...        0 min,  0.017 sec (  5.387%)
 iterations                     ...        0 min,  0.228 sec ( 73.095%)
 molecular gradient             ...        0 min,  0.048 sec ( 15.555%)
 printout                       ...        0 min,  0.000 sec (  0.149%)

         :::::::::::::::::::::::::::::::::::::::::::::::::::::
         ::                     SUMMARY                     ::
         :::::::::::::::::::::::::::::::::::::::::::::::::::::
         :: total energy             -64.158624618021 Eh    ::
         :: gradient norm              0.074299150401 Eh/a0 ::
         :: HOMO-LUMO gap              2.485511729609 eV    ::
         ::.................................................::
         :: SCC energy               -64.972654719262 Eh    ::
         :: -> isotropic ES            0.069791517950 Eh    ::
         :: -> anisotropic ES          0.006153726083 Eh    ::
         :: -> anisotropic XC          0.015667297177 Eh    ::
         :: -> dispersion             -0.034795555037 Eh    ::
         :: repulsion energy           0.814030101241 Eh    ::
         :: add. restraining           0.000000000000 Eh    ::
         :: total charge              -0.000000000000 e     ::
         :::::::::::::::::::::::::::::::::::::::::::::::::::::

      ----------------------------------------------------------- 
     |                   =====================                   |
     |                        A N C O P T                        |
     |                   =====================                   |
     |               Approximate Normal Coordinate               |
     |                Rational Function Optimizer                |
      ----------------------------------------------------------- 
      ----------------------------------------------------------- 
     |                   =====================                   |
     |                        A N C O P T                        |
     |                   =====================                   |
     |               Approximate Normal Coordinate               |
     |                Rational Function Optimizer                |
      ----------------------------------------------------------- 

          ...................................................
          :                      SETUP                      :
          :.................................................:
          :   optimization level             tight          :
          :   max. optcycles                   500          :
          :   ANC micro-cycles                  20          :
          :   degrees of freedom               117          :
          :.................................................:
          :   RF solver                   davidson          :
          :   write xtbopt.log                true          :
          :   linear?                        false          :
          :   energy convergence         0.1000000E-05 Eh   :
          :   grad. convergence          0.8000000E-03 Eh/α :
          :   maxmium RF displ.          1.0000000          :
          :   Hlow (freq-cutoff)         0.1000000E-01      :
          :   Hmax (freq-cutoff)         5.0000000          :
          :   S6 in model hess.         20.0000000          :
          ...................................................

generating ANC from exact Hessian ...
Using Lindh-Hessian (1995)
 Shifting diagonal of input Hessian by    9.8271723067760112E-003
 Lowest  eigenvalues of input Hessian
    0.000000    0.000000    0.000000    0.000000    0.000000    0.000000
    0.010000    0.010229    0.010268    0.010580    0.010768    0.011053
    0.012468    0.012906    0.013450    0.015785    0.016457    0.017613
 Highest eigenvalues
    1.836289    1.842509    1.867151    2.054711    2.110057    2.354033


........................................................................
.............................. CYCLE    1 ..............................
........................................................................

 iter      E             dE          RMSdq      gap      omega  full diag
   1    -64.9726008 -0.649726E+02  0.913E-05    2.49       0.0  T
   2    -64.9726008 -0.821530E-10  0.569E-05    2.49     274.5  T
   3    -64.9726008 -0.522391E-10  0.401E-05    2.49     389.2  T
     SCC iter.                  ...        0 min,  0.063 sec
     gradient                   ...        0 min,  0.055 sec
 * total energy  :   -64.1586246 Eh     change       -0.1222574E-08 Eh
   gradient norm :     0.0742997 Eh/α   predicted     0.0000000E+00 (-100.00%)
   displ. norm   :     0.2113332 α      lambda       -0.8670041E-02
   maximum displ.:     0.0702778 α      in ANC's #35, #40, #74, ...

........................................................................
.............................. CYCLE    2 ..............................
........................................................................

 iter      E             dE          RMSdq      gap      omega  full diag
   1    -65.0128659 -0.650129E+02  0.157E-01    2.61       0.0  T
   2    -65.0129135 -0.475182E-04  0.931E-02    2.62       1.0  T
   3    -65.0128905  0.229357E-04  0.385E-02    2.62       1.0  T
   4    -65.0129197 -0.291409E-04  0.114E-02    2.63       1.4  T
   5    -65.0129236 -0.392230E-05  0.325E-03    2.63       4.8  T
   6    -65.0129237 -0.952140E-07  0.180E-03    2.63       8.7  T
   7    -65.0129237 -0.189919E-07  0.738E-04    2.63      21.2  T
   8    -65.0129237 -0.755436E-08  0.260E-04    2.63      60.0  T
     SCC iter.                  ...        0 min,  0.152 sec
     gradient                   ...        0 min,  0.049 sec
 * total energy  :   -64.1641402 Eh     change       -0.5515615E-02 Eh
   gradient norm :     0.0217344 Eh/α   predicted    -0.4529246E-02 ( -17.88%)
   displ. norm   :     0.1379763 α      lambda       -0.1276820E-02
   maximum displ.:     0.0458531 α      in ANC's #7, #26, #9, ...

........................................................................
.............................. CYCLE    3 ..............................
........................................................................

 iter      E             dE          RMSdq      gap      omega  full diag
   1    -65.0246732 -0.650247E+02  0.773E-02    2.66       0.0  T
   2    -65.0246847 -0.115846E-04  0.449E-02    2.67       1.0  T
   3    -65.0246818  0.298572E-05  0.170E-02    2.67       1.0  T
   4    -65.0246863 -0.451277E-05  0.465E-03    2.68       3.4  T
   5    -65.0246869 -0.623282E-06  0.161E-03    2.68       9.7  T
   6    -65.0246869 -0.309901E-07  0.799E-04    2.68      19.5  T
   7    -65.0246869 -0.418198E-08  0.334E-04    2.68      46.7  T
     SCC iter.                  ...        0 min,  0.202 sec
     gradient                   ...        0 min,  0.053 sec
 * total energy  :   -64.1648606 Eh     change       -0.7203193E-03 Eh
   gradient norm :     0.0072745 Eh/α   predicted    -0.6508831E-03 (  -9.64%)
   displ. norm   :     0.0777349 α      lambda       -0.1305853E-03
   maximum displ.:     0.0402913 α      in ANC's #7, #9, #4, ...

........................................................................
.............................. CYCLE    4 ..............................
........................................................................

 iter      E             dE          RMSdq      gap      omega  full diag
   1    -65.0240548 -0.650241E+02  0.265E-02    2.67       0.0  T
   2    -65.0240571 -0.225123E-05  0.152E-02    2.67       1.0  T
   3    -65.0240567  0.380904E-06  0.702E-03    2.68       2.2  T
   4    -65.0240573 -0.573257E-06  0.214E-03    2.68       7.3  T
   5    -65.0240574 -0.137997E-06  0.619E-04    2.68      25.2  T
   6    -65.0240574 -0.819927E-08  0.286E-04    2.68      54.7  T
     SCC iter.                  ...        0 min,  0.084 sec
     gradient                   ...        0 min,  0.042 sec
 * total energy  :   -64.1649518 Eh     change       -0.9121030E-04 Eh
   gradient norm :     0.0030714 Eh/α   predicted    -0.6568759E-04 ( -27.98%)
   displ. norm   :     0.0987551 α      lambda       -0.7671455E-04
   maximum displ.:     0.0587284 α      in ANC's #7, #9, #4, ...

........................................................................
.............................. CYCLE    5 ..............................
........................................................................

 iter      E             dE          RMSdq      gap      omega  full diag
   1    -65.0228460 -0.650228E+02  0.275E-02    2.67       0.0  T
   2    -65.0228473 -0.139408E-05  0.160E-02    2.67       1.0  T
   3    -65.0228465  0.808108E-06  0.741E-03    2.68       2.1  T
   4    -65.0228476 -0.106833E-05  0.185E-03    2.68       8.5  T
   5    -65.0228477 -0.946504E-07  0.590E-04    2.68      26.5  T
   6    -65.0228477 -0.792228E-08  0.253E-04    2.68      61.6  T
     SCC iter.                  ...        0 min,  0.155 sec
     gradient                   ...        0 min,  0.058 sec
 * total energy  :   -64.1650029 Eh     change       -0.5109301E-04 Eh
   gradient norm :     0.0017447 Eh/α   predicted    -0.3876873E-04 ( -24.12%)
   displ. norm   :     0.1348757 α      lambda       -0.3766428E-04
   maximum displ.:     0.0849747 α      in ANC's #7, #4, #6, ...

........................................................................
.............................. CYCLE    6 ..............................
........................................................................

 iter      E             dE          RMSdq      gap      omega  full diag
   1    -65.0222535 -0.650223E+02  0.355E-02    2.68       0.0  T
   2    -65.0222541 -0.546682E-06  0.210E-02    2.68       1.0  T
   3    -65.0222529  0.119726E-05  0.674E-03    2.68       2.3  T
   4    -65.0222543 -0.140185E-05  0.117E-03    2.68      13.3  T
   5    -65.0222543 -0.320449E-07  0.510E-04    2.68      30.6  T
   6    -65.0222543 -0.412510E-08  0.237E-04    2.68      66.0  T
     SCC iter.                  ...        0 min,  0.082 sec
     gradient                   ...        0 min,  0.028 sec
 * total energy  :   -64.1650383 Eh     change       -0.3541837E-04 Eh
   gradient norm :     0.0028527 Eh/α   predicted    -0.1898964E-04 ( -46.38%)
   displ. norm   :     0.0620775 α      lambda       -0.2491847E-04
   maximum displ.:     0.0358364 α      in ANC's #7, #4, #2, ...

........................................................................
.............................. CYCLE    7 ..............................
........................................................................

 iter      E             dE          RMSdq      gap      omega  full diag
   1    -65.0227934 -0.650228E+02  0.162E-02    2.68       0.0  T
   2    -65.0227935 -0.718451E-07  0.954E-03    2.68       1.6  T
   3    -65.0227934  0.509595E-07  0.131E-03    2.68      12.0  T
   4    -65.0227935 -0.600155E-07  0.436E-04    2.68      35.8  T
   5    -65.0227935 -0.523366E-08  0.170E-04    2.68      91.9  T
     SCC iter.                  ...        0 min,  0.062 sec
     gradient                   ...        0 min,  0.033 sec
 * total energy  :   -64.1650598 Eh     change       -0.2148816E-04 Eh
   gradient norm :     0.0019746 Eh/α   predicted    -0.1250756E-04 ( -41.79%)
   displ. norm   :     0.2566371 α      lambda       -0.5539325E-04
   maximum displ.:     0.1403400 α      in ANC's #7, #4, #2, ...

........................................................................
.............................. CYCLE    8 ..............................
........................................................................

 iter      E             dE          RMSdq      gap      omega  full diag
   1    -65.0238971 -0.650239E+02  0.633E-02    2.68       0.0  T
   2    -65.0238980 -0.906117E-06  0.373E-02    2.68       1.0  T
   3    -65.0238973  0.708671E-06  0.525E-03    2.68       3.0  T
   4    -65.0238982 -0.902930E-06  0.135E-03    2.68      11.5  T
   5    -65.0238983 -0.330849E-07  0.638E-04    2.68      24.5  T
   6    -65.0238983 -0.540027E-09  0.390E-04    2.68      40.0  T
     SCC iter.                  ...        0 min,  0.064 sec
     gradient                   ...        0 min,  0.026 sec
 * total energy  :   -64.1651064 Eh     change       -0.4667450E-04 Eh
   gradient norm :     0.0025355 Eh/α   predicted    -0.2850891E-04 ( -38.92%)
   displ. norm   :     0.0803563 α      lambda       -0.2088578E-04
   maximum displ.:     0.0390855 α      in ANC's #7, #4, #2, ...

........................................................................
.............................. CYCLE    9 ..............................
........................................................................

 iter      E             dE          RMSdq      gap      omega  full diag
   1    -65.0239745 -0.650240E+02  0.189E-02    2.68       0.0  T
   2    -65.0239746 -0.408038E-07  0.112E-02    2.68       1.4  T
   3    -65.0239744  0.182038E-06  0.241E-03    2.68       6.5  T
   4    -65.0239746 -0.207106E-06  0.350E-04    2.68      44.6  T
   5    -65.0239746 -0.140108E-08  0.193E-04    2.68      81.0  T
     SCC iter.                  ...        0 min,  0.059 sec
     gradient                   ...        0 min,  0.024 sec
 * total energy  :   -64.1651251 Eh     change       -0.1864144E-04 Eh
   gradient norm :     0.0020333 Eh/α   predicted    -0.1051249E-04 ( -43.61%)
   displ. norm   :     0.2716472 α      lambda       -0.6911756E-04
   maximum displ.:     0.1176641 α      in ANC's #2, #7, #4, ...

........................................................................
.............................. CYCLE   10 ..............................
........................................................................

 iter      E             dE          RMSdq      gap      omega  full diag
   1    -65.0232203 -0.650232E+02  0.618E-02    2.68       0.0  T
   2    -65.0232206 -0.376962E-06  0.366E-02    2.68       1.0  T
   3    -65.0232177  0.295171E-05  0.947E-03    2.68       1.6  T
   4    -65.0232210 -0.330438E-05  0.107E-03    2.68      14.6  T
   5    -65.0232210 -0.881160E-08  0.582E-04    2.68      26.8  T
   6    -65.0232210 -0.564469E-09  0.246E-04    2.68      63.6  T
     SCC iter.                  ...        0 min,  0.148 sec
     gradient                   ...        0 min,  0.042 sec
 * total energy  :   -64.1651733 Eh     change       -0.4819385E-04 Eh
   gradient norm :     0.0015353 Eh/α   predicted    -0.3711064E-04 ( -23.00%)
   displ. norm   :     0.2979687 α      lambda       -0.3771002E-04
   maximum displ.:     0.1356510 α      in ANC's #2, #4, #7, ...

........................................................................
.............................. CYCLE   11 ..............................
........................................................................

 iter      E             dE          RMSdq      gap      omega  full diag
   1    -65.0222100 -0.650222E+02  0.651E-02    2.67       0.0  T
   2    -65.0222104 -0.412690E-06  0.386E-02    2.67       1.0  T
   3    -65.0222060  0.444980E-05  0.115E-02    2.67       1.4  T
   4    -65.0222109 -0.494264E-05  0.108E-03    2.67      14.5  T
   5    -65.0222109 -0.787487E-08  0.567E-04    2.67      27.5  T
   6    -65.0222109 -0.205134E-09  0.218E-04    2.67      71.6  T
     SCC iter.                  ...        0 min,  0.077 sec
     gradient                   ...        0 min,  0.038 sec
 * total energy  :   -64.1652101 Eh     change       -0.3687373E-04 Eh
   gradient norm :     0.0028693 Eh/α   predicted    -0.1960005E-04 ( -46.85%)
   displ. norm   :     0.1457814 α      lambda       -0.4512553E-04
   maximum displ.:     0.0660965 α      in ANC's #2, #9, #5, ...

........................................................................
.............................. CYCLE   12 ..............................
........................................................................

 iter      E             dE          RMSdq      gap      omega  full diag
   1    -65.0229440 -0.650229E+02  0.335E-02    2.67       0.0  T
   2    -65.0229444 -0.310222E-06  0.198E-02    2.67       1.0  T
   3    -65.0229430  0.135867E-05  0.650E-03    2.67       2.4  T
   4    -65.0229445 -0.151080E-05  0.780E-04    2.67      20.0  T
   5    -65.0229445 -0.113352E-07  0.325E-04    2.67      48.1  T
   6    -65.0229445 -0.406573E-10  0.170E-04    2.67      91.6  T
     SCC iter.                  ...        0 min,  0.137 sec
     gradient                   ...        0 min,  0.047 sec
 * total energy  :   -64.1652450 Eh     change       -0.3486269E-04 Eh
   gradient norm :     0.0025742 Eh/α   predicted    -0.2304762E-04 ( -33.89%)
   displ. norm   :     0.4379239 α      lambda       -0.9581246E-04
   maximum displ.:     0.2014654 α      in ANC's #2, #5, #15, ...

........................................................................
.............................. CYCLE   13 ..............................
........................................................................

 iter      E             dE          RMSdq      gap      omega  full diag
   1    -65.0211337 -0.650211E+02  0.936E-02    2.66       0.0  T
   2    -65.0211349 -0.120928E-05  0.554E-02    2.66       1.0  T
   3    -65.0211264  0.853643E-05  0.161E-02    2.66       1.0  T
   4    -65.0211359 -0.949403E-05  0.203E-03    2.66       7.7  T
   5    -65.0211359 -0.656364E-07  0.936E-04    2.66      16.7  T
   6    -65.0211359 -0.565180E-09  0.428E-04    2.66      36.5  T
     SCC iter.                  ...        0 min,  0.091 sec
     gradient                   ...        0 min,  0.035 sec
 * total energy  :   -64.1653058 Eh     change       -0.6082337E-04 Eh
   gradient norm :     0.0040528 Eh/α   predicted    -0.5709591E-04 (  -6.13%)
   displ. norm   :     0.1564025 α      lambda       -0.6342048E-04
   maximum displ.:     0.0662053 α      in ANC's #2, #5, #11, ...

........................................................................
.............................. CYCLE   14 ..............................
........................................................................

 iter      E             dE          RMSdq      gap      omega  full diag
   1    -65.0222683 -0.650223E+02  0.393E-02    2.66       0.0  T
   2    -65.0222688 -0.481107E-06  0.232E-02    2.66       1.0  T
   3    -65.0222676  0.122713E-05  0.632E-03    2.66       2.5  T
   4    -65.0222689 -0.135785E-05  0.120E-03    2.66      13.0  T
   5    -65.0222690 -0.382568E-07  0.433E-04    2.66      36.0  T
   6    -65.0222690 -0.316263E-09  0.223E-04    2.66      70.2  T
     SCC iter.                  ...        0 min,  0.063 sec
     gradient                   ...        0 min,  0.027 sec
 * total energy  :   -64.1653522 Eh     change       -0.4639794E-04 Eh
   gradient norm :     0.0022426 Eh/α   predicted    -0.3249010E-04 ( -29.98%)
   displ. norm   :     0.2792236 α      lambda       -0.5547002E-04
   maximum displ.:     0.1331734 α      in ANC's #2, #5, #11, ...

........................................................................
.............................. CYCLE   15 ..............................
........................................................................

 iter      E             dE          RMSdq      gap      omega  full diag
   1    -65.0221091 -0.650221E+02  0.617E-02    2.66       0.0  T
   2    -65.0221096 -0.555701E-06  0.366E-02    2.66       1.0  T
   3    -65.0221052  0.447082E-05  0.117E-02    2.65       1.3  T
   4    -65.0221101 -0.496174E-05  0.125E-03    2.65      12.5  T
   5    -65.0221102 -0.237436E-07  0.601E-04    2.65      26.0  T
   6    -65.0221102 -0.429011E-09  0.252E-04    2.65      61.9  T
     SCC iter.                  ...        0 min,  0.067 sec
     gradient                   ...        0 min,  0.025 sec
 * total energy  :   -64.1653921 Eh     change       -0.3983373E-04 Eh
   gradient norm :     0.0028772 Eh/α   predicted    -0.2990031E-04 ( -24.94%)
   displ. norm   :     0.2275315 α      lambda       -0.7764409E-04
   maximum displ.:     0.1047616 α      in ANC's #2, #11, #5, ...

........................................................................
.............................. CYCLE   16 ..............................
........................................................................

 iter      E             dE          RMSdq      gap      omega  full diag
   1    -65.0245515 -0.650246E+02  0.524E-02    2.65       0.0  T
   2    -65.0245527 -0.124167E-05  0.310E-02    2.65       1.0  T
   3    -65.0245499  0.280919E-05  0.992E-03    2.65       1.6  T
   4    -65.0245530 -0.314164E-05  0.189E-03    2.65       8.3  T
   5    -65.0245531 -0.937259E-07  0.729E-04    2.65      21.4  T
   6    -65.0245531 -0.455633E-08  0.399E-04    2.65      39.2  T
     SCC iter.                  ...        0 min,  0.073 sec
     gradient                   ...        0 min,  0.032 sec
 * total energy  :   -64.1654323 Eh     change       -0.4019846E-04 Eh
   gradient norm :     0.0034352 Eh/α   predicted    -0.4083268E-04 (   1.58%)
   displ. norm   :     0.3846083 α      lambda       -0.7334916E-04
   maximum displ.:     0.1980670 α      in ANC's #2, #5, #11, ...

........................................................................
.............................. CYCLE   17 ..............................
........................................................................

 iter      E             dE          RMSdq      gap      omega  full diag
   1    -65.0218617 -0.650219E+02  0.802E-02    2.65       0.0  T
   2    -65.0218631 -0.138290E-05  0.475E-02    2.65       1.0  T
   3    -65.0218582  0.495247E-05  0.126E-02    2.65       1.2  T
   4    -65.0218637 -0.553581E-05  0.229E-03    2.65       6.8  T
   5    -65.0218638 -0.117771E-06  0.918E-04    2.65      17.0  T
   6    -65.0218638  0.414971E-09  0.437E-04    2.65      35.8  T
     SCC iter.                  ...        0 min,  0.067 sec
     gradient                   ...        0 min,  0.025 sec
 * total energy  :   -64.1654644 Eh     change       -0.3212471E-04 Eh
   gradient norm :     0.0047071 Eh/α   predicted    -0.4210744E-04 (  31.07%)
   displ. norm   :     0.0697231 α      lambda       -0.6297212E-04
   maximum displ.:     0.0315149 α      in ANC's #9, #11, #6, ...

........................................................................
.............................. CYCLE   18 ..............................
........................................................................

 iter      E             dE          RMSdq      gap      omega  full diag
   1    -65.0234715 -0.650235E+02  0.193E-02    2.65       0.0  T
   2    -65.0234717 -0.226684E-06  0.113E-02    2.65       1.4  T
   3    -65.0234714  0.303712E-06  0.344E-03    2.65       4.5  T
   4    -65.0234718 -0.346070E-06  0.861E-04    2.65      18.1  T
   5    -65.0234718 -0.192729E-07  0.310E-04    2.65      50.3  T
     SCC iter.                  ...        0 min,  0.076 sec
     gradient                   ...        0 min,  0.033 sec
 * total energy  :   -64.1655072 Eh     change       -0.4285507E-04 Eh
   gradient norm :     0.0024037 Eh/α   predicted    -0.3164013E-04 ( -26.17%)
   displ. norm   :     0.1944003 α      lambda       -0.5268542E-04
   maximum displ.:     0.1076938 α      in ANC's #2, #5, #16, ...

........................................................................
.............................. CYCLE   19 ..............................
........................................................................

 iter      E             dE          RMSdq      gap      omega  full diag
   1    -65.0237079 -0.650237E+02  0.366E-02    2.64       0.0  T
   2    -65.0237082 -0.266075E-06  0.217E-02    2.64       1.0  T
   3    -65.0237070  0.111791E-05  0.595E-03    2.64       2.6  T
   4    -65.0237083 -0.125947E-05  0.876E-04    2.64      17.8  T
   5    -65.0237083 -0.126098E-07  0.440E-04    2.64      35.5  T
   6    -65.0237083 -0.184960E-08  0.206E-04    2.64      75.9  T
     SCC iter.                  ...        0 min,  0.087 sec
     gradient                   ...        0 min,  0.038 sec
 * total energy  :   -64.1655441 Eh     change       -0.3680931E-04 Eh
   gradient norm :     0.0020456 Eh/α   predicted    -0.2733897E-04 ( -25.73%)
   displ. norm   :     0.1771651 α      lambda       -0.3326086E-04
   maximum displ.:     0.0990252 α      in ANC's #2, #5, #10, ...

........................................................................
.............................. CYCLE   20 ..............................
........................................................................

 iter      E             dE          RMSdq      gap      omega  full diag
   1    -65.0236065 -0.650236E+02  0.327E-02    2.64       0.0  T
   2    -65.0236066 -0.133537E-06  0.194E-02    2.64       1.0  T
   3    -65.0236062  0.430592E-06  0.361E-03    2.63       4.3  T
   4    -65.0236067 -0.493575E-06  0.630E-04    2.63      24.8  T
   5    -65.0236067 -0.532809E-08  0.315E-04    2.63      49.6  T
     SCC iter.                  ...        0 min,  0.117 sec
     gradient                   ...        0 min,  0.067 sec
 * total energy  :   -64.1655696 Eh     change       -0.2550142E-04 Eh
   gradient norm :     0.0019027 Eh/α   predicted    -0.1715355E-04 ( -32.73%)
   displ. norm   :     0.2866518 α      lambda       -0.4041155E-04
   maximum displ.:     0.1605890 α      in ANC's #2, #7, #5, ...
 * RMSD in coord.:     0.4721878 α      energy gain  -0.6944936E-02 Eh

generating ANC from exact Hessian ...
Using Lindh-Hessian (1995)
 Shifting diagonal of input Hessian by    9.8094326563391374E-003
 Lowest  eigenvalues of input Hessian
    0.000000    0.000000    0.000000    0.000000    0.000000    0.000000
    0.010000    0.010232    0.010251    0.010660    0.010783    0.011076
    0.012522    0.013368    0.013595    0.015667    0.016148    0.018063
 Highest eigenvalues
    1.905641    1.922001    1.925563    2.101339    2.128122    2.418329


........................................................................
.............................. CYCLE   21 ..............................
........................................................................

 iter      E             dE          RMSdq      gap      omega  full diag
   1    -65.0235015 -0.650235E+02  0.514E-02    2.63       0.0  T
   2    -65.0235020 -0.449508E-06  0.305E-02    2.63       1.0  T
   3    -65.0235010  0.962344E-06  0.559E-03    2.63       2.8  T
   4    -65.0235021 -0.112570E-05  0.114E-03    2.63      13.7  T
   5    -65.0235022 -0.198796E-07  0.599E-04    2.63      26.1  T
   6    -65.0235022 -0.507953E-08  0.274E-04    2.63      57.0  T
     SCC iter.                  ...        0 min,  0.161 sec
     gradient                   ...        0 min,  0.034 sec
 * total energy  :   -64.1656113 Eh     change       -0.4179045E-04 Eh
   gradient norm :     0.0028566 Eh/α   predicted     0.0000000E+00 (-100.00%)
   displ. norm   :     0.0372710 α      lambda       -0.2656410E-04
   maximum displ.:     0.0145324 α      in ANC's #1, #15, #7, ...

........................................................................
.............................. CYCLE   22 ..............................
........................................................................

 iter      E             dE          RMSdq      gap      omega  full diag
   1    -65.0240828 -0.650241E+02  0.111E-02    2.63       0.0  T
   2    -65.0240829 -0.588477E-07  0.660E-03    2.64       2.4  T
   3    -65.0240827  0.145994E-06  0.216E-03    2.64       7.2  T
   4    -65.0240829 -0.166152E-06  0.408E-04    2.64      38.2  T
   5    -65.0240829 -0.405761E-08  0.175E-04    2.64      89.3  T
     SCC iter.                  ...        0 min,  0.086 sec
     gradient                   ...        0 min,  0.046 sec
 * total energy  :   -64.1656370 Eh     change       -0.2564184E-04 Eh
   gradient norm :     0.0014525 Eh/α   predicted    -0.1504664E-04 ( -41.32%)
   displ. norm   :     0.2060810 α      lambda       -0.7477310E-04
   maximum displ.:     0.0822602 α      in ANC's #1, #15, #7, ...

........................................................................
.............................. CYCLE   23 ..............................
........................................................................

 iter      E             dE          RMSdq      gap      omega  full diag
   1    -65.0247039 -0.650247E+02  0.545E-02    2.65       0.0  T
   2    -65.0247045 -0.618139E-06  0.325E-02    2.65       1.0  T
   3    -65.0247029  0.160330E-05  0.701E-03    2.65       2.2  T
   4    -65.0247048 -0.186692E-05  0.144E-03    2.65      10.8  T
   5    -65.0247048 -0.330582E-07  0.747E-04    2.65      20.9  T
   6    -65.0247048 -0.301357E-08  0.331E-04    2.65      47.2  T
     SCC iter.                  ...        0 min,  0.116 sec
     gradient                   ...        0 min,  0.052 sec
 * total energy  :   -64.1656867 Eh     change       -0.4970231E-04 Eh
   gradient norm :     0.0038047 Eh/α   predicted    -0.3809436E-04 ( -23.35%)
   displ. norm   :     0.0338582 α      lambda       -0.2120442E-04
   maximum displ.:     0.0157826 α      in ANC's #11, #1, #5, ...

........................................................................
.............................. CYCLE   24 ..............................
........................................................................

 iter      E             dE          RMSdq      gap      omega  full diag
   1    -65.0244591 -0.650245E+02  0.743E-03    2.65       0.0  T
   2    -65.0244592 -0.332137E-07  0.441E-03    2.65       3.5  T
   3    -65.0244591  0.755179E-07  0.166E-03    2.65       9.4  T
   4    -65.0244592 -0.889764E-07  0.302E-04    2.65      51.7  T
   5    -65.0244592 -0.203806E-08  0.142E-04    2.65     110.4  T
     SCC iter.                  ...        0 min,  0.107 sec
     gradient                   ...        0 min,  0.048 sec
 * total energy  :   -64.1657056 Eh     change       -0.1894017E-04 Eh
   gradient norm :     0.0026664 Eh/α   predicted    -0.1061532E-04 ( -43.95%)
   displ. norm   :     0.1943126 α      lambda       -0.8083154E-04
   maximum displ.:     0.0889549 α      in ANC's #1, #11, #5, ...

........................................................................
.............................. CYCLE   25 ..............................
........................................................................

 iter      E             dE          RMSdq      gap      omega  full diag
   1    -65.0231014 -0.650231E+02  0.403E-02    2.65       0.0  T
   2    -65.0231020 -0.598706E-06  0.239E-02    2.65       1.0  T
   3    -65.0231005  0.149141E-05  0.717E-03    2.65       2.2  T
   4    -65.0231022 -0.173199E-05  0.132E-03    2.65      11.8  T
   5    -65.0231023 -0.349087E-07  0.675E-04    2.65      23.1  T
   6    -65.0231023 -0.468739E-08  0.317E-04    2.65      49.2  T
     SCC iter.                  ...        0 min,  0.254 sec
     gradient                   ...        0 min,  0.080 sec
 * total energy  :   -64.1657555 Eh     change       -0.4987841E-04 Eh
   gradient norm :     0.0024906 Eh/α   predicted    -0.4195923E-04 ( -15.88%)
   displ. norm   :     0.1145827 α      lambda       -0.2427674E-04
   maximum displ.:     0.0555925 α      in ANC's #1, #11, #5, ...

........................................................................
.............................. CYCLE   26 ..............................
........................................................................

 iter      E             dE          RMSdq      gap      omega  full diag
   1    -65.0227993 -0.650228E+02  0.227E-02    2.65       0.0  T
   2    -65.0227994 -0.791651E-07  0.134E-02    2.65       1.2  T
   3    -65.0227992  0.232474E-06  0.280E-03    2.65       5.6  T
   4    -65.0227995 -0.274829E-06  0.542E-04    2.65      28.8  T
   5    -65.0227995 -0.324994E-08  0.317E-04    2.65      49.3  T
     SCC iter.                  ...        0 min,  0.075 sec
     gradient                   ...        0 min,  0.044 sec
 * total energy  :   -64.1657758 Eh     change       -0.2033341E-04 Eh
   gradient norm :     0.0031482 Eh/α   predicted    -0.1229921E-04 ( -39.51%)
   displ. norm   :     0.2260779 α      lambda       -0.5733057E-04
   maximum displ.:     0.1134398 α      in ANC's #1, #11, #5, ...

........................................................................
.............................. CYCLE   27 ..............................
........................................................................

 iter      E             dE          RMSdq      gap      omega  full diag
   1    -65.0228750 -0.650229E+02  0.432E-02    2.65       0.0  T
   2    -65.0228752 -0.234460E-06  0.256E-02    2.65       1.0  T
   3    -65.0228747  0.483262E-06  0.416E-03    2.65       3.8  T
   4    -65.0228753 -0.598374E-06  0.992E-04    2.65      15.7  T
   5    -65.0228753 -0.103822E-07  0.518E-04    2.65      30.2  T
     SCC iter.                  ...        0 min,  0.131 sec
     gradient                   ...        0 min,  0.045 sec
 * total energy  :   -64.1658194 Eh     change       -0.4360462E-04 Eh
   gradient norm :     0.0030550 Eh/α   predicted    -0.3013334E-04 ( -30.89%)
   displ. norm   :     0.2189887 α      lambda       -0.5211373E-04
   maximum displ.:     0.1164195 α      in ANC's #1, #5, #11, ...

........................................................................
.............................. CYCLE   28 ..............................
........................................................................

 iter      E             dE          RMSdq      gap      omega  full diag
   1    -65.0234667 -0.650235E+02  0.391E-02    2.66       0.0  T
   2    -65.0234669 -0.184984E-06  0.232E-02    2.66       1.0  T
   3    -65.0234667  0.209546E-06  0.285E-03    2.65       5.5  T
   4    -65.0234670 -0.284793E-06  0.935E-04    2.66      16.7  T
   5    -65.0234670 -0.119631E-07  0.448E-04    2.66      34.9  T
     SCC iter.                  ...        0 min,  0.064 sec
     gradient                   ...        0 min,  0.031 sec
 * total energy  :   -64.1658587 Eh     change       -0.3929333E-04 Eh
   gradient norm :     0.0023112 Eh/α   predicted    -0.2730760E-04 ( -30.50%)
   displ. norm   :     0.2111835 α      lambda       -0.4479343E-04
   maximum displ.:     0.1176607 α      in ANC's #1, #5, #11, ...

........................................................................
.............................. CYCLE   29 ..............................
........................................................................

 iter      E             dE          RMSdq      gap      omega  full diag
   1    -65.0241950 -0.650242E+02  0.349E-02    2.66       0.0  T
   2    -65.0241951 -0.140188E-06  0.207E-02    2.66       1.0  T
   3    -65.0241950  0.103881E-06  0.202E-03    2.66       7.7  T
   4    -65.0241952 -0.164063E-06  0.712E-04    2.66      21.9  T
   5    -65.0241952 -0.380022E-08  0.397E-04    2.66      39.3  T
     SCC iter.                  ...        0 min,  0.058 sec
     gradient                   ...        0 min,  0.025 sec
 * total energy  :   -64.1658932 Eh     change       -0.3447809E-04 Eh
   gradient norm :     0.0015455 Eh/α   predicted    -0.2339584E-04 ( -32.14%)
   displ. norm   :     0.3671435 α      lambda       -0.4066463E-04
   maximum displ.:     0.2094056 α      in ANC's #1, #5, #11, ...

........................................................................
.............................. CYCLE   30 ..............................
........................................................................

 iter      E             dE          RMSdq      gap      omega  full diag
   1    -65.0237389 -0.650237E+02  0.583E-02    2.67       0.0  T
   2    -65.0237393 -0.427544E-06  0.347E-02    2.67       1.0  T
   3    -65.0237392  0.188484E-06  0.316E-03    2.67       4.9  T
   4    -65.0237395 -0.335592E-06  0.127E-03    2.67      12.3  T
   5    -65.0237395 -0.200152E-07  0.665E-04    2.67      23.5  T
   6    -65.0237395 -0.202935E-08  0.291E-04    2.67      53.7  T
     SCC iter.                  ...        0 min,  0.060 sec
     gradient                   ...        0 min,  0.026 sec
 * total energy  :   -64.1659267 Eh     change       -0.3351038E-04 Eh
   gradient norm :     0.0025248 Eh/α   predicted    -0.2155101E-04 ( -35.69%)
   displ. norm   :     0.1600916 α      lambda       -0.6565340E-04
   maximum displ.:     0.0876632 α      in ANC's #8, #1, #5, ...

........................................................................
.............................. CYCLE   31 ..............................
........................................................................

 iter      E             dE          RMSdq      gap      omega  full diag
   1    -65.0267776 -0.650268E+02  0.360E-02    2.67       0.0  T
   2    -65.0267796 -0.198192E-05  0.209E-02    2.67       1.0  T
   3    -65.0267793  0.226815E-06  0.502E-03    2.67       3.1  T
   4    -65.0267796 -0.255041E-06  0.219E-03    2.67       7.1  T
   5    -65.0267797 -0.150617E-06  0.747E-04    2.67      20.9  T
   6    -65.0267797 -0.339757E-08  0.373E-04    2.67      41.9  T
     SCC iter.                  ...        0 min,  0.059 sec
     gradient                   ...        0 min,  0.021 sec
 * total energy  :   -64.1659140 Eh     change        0.1272703E-04 Eh
   gradient norm :     0.0055736 Eh/α   predicted    -0.3366815E-04 (-364.54%)
   displ. norm   :     0.0566726 α      lambda       -0.6887547E-04
   maximum displ.:     0.0228538 α      in ANC's #11, #8, #9, ...

........................................................................
.............................. CYCLE   32 ..............................
........................................................................

 iter      E             dE          RMSdq      gap      omega  full diag
   1    -65.0248092 -0.650248E+02  0.170E-02    2.67       0.0  T
   2    -65.0248100 -0.768115E-06  0.957E-03    2.67       1.6  T
   3    -65.0248099  0.333747E-07  0.310E-03    2.67       5.0  T
   4    -65.0248100 -0.614158E-07  0.116E-03    2.67      13.5  T
   5    -65.0248100 -0.362671E-07  0.417E-04    2.67      37.5  T
   6    -65.0248100 -0.536303E-09  0.235E-04    2.67      66.4  T
     SCC iter.                  ...        0 min,  0.059 sec
     gradient                   ...        0 min,  0.025 sec
 * total energy  :   -64.1659539 Eh     change       -0.3988283E-04 Eh
   gradient norm :     0.0013238 Eh/α   predicted    -0.3455347E-04 ( -13.36%)
   displ. norm   :     0.0869431 α      lambda       -0.1132476E-04
   maximum displ.:     0.0532289 α      in ANC's #1, #15, #3, ...

........................................................................
.............................. CYCLE   33 ..............................
........................................................................

 iter      E             dE          RMSdq      gap      omega  full diag
   1    -65.0241239 -0.650241E+02  0.150E-02    2.67       0.0  T
   2    -65.0241240 -0.100705E-06  0.887E-03    2.67       1.8  T
   3    -65.0241239  0.111318E-06  0.201E-03    2.67       7.8  T
   4    -65.0241240 -0.127217E-06  0.603E-04    2.67      25.9  T
   5    -65.0241240 -0.938429E-08  0.210E-04    2.67      74.2  T
     SCC iter.                  ...        0 min,  0.060 sec
     gradient                   ...        0 min,  0.039 sec
 * total energy  :   -64.1659664 Eh     change       -0.1252835E-04 Eh
   gradient norm :     0.0010652 Eh/α   predicted    -0.5686994E-05 ( -54.61%)
   displ. norm   :     0.1074255 α      lambda       -0.1546466E-04
   maximum displ.:     0.0594310 α      in ANC's #1, #8, #9, ...

........................................................................
.............................. CYCLE   34 ..............................
........................................................................

 iter      E             dE          RMSdq      gap      omega  full diag
   1    -65.0241366 -0.650241E+02  0.228E-02    2.67       0.0  T
   2    -65.0241367 -0.115945E-06  0.135E-02    2.67       1.2  T
   3    -65.0241363  0.435595E-06  0.361E-03    2.67       4.3  T
   4    -65.0241368 -0.491166E-06  0.588E-04    2.67      26.6  T
   5    -65.0241368 -0.682016E-08  0.274E-04    2.67      57.0  T
     SCC iter.                  ...        0 min,  0.081 sec
     gradient                   ...        0 min,  0.043 sec
 * total energy  :   -64.1659821 Eh     change       -0.1565235E-04 Eh
   gradient norm :     0.0010709 Eh/α   predicted    -0.7783190E-05 ( -50.27%)
   displ. norm   :     0.1104981 α      lambda       -0.7735663E-05
   maximum displ.:     0.0703794 α      in ANC's #1, #8, #3, ...

........................................................................
.............................. CYCLE   35 ..............................
........................................................................

 iter      E             dE          RMSdq      gap      omega  full diag
   1    -65.0240021 -0.650240E+02  0.218E-02    2.66       0.0  T
   2    -65.0240022 -0.853953E-07  0.130E-02    2.66       1.2  T
   3    -65.0240017  0.493447E-06  0.381E-03    2.66       4.1  T
   4    -65.0240023 -0.553858E-06  0.526E-04    2.66      29.7  T
   5    -65.0240023 -0.454277E-08  0.257E-04    2.66      60.8  T
     SCC iter.                  ...        0 min,  0.059 sec
     gradient                   ...        0 min,  0.026 sec
 * total energy  :   -64.1659910 Eh     change       -0.8896571E-05 Eh
   gradient norm :     0.0009369 Eh/α   predicted    -0.3889611E-05 ( -56.28%)
   displ. norm   :     0.1126100 α      lambda       -0.7467672E-05
   maximum displ.:     0.0730377 α      in ANC's #1, #4, #8, ...

........................................................................
.............................. CYCLE   36 ..............................
........................................................................

 iter      E             dE          RMSdq      gap      omega  full diag
   1    -65.0241776 -0.650242E+02  0.237E-02    2.66       0.0  T
   2    -65.0241777 -0.980635E-07  0.141E-02    2.66       1.1  T
   3    -65.0241770  0.711516E-06  0.463E-03    2.66       3.4  T
   4    -65.0241778 -0.797715E-06  0.549E-04    2.66      28.4  T
   5    -65.0241778 -0.505889E-08  0.283E-04    2.66      55.2  T
     SCC iter.                  ...        0 min,  0.066 sec
     gradient                   ...        0 min,  0.033 sec
 * total energy  :   -64.1659999 Eh     change       -0.8890868E-05 Eh
   gradient norm :     0.0006043 Eh/α   predicted    -0.3757825E-05 ( -57.73%)
   displ. norm   :     0.1253451 α      lambda       -0.7951714E-05
   maximum displ.:     0.0823041 α      in ANC's #1, #4, #10, ...

........................................................................
.............................. CYCLE   37 ..............................
........................................................................

 iter      E             dE          RMSdq      gap      omega  full diag
   1    -65.0241448 -0.650241E+02  0.282E-02    2.66       0.0  T
   2    -65.0241450 -0.130071E-06  0.166E-02    2.66       1.0  T
   3    -65.0241444  0.556822E-06  0.415E-03    2.66       3.8  T
   4    -65.0241450 -0.632653E-06  0.654E-04    2.66      23.9  T
   5    -65.0241450 -0.784591E-08  0.322E-04    2.66      48.5  T
     SCC iter.                  ...        0 min,  0.071 sec
     gradient                   ...        0 min,  0.036 sec
 * total energy  :   -64.1660096 Eh     change       -0.9722440E-05 Eh
   gradient norm :     0.0006559 Eh/α   predicted    -0.4006908E-05 ( -58.79%)
   displ. norm   :     0.1204890 α      lambda       -0.8216733E-05
   maximum displ.:     0.0773706 α      in ANC's #1, #4, #10, ...

........................................................................
.............................. CYCLE   38 ..............................
........................................................................

 iter      E             dE          RMSdq      gap      omega  full diag
   1    -65.0242773 -0.650243E+02  0.296E-02    2.66       0.0  T
   2    -65.0242774 -0.799821E-07  0.175E-02    2.66       1.0  T
   3    -65.0242769  0.489980E-06  0.387E-03    2.66       4.0  T
   4    -65.0242775 -0.559620E-06  0.511E-04    2.66      30.6  T
   5    -65.0242775 -0.210655E-08  0.299E-04    2.66      52.2  T
     SCC iter.                  ...        0 min,  0.060 sec
     gradient                   ...        0 min,  0.033 sec
 * total energy  :   -64.1660201 Eh     change       -0.1054650E-04 Eh
   gradient norm :     0.0008792 Eh/α   predicted    -0.4139664E-05 ( -60.75%)
   displ. norm   :     0.1394935 α      lambda       -0.1010062E-04
   maximum displ.:     0.0865102 α      in ANC's #1, #4, #2, ...

........................................................................
.............................. CYCLE   39 ..............................
........................................................................

 iter      E             dE          RMSdq      gap      omega  full diag
   1    -65.0243396 -0.650243E+02  0.359E-02    2.66       0.0  T
   2    -65.0243397 -0.970352E-07  0.212E-02    2.66       1.0  T
   3    -65.0243394  0.340163E-06  0.329E-03    2.66       4.7  T
   4    -65.0243398 -0.407319E-06  0.558E-04    2.66      28.0  T
   5    -65.0243398 -0.184080E-08  0.306E-04    2.66      51.1  T
     SCC iter.                  ...        0 min,  0.071 sec
     gradient                   ...        0 min,  0.038 sec
 * total energy  :   -64.1660334 Eh     change       -0.1327137E-04 Eh
   gradient norm :     0.0009151 Eh/α   predicted    -0.5097305E-05 ( -61.59%)
   displ. norm   :     0.1692489 α      lambda       -0.1200557E-04
   maximum displ.:     0.1027099 α      in ANC's #1, #4, #2, ...

........................................................................
.............................. CYCLE   40 ..............................
........................................................................

 iter      E             dE          RMSdq      gap      omega  full diag
   1    -65.0241152 -0.650241E+02  0.453E-02    2.65       0.0  T
   2    -65.0241154 -0.128447E-06  0.266E-02    2.65       1.0  T
   3    -65.0241148  0.524989E-06  0.406E-03    2.65       3.8  T
   4    -65.0241155 -0.628907E-06  0.669E-04    2.65      23.4  T
   5    -65.0241155 -0.109583E-08  0.343E-04    2.65      45.5  T
     SCC iter.                  ...        0 min,  0.126 sec
     gradient                   ...        0 min,  0.038 sec
 * total energy  :   -64.1660487 Eh     change       -0.1527417E-04 Eh
   gradient norm :     0.0006208 Eh/α   predicted    -0.6081034E-05 ( -60.19%)
   displ. norm   :     0.2194861 α      lambda       -0.1316287E-04
   maximum displ.:     0.1319402 α      in ANC's #1, #4, #2, ...

........................................................................
.............................. CYCLE   41 ..............................
........................................................................

 iter      E             dE          RMSdq      gap      omega  full diag
   1    -65.0239818 -0.650240E+02  0.574E-02    2.65       0.0  T
   2    -65.0239821 -0.245226E-06  0.338E-02    2.65       1.0  T
   3    -65.0239810  0.106085E-05  0.567E-03    2.65       2.8  T
   4    -65.0239823 -0.124266E-05  0.879E-04    2.65      17.8  T
   5    -65.0239823 -0.506390E-08  0.487E-04    2.65      32.1  T
   6    -65.0239823 -0.153935E-08  0.192E-04    2.65      81.2  T
     SCC iter.                  ...        0 min,  0.063 sec
     gradient                   ...        0 min,  0.029 sec
 * total energy  :   -64.1660644 Eh     change       -0.1572024E-04 Eh
   gradient norm :     0.0006763 Eh/α   predicted    -0.6727289E-05 ( -57.21%)
   displ. norm   :     0.2684211 α      lambda       -0.1290897E-04
   maximum displ.:     0.1631662 α      in ANC's #1, #4, #2, ...

........................................................................
.............................. CYCLE   42 ..............................
........................................................................

 iter      E             dE          RMSdq      gap      omega  full diag
   1    -65.0235262 -0.650235E+02  0.711E-02    2.65       0.0  T
   2    -65.0235265 -0.333535E-06  0.419E-02    2.65       1.0  T
   3    -65.0235250  0.152319E-05  0.682E-03    2.65       2.3  T
   4    -65.0235268 -0.179198E-05  0.104E-03    2.65      15.1  T
   5    -65.0235268 -0.338277E-08  0.544E-04    2.65      28.7  T
   6    -65.0235268 -0.232109E-08  0.194E-04    2.65      80.6  T
     SCC iter.                  ...        0 min,  0.267 sec
     gradient                   ...        0 min,  0.083 sec
 * total energy  :   -64.1660782 Eh     change       -0.1381569E-04 Eh
   gradient norm :     0.0010192 Eh/α   predicted    -0.6664253E-05 ( -51.76%)
   displ. norm   :     0.2117862 α      lambda       -0.9278938E-05
   maximum displ.:     0.1341803 α      in ANC's #1, #4, #2, ...
 * RMSD in coord.:     0.4010291 α      energy gain  -0.5086474E-03 Eh

generating ANC from exact Hessian ...
Using Lindh-Hessian (1995)
 Shifting diagonal of input Hessian by    9.7930696424418737E-003
 Lowest  eigenvalues of input Hessian
    0.000000    0.000000    0.000000    0.000000    0.000000    0.000000
    0.010000    0.010219    0.010229    0.010636    0.010771    0.011075
    0.012567    0.013527    0.013636    0.015245    0.015881    0.017991
 Highest eigenvalues
    1.905822    1.923430    1.927210    2.101330    2.127738    2.415694


........................................................................
.............................. CYCLE   43 ..............................
........................................................................

 iter      E             dE          RMSdq      gap      omega  full diag
   1    -65.0237156 -0.650237E+02  0.529E-02    2.64       0.0  T
   2    -65.0237158 -0.222571E-06  0.311E-02    2.64       1.0  T
   3    -65.0237149  0.850639E-06  0.508E-03    2.64       3.1  T
   4    -65.0237159 -0.998455E-06  0.850E-04    2.64      18.4  T
   5    -65.0237159 -0.650425E-08  0.438E-04    2.64      35.6  T
     SCC iter.                  ...        0 min,  0.088 sec
     gradient                   ...        0 min,  0.050 sec
 * total energy  :   -64.1660887 Eh     change       -0.1050475E-04 Eh
   gradient norm :     0.0011732 Eh/α   predicted     0.0000000E+00 (-100.00%)
   displ. norm   :     0.0241369 α      lambda       -0.5768836E-05
   maximum displ.:     0.0136407 α      in ANC's #7, #5, #1, ...

........................................................................
.............................. CYCLE   44 ..............................
........................................................................

 iter      E             dE          RMSdq      gap      omega  full diag
   1    -65.0243964 -0.650244E+02  0.609E-03    2.64       0.0  T
   2    -65.0243965 -0.553855E-07  0.357E-03    2.64       4.4  T
   3    -65.0243964  0.408541E-07  0.161E-03    2.64       9.7  T
   4    -65.0243965 -0.569793E-07  0.273E-04    2.64      57.1  T
   5    -65.0243965 -0.123219E-08  0.125E-04    2.64     125.1  T
     SCC iter.                  ...        0 min,  0.088 sec
     gradient                   ...        0 min,  0.042 sec
 * total energy  :   -64.1660949 Eh     change       -0.6214897E-05 Eh
   gradient norm :     0.0004453 Eh/α   predicted    -0.2891028E-05 ( -53.48%)
   displ. norm   :     0.0581687 α      lambda       -0.7320454E-05
   maximum displ.:     0.0327328 α      in ANC's #7, #5, #1, ...

........................................................................
.............................. CYCLE   45 ..............................
........................................................................

 iter      E             dE          RMSdq      gap      omega  full diag
   1    -65.0247996 -0.650248E+02  0.116E-02    2.64       0.0  T
   2    -65.0247997 -0.611747E-07  0.682E-03    2.64       2.3  T
   3    -65.0247996  0.145066E-06  0.242E-03    2.64       6.5  T
   4    -65.0247997 -0.174285E-06  0.323E-04    2.64      48.3  T
   5    -65.0247997 -0.173532E-08  0.181E-04    2.64      86.2  T
     SCC iter.                  ...        0 min,  0.164 sec
     gradient                   ...        0 min,  0.048 sec
 * total energy  :   -64.1661033 Eh     change       -0.8335803E-05 Eh
   gradient norm :     0.0009103 Eh/α   predicted    -0.3668963E-05 ( -55.99%)
   displ. norm   :     0.0962363 α      lambda       -0.8802194E-05
   maximum displ.:     0.0523036 α      in ANC's #7, #1, #5, ...

........................................................................
.............................. CYCLE   46 ..............................
........................................................................

 iter      E             dE          RMSdq      gap      omega  full diag
   1    -65.0247085 -0.650247E+02  0.186E-02    2.64       0.0  T
   2    -65.0247086 -0.527903E-07  0.110E-02    2.64       1.4  T
   3    -65.0247083  0.227726E-06  0.272E-03    2.64       5.7  T
   4    -65.0247086 -0.260715E-06  0.423E-04    2.64      36.9  T
   5    -65.0247086 -0.312183E-08  0.221E-04    2.64      70.7  T
     SCC iter.                  ...        0 min,  0.336 sec
     gradient                   ...        0 min,  0.072 sec
 * total energy  :   -64.1661133 Eh     change       -0.1005836E-04 Eh
   gradient norm :     0.0011570 Eh/α   predicted    -0.4457318E-05 ( -55.69%)
   displ. norm   :     0.1352679 α      lambda       -0.9940649E-05
   maximum displ.:     0.0695309 α      in ANC's #7, #1, #9, ...

........................................................................
.............................. CYCLE   47 ..............................
........................................................................

 iter      E             dE          RMSdq      gap      omega  full diag
   1    -65.0244046 -0.650244E+02  0.255E-02    2.64       0.0  T
   2    -65.0244047 -0.611512E-07  0.151E-02    2.64       1.0  T
   3    -65.0244045  0.178123E-06  0.238E-03    2.64       6.6  T
   4    -65.0244047 -0.213140E-06  0.491E-04    2.64      31.8  T
   5    -65.0244047 -0.274086E-08  0.261E-04    2.64      59.9  T
     SCC iter.                  ...        0 min,  0.083 sec
     gradient                   ...        0 min,  0.057 sec
 * total energy  :   -64.1661237 Eh     change       -0.1036872E-04 Eh
   gradient norm :     0.0009719 Eh/α   predicted    -0.5011249E-05 ( -51.67%)
   displ. norm   :     0.1138250 α      lambda       -0.6949809E-05
   maximum displ.:     0.0544643 α      in ANC's #1, #7, #9, ...

........................................................................
.............................. CYCLE   48 ..............................
........................................................................

 iter      E             dE          RMSdq      gap      omega  full diag
   1    -65.0241013 -0.650241E+02  0.218E-02    2.64       0.0  T
   2    -65.0241014 -0.613532E-07  0.129E-02    2.64       1.2  T
   3    -65.0241013  0.521152E-07  0.134E-03    2.64      11.7  T
   4    -65.0241014 -0.718072E-07  0.430E-04    2.64      36.3  T
   5    -65.0241014 -0.297929E-08  0.223E-04    2.64      70.0  T
     SCC iter.                  ...        0 min,  0.083 sec
     gradient                   ...        0 min,  0.047 sec
 * total energy  :   -64.1661311 Eh     change       -0.7367964E-05 Eh
   gradient norm :     0.0006532 Eh/α   predicted    -0.3495223E-05 ( -52.56%)
   displ. norm   :     0.0790300 α      lambda       -0.5335762E-05
   maximum displ.:     0.0429398 α      in ANC's #1, #9, #2, ...

........................................................................
.............................. CYCLE   49 ..............................
........................................................................

 iter      E             dE          RMSdq      gap      omega  full diag
   1    -65.0241062 -0.650241E+02  0.157E-02    2.64       0.0  T
   2    -65.0241062 -0.416475E-07  0.930E-03    2.64       1.7  T
   3    -65.0241062  0.469937E-07  0.131E-03    2.64      12.0  T
   4    -65.0241062 -0.641285E-07  0.301E-04    2.64      51.9  T
   5    -65.0241062 -0.559595E-09  0.154E-04    2.64     101.7  T
     SCC iter.                  ...        0 min,  0.089 sec
     gradient                   ...        0 min,  0.043 sec
 * total energy  :   -64.1661370 Eh     change       -0.5978133E-05 Eh
   gradient norm :     0.0005166 Eh/α   predicted    -0.2675580E-05 ( -55.24%)
   displ. norm   :     0.0686811 α      lambda       -0.4668821E-05
   maximum displ.:     0.0405093 α      in ANC's #1, #2, #4, ...

........................................................................
.............................. CYCLE   50 ..............................
........................................................................

 iter      E             dE          RMSdq      gap      omega  full diag
   1    -65.0242064 -0.650242E+02  0.154E-02    2.64       0.0  T
   2    -65.0242064 -0.308324E-07  0.911E-03    2.64       1.7  T
   3    -65.0242064  0.659841E-07  0.151E-03    2.64      10.4  T
   4    -65.0242065 -0.831643E-07  0.359E-04    2.64      43.5  T
   5    -65.0242065 -0.115145E-08  0.199E-04    2.64      78.4  T
     SCC iter.                  ...        0 min,  0.104 sec
     gradient                   ...        0 min,  0.040 sec
 * total energy  :   -64.1661424 Eh     change       -0.5362806E-05 Eh
   gradient norm :     0.0006066 Eh/α   predicted    -0.2340015E-05 ( -56.37%)
   displ. norm   :     0.0738660 α      lambda       -0.4685000E-05
   maximum displ.:     0.0443775 α      in ANC's #1, #2, #4, ...

........................................................................
.............................. CYCLE   51 ..............................
........................................................................

 iter      E             dE          RMSdq      gap      omega  full diag
   1    -65.0243208 -0.650243E+02  0.189E-02    2.64       0.0  T
   2    -65.0243209 -0.322620E-07  0.112E-02    2.64       1.4  T
   3    -65.0243209  0.404938E-08  0.893E-04    2.64      17.5  T
   4    -65.0243209 -0.218910E-07  0.388E-04    2.64      40.2  T
     SCC iter.                  ...        0 min,  0.064 sec
     gradient                   ...        0 min,  0.036 sec
 * total energy  :   -64.1661482 Eh     change       -0.5785445E-05 Eh
   gradient norm :     0.0006450 Eh/α   predicted    -0.2350586E-05 ( -59.37%)
   displ. norm   :     0.1167486 α      lambda       -0.7104542E-05
   maximum displ.:     0.0694971 α      in ANC's #1, #2, #4, ...

........................................................................
.............................. CYCLE   52 ..............................
........................................................................

 iter      E             dE          RMSdq      gap      omega  full diag
   1    -65.0243481 -0.650243E+02  0.304E-02    2.64       0.0  T
   2    -65.0243482 -0.852310E-07  0.179E-02    2.64       1.0  T
   3    -65.0243481  0.420561E-07  0.172E-03    2.64       9.1  T
   4    -65.0243482 -0.921574E-07  0.633E-04    2.64      24.7  T
   5    -65.0243482 -0.181774E-08  0.249E-04    2.64      62.8  T
     SCC iter.                  ...        0 min,  0.076 sec
     gradient                   ...        0 min,  0.040 sec
 * total energy  :   -64.1661572 Eh     change       -0.9052449E-05 Eh
   gradient norm :     0.0006749 Eh/α   predicted    -0.3575254E-05 ( -60.51%)
   displ. norm   :     0.2058556 α      lambda       -0.1182316E-04
   maximum displ.:     0.1222658 α      in ANC's #1, #2, #4, ...

........................................................................
.............................. CYCLE   53 ..............................
........................................................................

 iter      E             dE          RMSdq      gap      omega  full diag
   1    -65.0240519 -0.650241E+02  0.535E-02    2.64       0.0  T
   2    -65.0240522 -0.253835E-06  0.316E-02    2.64       1.0  T
   3    -65.0240518  0.411337E-06  0.406E-03    2.64       3.9  T
   4    -65.0240523 -0.582321E-06  0.108E-03    2.64      14.4  T
   5    -65.0240523 -0.343282E-08  0.415E-04    2.64      37.7  T
   6    -65.0240523 -0.213706E-08  0.144E-04    2.64     108.7  T
     SCC iter.                  ...        0 min,  0.087 sec
     gradient                   ...        0 min,  0.040 sec
 * total energy  :   -64.1661717 Eh     change       -0.1444000E-04 Eh
   gradient norm :     0.0009257 Eh/α   predicted    -0.6024659E-05 ( -58.28%)
   displ. norm   :     0.2652397 α      lambda       -0.1451911E-04
   maximum displ.:     0.1587454 α      in ANC's #1, #2, #4, ...

........................................................................
.............................. CYCLE   54 ..............................
........................................................................

 iter      E             dE          RMSdq      gap      omega  full diag
   1    -65.0234898 -0.650235E+02  0.668E-02    2.64       0.0  T
   2    -65.0234902 -0.406842E-06  0.394E-02    2.64       1.0  T
   3    -65.0234893  0.880632E-06  0.566E-03    2.64       2.8  T
   4    -65.0234905 -0.116180E-05  0.135E-03    2.64      11.6  T
   5    -65.0234905 -0.617717E-08  0.576E-04    2.64      27.1  T
   6    -65.0234905 -0.326413E-08  0.201E-04    2.64      77.7  T
     SCC iter.                  ...        0 min,  0.080 sec
     gradient                   ...        0 min,  0.032 sec
 * total energy  :   -64.1661881 Eh     change       -0.1639933E-04 Eh
   gradient norm :     0.0015343 Eh/α   predicted    -0.7488808E-05 ( -54.33%)
   displ. norm   :     0.2457892 α      lambda       -0.1622596E-04
   maximum displ.:     0.1497538 α      in ANC's #1, #2, #4, ...

........................................................................
.............................. CYCLE   55 ..............................
........................................................................

 iter      E             dE          RMSdq      gap      omega  full diag
   1    -65.0234250 -0.650234E+02  0.605E-02    2.64       0.0  T
   2    -65.0234254 -0.335714E-06  0.357E-02    2.64       1.0  T
   3    -65.0234241  0.129778E-05  0.646E-03    2.64       2.4  T
   4    -65.0234256 -0.156694E-05  0.116E-03    2.64      13.4  T
   5    -65.0234256 -0.430965E-08  0.550E-04    2.64      28.4  T
   6    -65.0234256 -0.154782E-08  0.170E-04    2.64      91.9  T
     SCC iter.                  ...        0 min,  0.367 sec
     gradient                   ...        0 min,  0.054 sec
 * total energy  :   -64.1662071 Eh     change       -0.1904431E-04 Eh
   gradient norm :     0.0013972 Eh/α   predicted    -0.8333722E-05 ( -56.24%)
   displ. norm   :     0.3012704 α      lambda       -0.2123342E-04
   maximum displ.:     0.1852067 α      in ANC's #1, #2, #3, ...

........................................................................
.............................. CYCLE   56 ..............................
........................................................................

 iter      E             dE          RMSdq      gap      omega  full diag
   1    -65.0235338 -0.650235E+02  0.709E-02    2.64       0.0  T
   2    -65.0235343 -0.456035E-06  0.418E-02    2.64       1.0  T
   3    -65.0235328  0.153419E-05  0.706E-03    2.64       2.2  T
   4    -65.0235346 -0.187209E-05  0.132E-03    2.64      11.8  T
   5    -65.0235346 -0.665094E-08  0.637E-04    2.64      24.5  T
   6    -65.0235346 -0.139296E-08  0.207E-04    2.64      75.4  T
     SCC iter.                  ...        0 min,  0.160 sec
     gradient                   ...        0 min,  0.052 sec
 * total energy  :   -64.1662314 Eh     change       -0.2426464E-04 Eh
   gradient norm :     0.0013440 Eh/α   predicted    -0.1104957E-04 ( -54.46%)
   displ. norm   :     0.3921516 α      lambda       -0.2235945E-04
   maximum displ.:     0.2432310 α      in ANC's #1, #2, #3, ...

........................................................................
.............................. CYCLE   57 ..............................
........................................................................

 iter      E             dE          RMSdq      gap      omega  full diag
   1    -65.0225898 -0.650226E+02  0.915E-02    2.63       0.0  T
   2    -65.0225904 -0.655849E-06  0.540E-02    2.63       1.0  T
   3    -65.0225879  0.253197E-05  0.906E-03    2.63       1.7  T
   4    -65.0225910 -0.308992E-05  0.166E-03    2.63       9.4  T
   5    -65.0225910 -0.154421E-08  0.675E-04    2.63      23.1  T
   6    -65.0225910 -0.756123E-08  0.224E-04    2.63      69.6  T
     SCC iter.                  ...        0 min,  0.088 sec
     gradient                   ...        0 min,  0.036 sec
 * total energy  :   -64.1662545 Eh     change       -0.2311049E-04 Eh
   gradient norm :     0.0019803 Eh/α   predicted    -0.1194475E-04 ( -48.31%)
   displ. norm   :     0.3357924 α      lambda       -0.3155770E-04
   maximum displ.:     0.2095522 α      in ANC's #1, #2, #8, ...

........................................................................
.............................. CYCLE   58 ..............................
........................................................................

 iter      E             dE          RMSdq      gap      omega  full diag
   1    -65.0252567 -0.650253E+02  0.783E-02    2.64       0.0  T
   2    -65.0252580 -0.136040E-05  0.460E-02    2.64       1.0  T
   3    -65.0252561  0.196389E-05  0.820E-03    2.64       1.9  T
   4    -65.0252584 -0.230003E-05  0.204E-03    2.64       7.6  T
   5    -65.0252585 -0.969748E-07  0.891E-04    2.64      17.5  T
   6    -65.0252585 -0.176536E-08  0.440E-04    2.64      35.5  T
     SCC iter.                  ...        0 min,  0.189 sec
     gradient                   ...        0 min,  0.069 sec
 * total energy  :   -64.1662610 Eh     change       -0.6538417E-05 Eh
   gradient norm :     0.0035949 Eh/α   predicted    -0.1657314E-04 ( 153.47%)
   displ. norm   :     0.3614705 α      lambda       -0.4426445E-04
   maximum displ.:     0.2260935 α      in ANC's #1, #2, #3, ...

........................................................................
.............................. CYCLE   59 ..............................
........................................................................

 iter      E             dE          RMSdq      gap      omega  full diag
   1    -65.0220635 -0.650221E+02  0.854E-02    2.63       0.0  T
   2    -65.0220648 -0.129696E-05  0.502E-02    2.63       1.0  T
   3    -65.0220634  0.149586E-05  0.735E-03    2.63       2.1  T
   4    -65.0220653 -0.192469E-05  0.214E-03    2.63       7.3  T
   5    -65.0220654 -0.799836E-07  0.105E-03    2.63      14.8  T
   6    -65.0220654 -0.508486E-08  0.540E-04    2.63      28.9  T
   7    -65.0220654 -0.529475E-08  0.132E-04    2.63     118.6  T
     SCC iter.                  ...        0 min,  0.139 sec
     gradient                   ...        0 min,  0.041 sec
 * total energy  :   -64.1662855 Eh     change       -0.2444327E-04 Eh
   gradient norm :     0.0022657 Eh/α   predicted    -0.2502849E-04 (   2.39%)
   displ. norm   :     0.0625852 α      lambda       -0.2003859E-04
   maximum displ.:     0.0305019 α      in ANC's #1, #8, #2, ...

........................................................................
.............................. CYCLE   60 ..............................
........................................................................

 iter      E             dE          RMSdq      gap      omega  full diag
   1    -65.0234811 -0.650235E+02  0.140E-02    2.63       0.0  T
   2    -65.0234813 -0.199084E-06  0.826E-03    2.63       1.9  T
   3    -65.0234810  0.235537E-06  0.320E-03    2.63       4.9  T
   4    -65.0234813 -0.281401E-06  0.652E-04    2.63      23.9  T
   5    -65.0234813 -0.116448E-07  0.265E-04    2.63      59.0  T
     SCC iter.                  ...        0 min,  0.071 sec
     gradient                   ...        0 min,  0.046 sec
 * total energy  :   -64.1662981 Eh     change       -0.1258334E-04 Eh
   gradient norm :     0.0012858 Eh/α   predicted    -0.1006310E-04 ( -20.03%)
   displ. norm   :     0.2080533 α      lambda       -0.1844863E-04
   maximum displ.:     0.1288238 α      in ANC's #1, #2, #4, ...

........................................................................
.............................. CYCLE   61 ..............................
........................................................................

 iter      E             dE          RMSdq      gap      omega  full diag
   1    -65.0233752 -0.650234E+02  0.493E-02    2.63       0.0  T
   2    -65.0233755 -0.336725E-06  0.290E-02    2.63       1.0  T
   3    -65.0233754  0.120490E-06  0.287E-03    2.63       5.4  T
   4    -65.0233757 -0.241256E-06  0.104E-03    2.63      15.0  T
   5    -65.0233757 -0.115090E-07  0.565E-04    2.63      27.6  T
   6    -65.0233757 -0.206416E-08  0.279E-04    2.63      56.1  T
     SCC iter.                  ...        0 min,  0.099 sec
     gradient                   ...        0 min,  0.029 sec
 * total energy  :   -64.1663159 Eh     change       -0.1784507E-04 Eh
   gradient norm :     0.0024086 Eh/α   predicted    -0.9406763E-05 ( -47.29%)
   displ. norm   :     0.1792703 α      lambda       -0.1912464E-04
   maximum displ.:     0.1139435 α      in ANC's #1, #2, #3, ...

........................................................................
.............................. CYCLE   62 ..............................
........................................................................

 iter      E             dE          RMSdq      gap      omega  full diag
   1    -65.0235935 -0.650236E+02  0.424E-02    2.63       0.0  T
   2    -65.0235937 -0.229044E-06  0.250E-02    2.63       1.0  T
   3    -65.0235934  0.259165E-06  0.318E-03    2.63       4.9  T
   4    -65.0235938 -0.351355E-06  0.891E-04    2.63      17.5  T
   5    -65.0235938 -0.108687E-07  0.459E-04    2.63      34.0  T
     SCC iter.                  ...        0 min,  0.122 sec
     gradient                   ...        0 min,  0.046 sec
 * total energy  :   -64.1663304 Eh     change       -0.1447501E-04 Eh
   gradient norm :     0.0014347 Eh/α   predicted    -0.9872268E-05 ( -31.80%)
   displ. norm   :     0.5154934 α      lambda       -0.1917556E-04
   maximum displ.:     0.3302528 α      in ANC's #1, #2, #3, ...

........................................................................
.............................. CYCLE   63 ..............................
........................................................................

 iter      E             dE          RMSdq      gap      omega  full diag
   1    -65.0215981 -0.650216E+02  0.121E-01    2.62       0.0  T
   2    -65.0215998 -0.172259E-05  0.713E-02    2.62       1.0  T
   3    -65.0215980  0.185342E-05  0.853E-03    2.62       1.8  T
   4    -65.0216005 -0.253658E-05  0.260E-03    2.62       6.0  T
   5    -65.0216006 -0.104172E-06  0.128E-03    2.62      12.2  T
   6    -65.0216006 -0.168326E-08  0.555E-04    2.62      28.1  T
   7    -65.0216006 -0.922086E-08  0.146E-04    2.62     107.2  T
     SCC iter.                  ...        0 min,  0.117 sec
     gradient                   ...        0 min,  0.025 sec
 * total energy  :   -64.1663408 Eh     change       -0.1045028E-04 Eh
   gradient norm :     0.0026430 Eh/α   predicted    -0.1072119E-04 (   2.59%)
   displ. norm   :     0.0415196 α      lambda       -0.2275201E-04
   maximum displ.:     0.0161231 α      in ANC's #16, #11, #15, ...

........................................................................
.............................. CYCLE   64 ..............................
........................................................................

 iter      E             dE          RMSdq      gap      omega  full diag
   1    -65.0248579 -0.650249E+02  0.125E-02    2.63       0.0  T
   2    -65.0248583 -0.456344E-06  0.723E-03    2.63       2.2  T
   3    -65.0248582  0.115966E-06  0.369E-03    2.63       4.2  T
   4    -65.0248585 -0.228477E-06  0.754E-04    2.63      20.7  T
   5    -65.0248585 -0.119620E-07  0.318E-04    2.63      49.1  T
     SCC iter.                  ...        0 min,  0.082 sec
     gradient                   ...        0 min,  0.042 sec
 * total energy  :   -64.1663468 Eh     change       -0.5965747E-05 Eh
   gradient norm :     0.0026808 Eh/α   predicted    -0.1139609E-04 (  91.03%)
   displ. norm   :     0.1047232 α      lambda       -0.2083205E-04
   maximum displ.:     0.0629712 α      in ANC's #1, #2, #3, ...

........................................................................
.............................. CYCLE   65 ..............................
........................................................................

 iter      E             dE          RMSdq      gap      omega  full diag
   1    -65.0243728 -0.650244E+02  0.280E-02    2.62       0.0  T
   2    -65.0243730 -0.225945E-06  0.165E-02    2.62       1.0  T
   3    -65.0243726  0.378791E-06  0.351E-03    2.62       4.5  T
   4    -65.0243731 -0.448979E-06  0.861E-04    2.62      18.1  T
   5    -65.0243731 -0.158144E-07  0.394E-04    2.62      39.6  T
     SCC iter.                  ...        0 min,  0.077 sec
     gradient                   ...        0 min,  0.041 sec
 * total energy  :   -64.1663591 Eh     change       -0.1230437E-04 Eh
   gradient norm :     0.0012973 Eh/α   predicted    -0.1052732E-04 ( -14.44%)
   displ. norm   :     0.3035606 α      lambda       -0.1469774E-04
   maximum displ.:     0.1947875 α      in ANC's #1, #2, #3, ...

........................................................................
.............................. CYCLE   66 ..............................
........................................................................

 iter      E             dE          RMSdq      gap      omega  full diag
   1    -65.0229427 -0.650229E+02  0.734E-02    2.62       0.0  T
   2    -65.0229432 -0.511332E-06  0.432E-02    2.62       1.0  T
   3    -65.0229428  0.423547E-06  0.438E-03    2.62       3.6  T
   4    -65.0229434 -0.672260E-06  0.147E-03    2.62      10.6  T
   5    -65.0229435 -0.209544E-07  0.742E-04    2.62      21.0  T
   6    -65.0229435 -0.371132E-08  0.271E-04    2.62      57.6  T
     SCC iter.                  ...        0 min,  0.097 sec
     gradient                   ...        0 min,  0.042 sec
 * total energy  :   -64.1663721 Eh     change       -0.1302775E-04 Eh
   gradient norm :     0.0019128 Eh/α   predicted    -0.7646024E-05 ( -41.31%)
   displ. norm   :     0.2917277 α      lambda       -0.1444077E-04
   maximum displ.:     0.1859250 α      in ANC's #1, #2, #3, ...
 * RMSD in coord.:     0.5714254 α      energy gain  -0.2939213E-03 Eh

generating ANC from exact Hessian ...
Using Lindh-Hessian (1995)
 Shifting diagonal of input Hessian by    9.7747206123771462E-003
 Lowest  eigenvalues of input Hessian
    0.000000    0.000000    0.000000    0.000000    0.000000    0.000000
    0.010000    0.010195    0.010219    0.010595    0.010770    0.011035
    0.012627    0.013629    0.013688    0.014729    0.015671    0.017865
 Highest eigenvalues
    1.904668    1.922304    1.927149    2.100483    2.126691    2.414286


........................................................................
.............................. CYCLE   67 ..............................
........................................................................

 iter      E             dE          RMSdq      gap      omega  full diag
   1    -65.0230722 -0.650231E+02  0.726E-02    2.62       0.0  T
   2    -65.0230726 -0.411097E-06  0.427E-02    2.62       1.0  T
   3    -65.0230724  0.257310E-06  0.385E-03    2.62       4.1  T
   4    -65.0230729 -0.486720E-06  0.130E-03    2.62      12.0  T
   5    -65.0230729 -0.978866E-08  0.599E-04    2.62      26.1  T
   6    -65.0230729 -0.246339E-08  0.201E-04    2.62      77.9  T
     SCC iter.                  ...        0 min,  0.063 sec
     gradient                   ...        0 min,  0.039 sec
 * total energy  :   -64.1663895 Eh     change       -0.1736379E-04 Eh
   gradient norm :     0.0020944 Eh/α   predicted     0.0000000E+00 (-100.00%)
   displ. norm   :     0.0166602 α      lambda       -0.1023662E-04
   maximum displ.:     0.0072604 α      in ANC's #2, #4, #9, ...

........................................................................
.............................. CYCLE   68 ..............................
........................................................................

 iter      E             dE          RMSdq      gap      omega  full diag
   1    -65.0241566 -0.650242E+02  0.623E-03    2.62       0.0  T
   2    -65.0241567 -0.819018E-07  0.371E-03    2.62       4.2  T
   3    -65.0241567  0.382371E-07  0.160E-03    2.62       9.7  T
   4    -65.0241567 -0.556790E-07  0.373E-04    2.62      41.9  T
   5    -65.0241567 -0.351071E-08  0.153E-04    2.62     102.3  T
     SCC iter.                  ...        0 min,  0.079 sec
     gradient                   ...        0 min,  0.047 sec
 * total energy  :   -64.1663972 Eh     change       -0.7743067E-05 Eh
   gradient norm :     0.0006445 Eh/α   predicted    -0.5402486E-05 ( -30.23%)
   displ. norm   :     0.0481633 α      lambda       -0.7837272E-05
   maximum displ.:     0.0228662 α      in ANC's #2, #4, #9, ...

........................................................................
.............................. CYCLE   69 ..............................
........................................................................

 iter      E             dE          RMSdq      gap      omega  full diag
   1    -65.0252519 -0.650253E+02  0.146E-02    2.63       0.0  T
   2    -65.0252520 -0.116260E-06  0.869E-03    2.63       1.8  T
   3    -65.0252518  0.204789E-06  0.272E-03    2.63       5.7  T
   4    -65.0252521 -0.249659E-06  0.546E-04    2.63      28.6  T
   5    -65.0252521 -0.606485E-08  0.263E-04    2.63      59.3  T
     SCC iter.                  ...        0 min,  0.141 sec
     gradient                   ...        0 min,  0.050 sec
 * total energy  :   -64.1664043 Eh     change       -0.7050373E-05 Eh
   gradient norm :     0.0013588 Eh/α   predicted    -0.3922867E-05 ( -44.36%)
   displ. norm   :     0.0492307 α      lambda       -0.5493688E-05
   maximum displ.:     0.0248274 α      in ANC's #2, #4, #9, ...

........................................................................
.............................. CYCLE   70 ..............................
........................................................................

 iter      E             dE          RMSdq      gap      omega  full diag
   1    -65.0251118 -0.650251E+02  0.141E-02    2.63       0.0  T
   2    -65.0251119 -0.285195E-07  0.837E-03    2.63       1.9  T
   3    -65.0251119 -0.406516E-09  0.631E-04    2.63      24.7  T
   4    -65.0251119 -0.966979E-08  0.332E-04    2.63      47.0  T
     SCC iter.                  ...        0 min,  0.067 sec
     gradient                   ...        0 min,  0.026 sec
 * total energy  :   -64.1664115 Eh     change       -0.7226621E-05 Eh
   gradient norm :     0.0012298 Eh/α   predicted    -0.2761682E-05 ( -61.78%)
   displ. norm   :     0.1288141 α      lambda       -0.1290258E-04
   maximum displ.:     0.0668759 α      in ANC's #2, #4, #9, ...

........................................................................
.............................. CYCLE   71 ..............................
........................................................................

 iter      E             dE          RMSdq      gap      omega  full diag
   1    -65.0243224 -0.650243E+02  0.359E-02    2.63       0.0  T
   2    -65.0243226 -0.156634E-06  0.213E-02    2.63       1.0  T
   3    -65.0243225  0.554968E-07  0.214E-03    2.63       7.3  T
   4    -65.0243227 -0.130241E-06  0.804E-04    2.63      19.4  T
   5    -65.0243227 -0.410834E-08  0.443E-04    2.63      35.2  T
     SCC iter.                  ...        0 min,  0.290 sec
     gradient                   ...        0 min,  0.054 sec
 * total energy  :   -64.1664242 Eh     change       -0.1268218E-04 Eh
   gradient norm :     0.0007853 Eh/α   predicted    -0.6499435E-05 ( -48.75%)
   displ. norm   :     0.0699991 α      lambda       -0.3850805E-05
   maximum displ.:     0.0407084 α      in ANC's #2, #4, #11, ...

........................................................................
.............................. CYCLE   72 ..............................
........................................................................

 iter      E             dE          RMSdq      gap      omega  full diag
   1    -65.0241591 -0.650242E+02  0.182E-02    2.63       0.0  T
   2    -65.0241591 -0.388245E-07  0.108E-02    2.63       1.4  T
   3    -65.0241591  0.324760E-07  0.132E-03    2.63      11.9  T
   4    -65.0241591 -0.552491E-07  0.364E-04    2.63      42.9  T
   5    -65.0241591  0.665210E-10  0.151E-04    2.63     103.1  T
     SCC iter.                  ...        0 min,  0.090 sec
     gradient                   ...        0 min,  0.045 sec
 * total energy  :   -64.1664283 Eh     change       -0.4101549E-05 Eh
   gradient norm :     0.0006569 Eh/α   predicted    -0.1936496E-05 ( -52.79%)
   displ. norm   :     0.0699991 α      lambda        0.0000000E+00
   maximum displ.:     0.0407084 α      in ANC's #2, #4, #11, ...

........................................................................
.............................. CYCLE   73 ..............................
........................................................................

 iter      E             dE          RMSdq      gap      omega  full diag
   1    -65.0238895 -0.650239E+02  0.182E-02    2.63       0.0  T
   2    -65.0238895 -0.382576E-07  0.108E-02    2.63       1.4  T
   3    -65.0238895  0.294263E-07  0.126E-03    2.63      12.4  T
   4    -65.0238895 -0.511488E-07  0.368E-04    2.63      42.4  T
   5    -65.0238895  0.211728E-09  0.197E-04    2.63      79.5  T
     SCC iter.                  ...        0 min,  0.078 sec
     gradient                   ...        0 min,  0.046 sec
 * total energy  :   -64.1664288 Eh     change       -0.5560919E-06 Eh
   gradient norm :     0.0010713 Eh/α   predicted    -0.8817428E-09 ( -99.84%)
   displ. norm   :     0.0174341 α      lambda       -0.3270456E-05
   maximum displ.:     0.0096209 α      in ANC's #2, #10, #9, ...

........................................................................
.............................. CYCLE   74 ..............................
........................................................................

 iter      E             dE          RMSdq      gap      omega  full diag
   1    -65.0242145 -0.650242E+02  0.618E-03    2.63       0.0  T
   2    -65.0242145 -0.115487E-07  0.365E-03    2.63       4.3  T
   3    -65.0242145  0.224243E-07  0.740E-04    2.63      21.1  T
   4    -65.0242145 -0.262479E-07  0.139E-04    2.63     112.6  T
     SCC iter.                  ...        0 min,  0.080 sec
     gradient                   ...        0 min,  0.052 sec
 * total energy  :   -64.1664325 Eh     change       -0.3684720E-05 Eh
   gradient norm :     0.0005972 Eh/α   predicted    -0.1644573E-05 ( -55.37%)
   displ. norm   :     0.0465932 α      lambda       -0.4944143E-05
   maximum displ.:     0.0232327 α      in ANC's #2, #9, #10, ...

........................................................................
.............................. CYCLE   75 ..............................
........................................................................

 iter      E             dE          RMSdq      gap      omega  full diag
   1    -65.0247459 -0.650247E+02  0.151E-02    2.63       0.0  T
   2    -65.0247460 -0.338411E-07  0.892E-03    2.63       1.8  T
   3    -65.0247459  0.688072E-07  0.144E-03    2.63      10.8  T
   4    -65.0247460 -0.818003E-07  0.296E-04    2.63      52.8  T
   5    -65.0247460 -0.124888E-08  0.171E-04    2.63      91.2  T
     SCC iter.                  ...        0 min,  0.081 sec
     gradient                   ...        0 min,  0.039 sec
 * total energy  :   -64.1664379 Eh     change       -0.5365860E-05 Eh
   gradient norm :     0.0006537 Eh/α   predicted    -0.2477145E-05 ( -53.84%)
   displ. norm   :     0.0778488 α      lambda       -0.4605595E-05
   maximum displ.:     0.0488453 α      in ANC's #2, #5, #10, ...

........................................................................
.............................. CYCLE   76 ..............................
........................................................................

 iter      E             dE          RMSdq      gap      omega  full diag
   1    -65.0247606 -0.650248E+02  0.218E-02    2.63       0.0  T
   2    -65.0247606 -0.347352E-07  0.128E-02    2.63       1.2  T
   3    -65.0247605  0.695710E-07  0.153E-03    2.63      10.2  T
   4    -65.0247606 -0.898352E-07  0.372E-04    2.63      42.0  T
   5    -65.0247606 -0.662340E-09  0.225E-04    2.63      69.5  T
     SCC iter.                  ...        0 min,  0.064 sec
     gradient                   ...        0 min,  0.032 sec
 * total energy  :   -64.1664434 Eh     change       -0.5505888E-05 Eh
   gradient norm :     0.0008175 Eh/α   predicted    -0.2310405E-05 ( -58.04%)
   displ. norm   :     0.1040927 α      lambda       -0.5085525E-05
   maximum displ.:     0.0680481 α      in ANC's #2, #16, #5, ...

........................................................................
.............................. CYCLE   77 ..............................
........................................................................

 iter      E             dE          RMSdq      gap      omega  full diag
   1    -65.0245065 -0.650245E+02  0.279E-02    2.62       0.0  T
   2    -65.0245066 -0.666018E-07  0.164E-02    2.62       1.0  T
   3    -65.0245066  0.272532E-07  0.136E-03    2.62      11.5  T
   4    -65.0245066 -0.563354E-07  0.514E-04    2.62      30.4  T
   5    -65.0245066 -0.211843E-08  0.285E-04    2.62      54.7  T
     SCC iter.                  ...        0 min,  0.108 sec
     gradient                   ...        0 min,  0.046 sec
 * total energy  :   -64.1664495 Eh     change       -0.6053123E-05 Eh
   gradient norm :     0.0006040 Eh/α   predicted    -0.2556055E-05 ( -57.77%)
   displ. norm   :     0.0997858 α      lambda       -0.4004511E-05
   maximum displ.:     0.0674023 α      in ANC's #2, #16, #4, ...

........................................................................
.............................. CYCLE   78 ..............................
........................................................................

 iter      E             dE          RMSdq      gap      omega  full diag
   1    -65.0242216 -0.650242E+02  0.268E-02    2.62       0.0  T
   2    -65.0242217 -0.685979E-07  0.158E-02    2.62       1.0  T
   3    -65.0242217  0.375351E-07  0.143E-03    2.62      10.9  T
   4    -65.0242217 -0.701515E-07  0.507E-04    2.62      30.8  T
   5    -65.0242217 -0.132371E-08  0.293E-04    2.62      53.4  T
     SCC iter.                  ...        0 min,  0.074 sec
     gradient                   ...        0 min,  0.040 sec
 * total energy  :   -64.1664541 Eh     change       -0.4670221E-05 Eh
   gradient norm :     0.0004364 Eh/α   predicted    -0.2012964E-05 ( -56.90%)
   displ. norm   :     0.0754570 α      lambda       -0.2900895E-05
   maximum displ.:     0.0525059 α      in ANC's #2, #1, #4, ...

........................................................................
.............................. CYCLE   79 ..............................
........................................................................

 iter      E             dE          RMSdq      gap      omega  full diag
   1    -65.0241921 -0.650242E+02  0.204E-02    2.62       0.0  T
   2    -65.0241921 -0.434054E-07  0.120E-02    2.62       1.3  T
   3    -65.0241921  0.174482E-07  0.102E-03    2.62      15.3  T
   4    -65.0241921 -0.389633E-07  0.376E-04    2.62      41.6  T
   5    -65.0241921 -0.382599E-09  0.201E-04    2.62      77.8  T
     SCC iter.                  ...        0 min,  0.072 sec
     gradient                   ...        0 min,  0.035 sec
 * total energy  :   -64.1664577 Eh     change       -0.3582589E-05 Eh
   gradient norm :     0.0004500 Eh/α   predicted    -0.1455438E-05 ( -59.37%)
   displ. norm   :     0.0798409 α      lambda       -0.3068098E-05
   maximum displ.:     0.0554834 α      in ANC's #2, #1, #4, ...

........................................................................
.............................. CYCLE   80 ..............................
........................................................................

 iter      E             dE          RMSdq      gap      omega  full diag
   1    -65.0242593 -0.650243E+02  0.222E-02    2.62       0.0  T
   2    -65.0242593 -0.451657E-07  0.131E-02    2.62       1.2  T
   3    -65.0242593 -0.478555E-08  0.820E-04    2.62      19.0  T
   4    -65.0242594 -0.191240E-07  0.401E-04    2.62      38.9  T
     SCC iter.                  ...        0 min,  0.057 sec
     gradient                   ...        0 min,  0.037 sec
 * total energy  :   -64.1664617 Eh     change       -0.4011840E-05 Eh
   gradient norm :     0.0005595 Eh/α   predicted    -0.1542031E-05 ( -61.56%)
   displ. norm   :     0.0933734 α      lambda       -0.3653295E-05
   maximum displ.:     0.0654333 α      in ANC's #2, #1, #7, ...

........................................................................
.............................. CYCLE   81 ..............................
........................................................................

 iter      E             dE          RMSdq      gap      omega  full diag
   1    -65.0243870 -0.650244E+02  0.265E-02    2.62       0.0  T
   2    -65.0243870 -0.628759E-07  0.156E-02    2.62       1.0  T
   3    -65.0243870 -0.250253E-07  0.781E-04    2.62      20.0  T
   4    -65.0243871 -0.786387E-08  0.480E-04    2.62      32.5  T
     SCC iter.                  ...        0 min,  0.069 sec
     gradient                   ...        0 min,  0.029 sec
 * total energy  :   -64.1664667 Eh     change       -0.5001068E-05 Eh
   gradient norm :     0.0005999 Eh/α   predicted    -0.1837057E-05 ( -63.27%)
   displ. norm   :     0.1233154 α      lambda       -0.4746606E-05
   maximum displ.:     0.0861339 α      in ANC's #2, #1, #7, ...

........................................................................
.............................. CYCLE   82 ..............................
........................................................................

 iter      E             dE          RMSdq      gap      omega  full diag
   1    -65.0244316 -0.650244E+02  0.355E-02    2.62       0.0  T
   2    -65.0244317 -0.109575E-06  0.209E-02    2.62       1.0  T
   3    -65.0244318 -0.257943E-07  0.129E-03    2.62      12.1  T
   4    -65.0244318 -0.360766E-07  0.692E-04    2.62      22.6  T
   5    -65.0244318 -0.206147E-08  0.330E-04    2.62      47.3  T
     SCC iter.                  ...        0 min,  0.094 sec
     gradient                   ...        0 min,  0.029 sec
 * total energy  :   -64.1664732 Eh     change       -0.6467619E-05 Eh
   gradient norm :     0.0005392 Eh/α   predicted    -0.2392032E-05 ( -63.02%)
   displ. norm   :     0.1433565 α      lambda       -0.5429100E-05
   maximum displ.:     0.1000509 α      in ANC's #2, #1, #7, ...

........................................................................
.............................. CYCLE   83 ..............................
........................................................................

 iter      E             dE          RMSdq      gap      omega  full diag
   1    -65.0245049 -0.650245E+02  0.415E-02    2.62       0.0  T
   2    -65.0245050 -0.154669E-06  0.244E-02    2.62       1.0  T
   3    -65.0245051 -0.392531E-07  0.145E-03    2.62      10.7  T
   4    -65.0245051 -0.433827E-07  0.801E-04    2.62      19.5  T
   5    -65.0245051 -0.368985E-08  0.404E-04    2.62      38.6  T
     SCC iter.                  ...        0 min,  0.050 sec
     gradient                   ...        0 min,  0.026 sec
 * total energy  :   -64.1664803 Eh     change       -0.7160268E-05 Eh
   gradient norm :     0.0006655 Eh/α   predicted    -0.2742764E-05 ( -61.69%)
   displ. norm   :     0.1539240 α      lambda       -0.5421700E-05
   maximum displ.:     0.1078127 α      in ANC's #2, #1, #7, ...

........................................................................
.............................. CYCLE   84 ..............................
........................................................................

 iter      E             dE          RMSdq      gap      omega  full diag
   1    -65.0243032 -0.650243E+02  0.445E-02    2.62       0.0  T
   2    -65.0243033 -0.178965E-06  0.262E-02    2.62       1.0  T
   3    -65.0243034 -0.399564E-07  0.164E-03    2.62       9.5  T
   4    -65.0243034 -0.581506E-07  0.879E-04    2.62      17.8  T
   5    -65.0243034 -0.388702E-08  0.445E-04    2.62      35.1  T
     SCC iter.                  ...        0 min,  0.053 sec
     gradient                   ...        0 min,  0.037 sec
 * total energy  :   -64.1664873 Eh     change       -0.6961597E-05 Eh
   gradient norm :     0.0004838 Eh/α   predicted    -0.2741003E-05 ( -60.63%)
   displ. norm   :     0.1300261 α      lambda       -0.4681320E-05
   maximum displ.:     0.0902435 α      in ANC's #2, #1, #6, ...

........................................................................
.............................. CYCLE   85 ..............................
........................................................................

 iter      E             dE          RMSdq      gap      omega  full diag
   1    -65.0244961 -0.650245E+02  0.376E-02    2.62       0.0  T
   2    -65.0244962 -0.139258E-06  0.221E-02    2.62       1.0  T
   3    -65.0244962  0.178102E-07  0.176E-03    2.62       8.9  T
   4    -65.0244963 -0.895816E-07  0.770E-04    2.62      20.3  T
   5    -65.0244963 -0.454250E-08  0.408E-04    2.62      38.3  T
     SCC iter.                  ...        0 min,  0.069 sec
     gradient                   ...        0 min,  0.031 sec
 * total energy  :   -64.1664933 Eh     change       -0.5983083E-05 Eh
   gradient norm :     0.0005396 Eh/α   predicted    -0.2358630E-05 ( -60.58%)
   displ. norm   :     0.1311887 α      lambda       -0.4184405E-05
   maximum displ.:     0.0931911 α      in ANC's #2, #1, #6, ...

........................................................................
.............................. CYCLE   86 ..............................
........................................................................

 iter      E             dE          RMSdq      gap      omega  full diag
   1    -65.0244133 -0.650244E+02  0.386E-02    2.62       0.0  T
   2    -65.0244134 -0.134092E-06  0.227E-02    2.62       1.0  T
   3    -65.0244134  0.151333E-07  0.179E-03    2.62       8.7  T
   4    -65.0244135 -0.936561E-07  0.782E-04    2.62      20.0  T
   5    -65.0244135 -0.303061E-08  0.360E-04    2.62      43.4  T
     SCC iter.                  ...        0 min,  0.060 sec
     gradient                   ...        0 min,  0.026 sec
 * total energy  :   -64.1664989 Eh     change       -0.5625961E-05 Eh
   gradient norm :     0.0004236 Eh/α   predicted    -0.2111278E-05 ( -62.47%)
   displ. norm   :     0.0969362 α      lambda       -0.3443419E-05
   maximum displ.:     0.0700793 α      in ANC's #2, #1, #6, ...

........................................................................
.............................. CYCLE   87 ..............................
........................................................................

 iter      E             dE          RMSdq      gap      omega  full diag
   1    -65.0245070 -0.650245E+02  0.286E-02    2.62       0.0  T
   2    -65.0245071 -0.800032E-07  0.168E-02    2.62       1.0  T
   3    -65.0245070  0.350625E-07  0.160E-03    2.62       9.8  T
   4    -65.0245071 -0.823198E-07  0.601E-04    2.62      26.0  T
   5    -65.0245071 -0.158460E-08  0.317E-04    2.62      49.3  T
     SCC iter.                  ...        0 min,  0.057 sec
     gradient                   ...        0 min,  0.023 sec
 * total energy  :   -64.1665036 Eh     change       -0.4713385E-05 Eh
   gradient norm :     0.0003439 Eh/α   predicted    -0.1729572E-05 ( -63.31%)
   displ. norm   :     0.0968404 α      lambda       -0.3937249E-05
   maximum displ.:     0.0712831 α      in ANC's #2, #1, #5, ...

........................................................................
.............................. CYCLE   88 ..............................
........................................................................

 iter      E             dE          RMSdq      gap      omega  full diag
   1    -65.0245475 -0.650245E+02  0.291E-02    2.62       0.0  T
   2    -65.0245476 -0.856674E-07  0.171E-02    2.62       1.0  T
   3    -65.0245476  0.821046E-09  0.132E-03    2.62      11.8  T
   4    -65.0245476 -0.475024E-07  0.620E-04    2.62      25.2  T
   5    -65.0245476 -0.223720E-08  0.314E-04    2.62      49.8  T
     SCC iter.                  ...        0 min,  0.049 sec
     gradient                   ...        0 min,  0.039 sec
 * total energy  :   -64.1665093 Eh     change       -0.5680015E-05 Eh
   gradient norm :     0.0002675 Eh/α   predicted    -0.1980854E-05 ( -65.13%)
   displ. norm   :     0.1259220 α      lambda       -0.5831614E-05
   maximum displ.:     0.0923298 α      in ANC's #2, #1, #5, ...

........................................................................
.............................. CYCLE   89 ..............................
........................................................................

 iter      E             dE          RMSdq      gap      omega  full diag
   1    -65.0244279 -0.650244E+02  0.378E-02    2.62       0.0  T
   2    -65.0244280 -0.134346E-06  0.223E-02    2.62       1.0  T
   3    -65.0244280 -0.129842E-07  0.162E-03    2.62       9.6  T
   4    -65.0244281 -0.662815E-07  0.802E-04    2.62      19.5  T
   5    -65.0244281 -0.364994E-08  0.295E-04    2.62      52.9  T
     SCC iter.                  ...        0 min,  0.059 sec
     gradient                   ...        0 min,  0.026 sec
 * total energy  :   -64.1665178 Eh     change       -0.8534315E-05 Eh
   gradient norm :     0.0003068 Eh/α   predicted    -0.2937144E-05 ( -65.58%)
   displ. norm   :     0.2065580 α      lambda       -0.1044662E-04
   maximum displ.:     0.1501308 α      in ANC's #2, #1, #5, ...

........................................................................
.............................. CYCLE   90 ..............................
........................................................................

 iter      E             dE          RMSdq      gap      omega  full diag
   1    -65.0241036 -0.650241E+02  0.615E-02    2.62       0.0  T
   2    -65.0241039 -0.357992E-06  0.361E-02    2.62       1.0  T
   3    -65.0241040 -0.922613E-07  0.232E-03    2.62       6.7  T
   4    -65.0241041 -0.105164E-06  0.129E-03    2.62      12.1  T
   5    -65.0241042 -0.109633E-07  0.551E-04    2.62      28.4  T
   6    -65.0241042 -0.440545E-08  0.166E-04    2.62      94.1  T
     SCC iter.                  ...        0 min,  0.078 sec
     gradient                   ...        0 min,  0.033 sec
 * total energy  :   -64.1665326 Eh     change       -0.1477177E-04 Eh
   gradient norm :     0.0006257 Eh/α   predicted    -0.5325059E-05 ( -63.95%)
   displ. norm   :     0.4685927 α      lambda       -0.2239650E-04
   maximum displ.:     0.3394497 α      in ANC's #2, #1, #5, ...

........................................................................
.............................. CYCLE   91 ..............................
........................................................................

 iter      E             dE          RMSdq      gap      omega  full diag
   1    -65.0217767 -0.650218E+02  0.139E-01    2.61       0.0  T
   2    -65.0217786 -0.189107E-05  0.817E-02    2.61       1.0  T
   3    -65.0217788 -0.237148E-06  0.596E-03    2.61       2.6  T
   4    -65.0217796 -0.804484E-06  0.282E-03    2.61       5.5  T
   5    -65.0217796 -0.160615E-07  0.145E-03    2.61      10.8  T
   6    -65.0217797 -0.366030E-07  0.457E-04    2.61      34.2  T
   7    -65.0217797 -0.443197E-08  0.151E-04    2.61     103.4  T
     SCC iter.                  ...        0 min,  0.089 sec
     gradient                   ...        0 min,  0.036 sec
 * total energy  :   -64.1665494 Eh     change       -0.1676627E-04 Eh
   gradient norm :     0.0036066 Eh/α   predicted    -0.1229625E-04 ( -26.66%)
   displ. norm   :     0.0201824 α      lambda       -0.1318141E-04
   maximum displ.:     0.0087349 α      in ANC's #8, #6, #7, ...

........................................................................
.............................. CYCLE   92 ..............................
........................................................................

 iter      E             dE          RMSdq      gap      omega  full diag
   1    -65.0230211 -0.650230E+02  0.749E-03    2.61       0.0  T
   2    -65.0230212 -0.148058E-06  0.447E-03    2.61       3.5  T
   3    -65.0230212  0.432239E-07  0.224E-03    2.61       7.0  T
   4    -65.0230213 -0.872055E-07  0.374E-04    2.61      41.8  T
   5    -65.0230213 -0.338413E-08  0.166E-04    2.61      94.1  T
     SCC iter.                  ...        0 min,  0.110 sec
     gradient                   ...        0 min,  0.032 sec
 * total energy  :   -64.1665587 Eh     change       -0.9331491E-05 Eh
   gradient norm :     0.0020845 Eh/α   predicted    -0.6596199E-05 ( -29.31%)
   displ. norm   :     0.1237656 α      lambda       -0.1452278E-04
   maximum displ.:     0.0899640 α      in ANC's #2, #1, #5, ...
 * RMSD in coord.:     0.3263848 α      energy gain  -0.1865948E-03 Eh

generating ANC from exact Hessian ...
Using Lindh-Hessian (1995)
 Shifting diagonal of input Hessian by    9.7677804925202019E-003
 Lowest  eigenvalues of input Hessian
    0.000000    0.000000    0.000000    0.000000    0.000000    0.000000
    0.010000    0.010177    0.010217    0.010563    0.010766    0.011015
    0.012570    0.013571    0.013625    0.014763    0.015731    0.017864
 Highest eigenvalues
    1.906511    1.922287    1.926185    2.102308    2.129225    2.418755


........................................................................
.............................. CYCLE   93 ..............................
........................................................................

 iter      E             dE          RMSdq      gap      omega  full diag
   1    -65.0239772 -0.650240E+02  0.357E-02    2.62       0.0  T
   2    -65.0239774 -0.174285E-06  0.210E-02    2.62       1.0  T
   3    -65.0239772  0.174380E-06  0.270E-03    2.62       5.8  T
   4    -65.0239775 -0.250902E-06  0.713E-04    2.62      21.9  T
   5    -65.0239775 -0.418504E-08  0.447E-04    2.62      34.9  T
     SCC iter.                  ...        0 min,  0.087 sec
     gradient                   ...        0 min,  0.047 sec
 * total energy  :   -64.1665700 Eh     change       -0.1127438E-04 Eh
   gradient norm :     0.0015557 Eh/α   predicted     0.0000000E+00 (-100.00%)
   displ. norm   :     0.0171387 α      lambda       -0.6484009E-05
   maximum displ.:     0.0106310 α      in ANC's #2, #10, #8, ...

........................................................................
.............................. CYCLE   94 ..............................
........................................................................

 iter      E             dE          RMSdq      gap      omega  full diag
   1    -65.0246723 -0.650247E+02  0.703E-03    2.62       0.0  T
   2    -65.0246724 -0.104185E-06  0.401E-03    2.62       3.9  T
   3    -65.0246724  0.377941E-07  0.152E-03    2.62      10.3  T
   4    -65.0246724 -0.466974E-07  0.550E-04    2.62      28.4  T
   5    -65.0246724 -0.857706E-08  0.162E-04    2.62      96.7  T
     SCC iter.                  ...        0 min,  0.083 sec
     gradient                   ...        0 min,  0.047 sec
 * total energy  :   -64.1665748 Eh     change       -0.4787504E-05 Eh
   gradient norm :     0.0004622 Eh/α   predicted    -0.3271892E-05 ( -31.66%)
   displ. norm   :     0.0182072 α      lambda       -0.1819023E-05
   maximum displ.:     0.0123408 α      in ANC's #2, #10, #11, ...

........................................................................
.............................. CYCLE   95 ..............................
........................................................................

 iter      E             dE          RMSdq      gap      omega  full diag
   1    -65.0247204 -0.650247E+02  0.443E-03    2.62       0.0  T
   2    -65.0247204 -0.254545E-08  0.262E-03    2.62       6.0  T
   3    -65.0247204  0.565215E-08  0.436E-04    2.62      35.8  T
   4    -65.0247204 -0.703015E-08  0.101E-04    2.62     153.9  T
     SCC iter.                  ...        0 min,  0.040 sec
     gradient                   ...        0 min,  0.025 sec
 * total energy  :   -64.1665769 Eh     change       -0.2157483E-05 Eh
   gradient norm :     0.0004306 Eh/α   predicted    -0.9122600E-06 ( -57.72%)
   displ. norm   :     0.0439091 α      lambda       -0.3263894E-05
   maximum displ.:     0.0288188 α      in ANC's #2, #10, #8, ...

........................................................................
.............................. CYCLE   96 ..............................
........................................................................

 iter      E             dE          RMSdq      gap      omega  full diag
   1    -65.0245842 -0.650246E+02  0.105E-02    2.62       0.0  T
   2    -65.0245842 -0.180155E-07  0.618E-03    2.62       2.5  T
   3    -65.0245842  0.104269E-07  0.716E-04    2.62      21.8  T
   4    -65.0245842 -0.159835E-07  0.265E-04    2.62      59.0  T
     SCC iter.                  ...        0 min,  0.040 sec
     gradient                   ...        0 min,  0.026 sec
 * total energy  :   -64.1665807 Eh     change       -0.3780879E-05 Eh
   gradient norm :     0.0004017 Eh/α   predicted    -0.1633487E-05 ( -56.80%)
   displ. norm   :     0.0514998 α      lambda       -0.2687290E-05
   maximum displ.:     0.0355243 α      in ANC's #2, #8, #3, ...

........................................................................
.............................. CYCLE   97 ..............................
........................................................................

 iter      E             dE          RMSdq      gap      omega  full diag
   1    -65.0244983 -0.650245E+02  0.128E-02    2.62       0.0  T
   2    -65.0244983 -0.182852E-07  0.753E-03    2.62       2.1  T
   3    -65.0244983  0.101493E-07  0.785E-04    2.62      19.9  T
   4    -65.0244983 -0.195516E-07  0.285E-04    2.62      54.9  T
     SCC iter.                  ...        0 min,  0.053 sec
     gradient                   ...        0 min,  0.025 sec
 * total energy  :   -64.1665840 Eh     change       -0.3288449E-05 Eh
   gradient norm :     0.0003755 Eh/α   predicted    -0.1355653E-05 ( -58.78%)
   displ. norm   :     0.0460267 α      lambda       -0.2207487E-05
   maximum displ.:     0.0331861 α      in ANC's #2, #3, #8, ...

........................................................................
.............................. CYCLE   98 ..............................
........................................................................

 iter      E             dE          RMSdq      gap      omega  full diag
   1    -65.0244930 -0.650245E+02  0.124E-02    2.62       0.0  T
   2    -65.0244930 -0.157348E-07  0.728E-03    2.62       2.1  T
   3    -65.0244930  0.196196E-07  0.941E-04    2.62      16.6  T
   4    -65.0244930 -0.304519E-07  0.275E-04    2.62      56.8  T
     SCC iter.                  ...        0 min,  0.044 sec
     gradient                   ...        0 min,  0.024 sec
 * total energy  :   -64.1665870 Eh     change       -0.3005293E-05 Eh
   gradient norm :     0.0002990 Eh/α   predicted    -0.1107588E-05 ( -63.15%)
   displ. norm   :     0.0504269 α      lambda       -0.2676772E-05
   maximum displ.:     0.0362541 α      in ANC's #2, #3, #8, ...

........................................................................
.............................. CYCLE   99 ..............................
........................................................................

 iter      E             dE          RMSdq      gap      omega  full diag
   1    -65.0245122 -0.650245E+02  0.144E-02    2.62       0.0  T
   2    -65.0245123 -0.211816E-07  0.850E-03    2.62       1.8  T
   3    -65.0245123 -0.164107E-08  0.675E-04    2.62      23.1  T
   4    -65.0245123 -0.115400E-07  0.323E-04    2.62      48.4  T
     SCC iter.                  ...        0 min,  0.057 sec
     gradient                   ...        0 min,  0.032 sec
 * total energy  :   -64.1665907 Eh     change       -0.3709067E-05 Eh
   gradient norm :     0.0002565 Eh/α   predicted    -0.1342906E-05 ( -63.79%)
   displ. norm   :     0.0701317 α      lambda       -0.3609829E-05
   maximum displ.:     0.0497483 α      in ANC's #2, #3, #7, ...

........................................................................
.............................. CYCLE  100 ..............................
........................................................................

 iter      E             dE          RMSdq      gap      omega  full diag
   1    -65.0245261 -0.650245E+02  0.205E-02    2.62       0.0  T
   2    -65.0245261 -0.436703E-07  0.121E-02    2.62       1.3  T
   3    -65.0245261 -0.716044E-08  0.895E-04    2.62      17.4  T
   4    -65.0245261 -0.190320E-07  0.457E-04    2.62      34.2  T
     SCC iter.                  ...        0 min,  0.057 sec
     gradient                   ...        0 min,  0.032 sec
 * total energy  :   -64.1665956 Eh     change       -0.4843500E-05 Eh
   gradient norm :     0.0002902 Eh/α   predicted    -0.1809328E-05 ( -62.64%)
   displ. norm   :     0.0811174 α      lambda       -0.3524141E-05
   maximum displ.:     0.0573112 α      in ANC's #2, #3, #7, ...

........................................................................
.............................. CYCLE  101 ..............................
........................................................................

 iter      E             dE          RMSdq      gap      omega  full diag
   1    -65.0245154 -0.650245E+02  0.241E-02    2.62       0.0  T
   2    -65.0245155 -0.600266E-07  0.142E-02    2.62       1.1  T
   3    -65.0245155  0.114544E-07  0.128E-03    2.62      12.2  T
   4    -65.0245155 -0.488374E-07  0.533E-04    2.62      29.3  T
   5    -65.0245155 -0.891504E-09  0.235E-04    2.62      66.5  T
     SCC iter.                  ...        0 min,  0.092 sec
     gradient                   ...        0 min,  0.046 sec
 * total energy  :   -64.1666002 Eh     change       -0.4622485E-05 Eh
   gradient norm :     0.0003274 Eh/α   predicted    -0.1769681E-05 ( -61.72%)
   displ. norm   :     0.0783670 α      lambda       -0.2924729E-05
   maximum displ.:     0.0557354 α      in ANC's #2, #3, #7, ...

........................................................................
.............................. CYCLE  102 ..............................
........................................................................

 iter      E             dE          RMSdq      gap      omega  full diag
   1    -65.0245302 -0.650245E+02  0.234E-02    2.62       0.0  T
   2    -65.0245303 -0.563659E-07  0.138E-02    2.62       1.1  T
   3    -65.0245303  0.157322E-07  0.124E-03    2.62      12.6  T
   4    -65.0245303 -0.495077E-07  0.505E-04    2.62      30.9  T
   5    -65.0245303 -0.791971E-09  0.254E-04    2.62      61.5  T
     SCC iter.                  ...        0 min,  0.080 sec
     gradient                   ...        0 min,  0.032 sec
 * total energy  :   -64.1666040 Eh     change       -0.3857542E-05 Eh
   gradient norm :     0.0003086 Eh/α   predicted    -0.1470354E-05 ( -61.88%)
   displ. norm   :     0.0697660 α      lambda       -0.2521284E-05
   maximum displ.:     0.0497223 α      in ANC's #2, #3, #1, ...

........................................................................
.............................. CYCLE  103 ..............................
........................................................................

 iter      E             dE          RMSdq      gap      omega  full diag
   1    -65.0245392 -0.650245E+02  0.213E-02    2.62       0.0  T
   2    -65.0245393 -0.436249E-07  0.125E-02    2.62       1.2  T
   3    -65.0245393  0.773814E-08  0.102E-03    2.62      15.2  T
   4    -65.0245393 -0.335059E-07  0.438E-04    2.62      35.7  T
   5    -65.0245393 -0.606605E-09  0.224E-04    2.62      69.8  T
     SCC iter.                  ...        0 min,  0.071 sec
     gradient                   ...        0 min,  0.037 sec
 * total energy  :   -64.1666076 Eh     change       -0.3536276E-05 Eh
   gradient norm :     0.0002482 Eh/α   predicted    -0.1265557E-05 ( -64.21%)
   displ. norm   :     0.0801256 α      lambda       -0.3128712E-05
   maximum displ.:     0.0567577 α      in ANC's #2, #3, #1, ...

........................................................................
.............................. CYCLE  104 ..............................
........................................................................

 iter      E             dE          RMSdq      gap      omega  full diag
   1    -65.0245485 -0.650245E+02  0.246E-02    2.62       0.0  T
   2    -65.0245486 -0.540577E-07  0.145E-02    2.62       1.1  T
   3    -65.0245486 -0.170171E-08  0.103E-03    2.62      15.2  T
   4    -65.0245486 -0.298975E-07  0.489E-04    2.62      31.9  T
   5    -65.0245486 -0.782450E-09  0.240E-04    2.62      64.9  T
     SCC iter.                  ...        0 min,  0.076 sec
     gradient                   ...        0 min,  0.053 sec
 * total energy  :   -64.1666121 Eh     change       -0.4512579E-05 Eh
   gradient norm :     0.0002248 Eh/α   predicted    -0.1571974E-05 ( -65.16%)
   displ. norm   :     0.1284005 α      lambda       -0.5283764E-05
   maximum displ.:     0.0898607 α      in ANC's #2, #3, #1, ...

........................................................................
.............................. CYCLE  105 ..............................
........................................................................

 iter      E             dE          RMSdq      gap      omega  full diag
   1    -65.0244535 -0.650245E+02  0.398E-02    2.62       0.0  T
   2    -65.0244537 -0.132009E-06  0.234E-02    2.62       1.0  T
   3    -65.0244537 -0.693132E-08  0.164E-03    2.62       9.5  T
   4    -65.0244537 -0.724602E-07  0.777E-04    2.62      20.1  T
   5    -65.0244538 -0.242400E-08  0.316E-04    2.62      49.4  T
     SCC iter.                  ...        0 min,  0.081 sec
     gradient                   ...        0 min,  0.053 sec
 * total energy  :   -64.1666196 Eh     change       -0.7499222E-05 Eh
   gradient norm :     0.0003186 Eh/α   predicted    -0.2664966E-05 ( -64.46%)
   displ. norm   :     0.2212590 α      lambda       -0.8803289E-05
   maximum displ.:     0.1537363 α      in ANC's #2, #3, #1, ...

........................................................................
.............................. CYCLE  106 ..............................
........................................................................

 iter      E             dE          RMSdq      gap      omega  full diag
   1    -65.0241199 -0.650241E+02  0.691E-02    2.62       0.0  T
   2    -65.0241203 -0.392228E-06  0.406E-02    2.62       1.0  T
   3    -65.0241203 -0.641251E-07  0.268E-03    2.62       5.8  T
   4    -65.0241205 -0.171609E-06  0.134E-03    2.62      11.7  T
   5    -65.0241205 -0.582763E-08  0.551E-04    2.62      28.3  T
   6    -65.0241205 -0.552653E-08  0.147E-04    2.62     106.2  T
     SCC iter.                  ...        0 min,  0.095 sec
     gradient                   ...        0 min,  0.045 sec
 * total energy  :   -64.1666312 Eh     change       -0.1165325E-04 Eh
   gradient norm :     0.0007415 Eh/α   predicted    -0.4498546E-05 ( -61.40%)
   displ. norm   :     0.3486650 α      lambda       -0.1237424E-04
   maximum displ.:     0.2429412 α      in ANC's #2, #3, #1, ...

........................................................................
.............................. CYCLE  107 ..............................
........................................................................

 iter      E             dE          RMSdq      gap      omega  full diag
   1    -65.0232544 -0.650233E+02  0.109E-01    2.62       0.0  T
   2    -65.0232554 -0.101323E-05  0.641E-02    2.62       1.0  T
   3    -65.0232554 -0.112885E-07  0.481E-03    2.62       3.2  T
   4    -65.0232560 -0.596415E-06  0.210E-03    2.62       7.4  T
   5    -65.0232560 -0.582747E-08  0.105E-03    2.62      14.9  T
   6    -65.0232561 -0.184487E-07  0.292E-04    2.62      53.5  T
   7    -65.0232561 -0.197834E-08  0.829E-05    2.62     188.4  T
     SCC iter.                  ...        0 min,  0.118 sec
     gradient                   ...        0 min,  0.045 sec
 * total energy  :   -64.1666431 Eh     change       -0.1185036E-04 Eh
   gradient norm :     0.0019666 Eh/α   predicted    -0.6522400E-05 ( -44.96%)
   displ. norm   :     0.1712965 α      lambda       -0.9022407E-05
   maximum displ.:     0.1211442 α      in ANC's #2, #3, #1, ...

........................................................................
.............................. CYCLE  108 ..............................
........................................................................

 iter      E             dE          RMSdq      gap      omega  full diag
   1    -65.0239374 -0.650239E+02  0.535E-02    2.62       0.0  T
   2    -65.0239377 -0.295156E-06  0.314E-02    2.62       1.0  T
   3    -65.0239376  0.616704E-07  0.261E-03    2.62       6.0  T
   4    -65.0239379 -0.211757E-06  0.102E-03    2.62      15.3  T
   5    -65.0239379 -0.266193E-08  0.614E-04    2.62      25.4  T
   6    -65.0239379 -0.467230E-08  0.188E-04    2.62      83.3  T
     SCC iter.                  ...        0 min,  0.096 sec
     gradient                   ...        0 min,  0.047 sec
 * total energy  :   -64.1666535 Eh     change       -0.1037898E-04 Eh
   gradient norm :     0.0011706 Eh/α   predicted    -0.4570843E-05 ( -55.96%)
   displ. norm   :     0.2479856 α      lambda       -0.1031628E-04
   maximum displ.:     0.1772216 α      in ANC's #2, #3, #1, ...

........................................................................
.............................. CYCLE  109 ..............................
........................................................................

 iter      E             dE          RMSdq      gap      omega  full diag
   1    -65.0240518 -0.650241E+02  0.780E-02    2.62       0.0  T
   2    -65.0240524 -0.578400E-06  0.459E-02    2.62       1.0  T
   3    -65.0240524 -0.515340E-07  0.319E-03    2.62       4.9  T
   4    -65.0240527 -0.268865E-06  0.157E-03    2.62       9.9  T
   5    -65.0240527 -0.110146E-07  0.825E-04    2.62      18.9  T
   6    -65.0240527 -0.908838E-08  0.248E-04    2.62      63.0  T
     SCC iter.                  ...        0 min,  0.098 sec
     gradient                   ...        0 min,  0.042 sec
 * total energy  :   -64.1666658 Eh     change       -0.1235766E-04 Eh
   gradient norm :     0.0014503 Eh/α   predicted    -0.5303237E-05 ( -57.09%)
   displ. norm   :     0.2192609 α      lambda       -0.1622119E-04
   maximum displ.:     0.1549568 α      in ANC's #2, #3, #6, ...

........................................................................
.............................. CYCLE  110 ..............................
........................................................................

 iter      E             dE          RMSdq      gap      omega  full diag
   1    -65.0258735 -0.650259E+02  0.679E-02    2.63       0.0  T
   2    -65.0258746 -0.106744E-05  0.400E-02    2.63       1.0  T
   3    -65.0258733  0.127093E-05  0.695E-03    2.63       2.2  T
   4    -65.0258750 -0.173526E-05  0.150E-03    2.63      10.4  T
   5    -65.0258750 -0.134461E-07  0.917E-04    2.63      17.0  T
   6    -65.0258751 -0.515361E-08  0.387E-04    2.63      40.4  T
     SCC iter.                  ...        0 min,  0.131 sec
     gradient                   ...        0 min,  0.046 sec
 * total energy  :   -64.1666793 Eh     change       -0.1346452E-04 Eh
   gradient norm :     0.0017914 Eh/α   predicted    -0.8287152E-05 ( -38.45%)
   displ. norm   :     0.7819152 α      lambda       -0.3536412E-04
   maximum displ.:     0.5650636 α      in ANC's #2, #3, #6, ...

........................................................................
.............................. CYCLE  111 ..............................
........................................................................

 iter      E             dE          RMSdq      gap      omega  full diag
   1    -65.0197353 -0.650197E+02  0.247E-01    2.59       0.0  T
   2    -65.0197428 -0.750305E-05  0.145E-01    2.59       1.0  T
   3    -65.0197372  0.563307E-05  0.181E-02    2.59       1.0  T
   4    -65.0197471 -0.995495E-05  0.493E-03    2.59       3.2  T
   5    -65.0197471  0.127157E-07  0.296E-03    2.59       5.3  T
   6    -65.0197472 -0.100106E-06  0.994E-04    2.59      15.7  T
   7    -65.0197473 -0.265756E-07  0.271E-04    2.59      57.7  T
     SCC iter.                  ...        0 min,  0.103 sec
     gradient                   ...        0 min,  0.036 sec
 * total energy  :   -64.1666607 Eh     change        0.1863269E-04 Eh
   gradient norm :     0.0071005 Eh/α   predicted    -0.2248791E-04 (-220.69%)
   displ. norm   :     0.3185871 α      lambda       -0.1093814E-03
   maximum displ.:     0.2290574 α      in ANC's #2, #3, #6, ...

........................................................................
.............................. CYCLE  112 ..............................
........................................................................

 iter      E             dE          RMSdq      gap      omega  full diag
   1    -65.0239408 -0.650239E+02  0.102E-01    2.62       0.0  T
   2    -65.0239428 -0.208751E-05  0.597E-02    2.62       1.0  T
   3    -65.0239393  0.351157E-05  0.118E-02    2.62       1.3  T
   4    -65.0239439 -0.460573E-05  0.211E-03    2.62       7.4  T
   5    -65.0239440 -0.208956E-07  0.137E-03    2.62      11.4  T
   6    -65.0239440 -0.982561E-08  0.560E-04    2.62      27.9  T
   7    -65.0239440 -0.787141E-08  0.145E-04    2.62     107.4  T
     SCC iter.                  ...        0 min,  0.089 sec
     gradient                   ...        0 min,  0.026 sec
 * total energy  :   -64.1667086 Eh     change       -0.4795643E-04 Eh
   gradient norm :     0.0014629 Eh/α   predicted    -0.6024479E-04 (  25.62%)
   displ. norm   :     0.0930121 α      lambda       -0.7607935E-05
   maximum displ.:     0.0632124 α      in ANC's #2, #6, #4, ...

........................................................................
.............................. CYCLE  113 ..............................
........................................................................

 iter      E             dE          RMSdq      gap      omega  full diag
   1    -65.0244564 -0.650245E+02  0.286E-02    2.62       0.0  T
   2    -65.0244565 -0.108187E-06  0.168E-02    2.62       1.0  T
   3    -65.0244564  0.854917E-07  0.193E-03    2.62       8.1  T
   4    -65.0244565 -0.147542E-06  0.620E-04    2.62      25.2  T
   5    -65.0244565 -0.639332E-09  0.388E-04    2.62      40.2  T
     SCC iter.                  ...        0 min,  0.062 sec
     gradient                   ...        0 min,  0.034 sec
 * total energy  :   -64.1667183 Eh     change       -0.9701589E-05 Eh
   gradient norm :     0.0012171 Eh/α   predicted    -0.3820290E-05 ( -60.62%)
   displ. norm   :     0.4348383 α      lambda       -0.2408821E-04
   maximum displ.:     0.3038972 α      in ANC's #2, #6, #4, ...

........................................................................
.............................. CYCLE  114 ..............................
........................................................................

 iter      E             dE          RMSdq      gap      omega  full diag
   1    -65.0235594 -0.650236E+02  0.135E-01    2.61       0.0  T
   2    -65.0235612 -0.175680E-05  0.794E-02    2.61       1.0  T
   3    -65.0235618 -0.622373E-06  0.493E-03    2.61       3.2  T
   4    -65.0235622 -0.401765E-06  0.258E-03    2.61       6.1  T
   5    -65.0235622 -0.125719E-07  0.101E-03    2.61      15.4  T
   6    -65.0235622 -0.116462E-07  0.379E-04    2.61      41.3  T
   7    -65.0235622 -0.433897E-08  0.112E-04    2.61     139.1  T
     SCC iter.                  ...        0 min,  0.078 sec
     gradient                   ...        0 min,  0.028 sec
 * total energy  :   -64.1667431 Eh     change       -0.2481746E-04 Eh
   gradient norm :     0.0017154 Eh/α   predicted    -0.1305718E-04 ( -47.39%)
   displ. norm   :     0.1886058 α      lambda       -0.9446595E-05
   maximum displ.:     0.1263724 α      in ANC's #2, #6, #4, ...

........................................................................
.............................. CYCLE  115 ..............................
........................................................................

 iter      E             dE          RMSdq      gap      omega  full diag
   1    -65.0236815 -0.650237E+02  0.561E-02    2.61       0.0  T
   2    -65.0236818 -0.369451E-06  0.330E-02    2.61       1.0  T
   3    -65.0236819 -0.656907E-07  0.223E-03    2.61       7.0  T
   4    -65.0236820 -0.120172E-06  0.118E-03    2.61      13.2  T
   5    -65.0236820 -0.627236E-08  0.644E-04    2.61      24.2  T
   6    -65.0236820 -0.594206E-08  0.219E-04    2.61      71.5  T
     SCC iter.                  ...        0 min,  0.074 sec
     gradient                   ...        0 min,  0.026 sec
 * total energy  :   -64.1667531 Eh     change       -0.9989836E-05 Eh
   gradient norm :     0.0013341 Eh/α   predicted    -0.4801640E-05 ( -51.93%)
   displ. norm   :     0.1285161 α      lambda       -0.8893303E-05
   maximum displ.:     0.0790829 α      in ANC's #2, #4, #6, ...

........................................................................
.............................. CYCLE  116 ..............................
........................................................................

 iter      E             dE          RMSdq      gap      omega  full diag
   1    -65.0248770 -0.650249E+02  0.364E-02    2.62       0.0  T
   2    -65.0248774 -0.400490E-06  0.216E-02    2.62       1.0  T
   3    -65.0248766  0.788725E-06  0.518E-03    2.62       3.0  T
   4    -65.0248776 -0.975122E-06  0.927E-04    2.62      16.8  T
   5    -65.0248776 -0.105892E-07  0.554E-04    2.62      28.2  T
     SCC iter.                  ...        0 min,  0.060 sec
     gradient                   ...        0 min,  0.026 sec
 * total energy  :   -64.1667597 Eh     change       -0.6567282E-05 Eh
   gradient norm :     0.0012053 Eh/α   predicted    -0.4479537E-05 ( -31.79%)
   displ. norm   :     0.2340745 α      lambda       -0.8740598E-05
   maximum displ.:     0.1708308 α      in ANC's #2, #4, #6, ...

........................................................................
.............................. CYCLE  117 ..............................
........................................................................

 iter      E             dE          RMSdq      gap      omega  full diag
   1    -65.0237120 -0.650237E+02  0.724E-02    2.61       0.0  T
   2    -65.0237128 -0.780864E-06  0.425E-02    2.61       1.0  T
   3    -65.0237124  0.354203E-06  0.469E-03    2.61       3.3  T
   4    -65.0237132 -0.755656E-06  0.149E-03    2.61      10.5  T
   5    -65.0237132 -0.203232E-08  0.786E-04    2.61      19.9  T
   6    -65.0237132 -0.723765E-08  0.196E-04    2.61      79.5  T
     SCC iter.                  ...        0 min,  0.070 sec
     gradient                   ...        0 min,  0.026 sec
 * total energy  :   -64.1667662 Eh     change       -0.6458955E-05 Eh
   gradient norm :     0.0024657 Eh/α   predicted    -0.4480428E-05 ( -30.63%)
   displ. norm   :     0.0629175 α      lambda       -0.7017819E-05
   maximum displ.:     0.0457632 α      in ANC's #2, #4, #5, ...

........................................................................
.............................. CYCLE  118 ..............................
........................................................................

 iter      E             dE          RMSdq      gap      omega  full diag
   1    -65.0239712 -0.650240E+02  0.183E-02    2.61       0.0  T
   2    -65.0239713 -0.891729E-07  0.108E-02    2.61       1.4  T
   3    -65.0239712  0.852018E-07  0.170E-03    2.61       9.2  T
   4    -65.0239713 -0.118552E-06  0.393E-04    2.61      39.7  T
   5    -65.0239713 -0.810303E-09  0.235E-04    2.61      66.4  T
     SCC iter.                  ...        0 min,  0.060 sec
     gradient                   ...        0 min,  0.032 sec
 * total energy  :   -64.1667718 Eh     change       -0.5660287E-05 Eh
   gradient norm :     0.0017491 Eh/α   predicted    -0.3524041E-05 ( -37.74%)
   displ. norm   :     0.3035529 α      lambda       -0.1911864E-04
   maximum displ.:     0.2239296 α      in ANC's #2, #4, #3, ...

........................................................................
.............................. CYCLE  119 ..............................
........................................................................

 iter      E             dE          RMSdq      gap      omega  full diag
   1    -65.0242837 -0.650243E+02  0.905E-02    2.61       0.0  T
   2    -65.0242849 -0.118818E-05  0.533E-02    2.61       1.0  T
   3    -65.0242847  0.180540E-06  0.412E-03    2.61       3.8  T
   4    -65.0242853 -0.592547E-06  0.184E-03    2.61       8.5  T
   5    -65.0242853 -0.444098E-07  0.952E-04    2.61      16.4  T
   6    -65.0242853 -0.738169E-09  0.381E-04    2.61      41.0  T
     SCC iter.                  ...        0 min,  0.094 sec
     gradient                   ...        0 min,  0.034 sec
 * total energy  :   -64.1667881 Eh     change       -0.1629863E-04 Eh
   gradient norm :     0.0025712 Eh/α   predicted    -0.9952049E-05 ( -38.94%)
   displ. norm   :     0.1912038 α      lambda       -0.1663864E-04
   maximum displ.:     0.1397152 α      in ANC's #2, #4, #5, ...

........................................................................
.............................. CYCLE  120 ..............................
........................................................................

 iter      E             dE          RMSdq      gap      omega  full diag
   1    -65.0243567 -0.650244E+02  0.561E-02    2.61       0.0  T
   2    -65.0243571 -0.323295E-06  0.330E-02    2.61       1.0  T
   3    -65.0243570  0.100877E-06  0.274E-03    2.61       5.7  T
   4    -65.0243572 -0.283492E-06  0.108E-03    2.61      14.5  T
   5    -65.0243572  0.125029E-08  0.610E-04    2.61      25.6  T
   6    -65.0243573 -0.748074E-08  0.178E-04    2.61      88.0  T
     SCC iter.                  ...        0 min,  0.085 sec
     gradient                   ...        0 min,  0.035 sec
 * total energy  :   -64.1668012 Eh     change       -0.1311322E-04 Eh
   gradient norm :     0.0021949 Eh/α   predicted    -0.8628378E-05 ( -34.20%)
   displ. norm   :     0.3343151 α      lambda       -0.2578632E-04
   maximum displ.:     0.2452137 α      in ANC's #2, #4, #5, ...
 * RMSD in coord.:     0.5719650 α      energy gain  -0.2425104E-03 Eh

generating ANC from exact Hessian ...
Using Lindh-Hessian (1995)
 Shifting diagonal of input Hessian by    9.7784844598820305E-003
 Lowest  eigenvalues of input Hessian
    0.000000    0.000000    0.000000    0.000000    0.000000    0.000000
    0.010000    0.010198    0.010233    0.010538    0.010793    0.011044
    0.012442    0.013488    0.013571    0.014642    0.016052    0.017867
 Highest eigenvalues
    1.905362    1.922034    1.925920    2.099873    2.127381    2.415921


........................................................................
.............................. CYCLE  121 ..............................
........................................................................

 iter      E             dE          RMSdq      gap      omega  full diag
   1    -65.0236928 -0.650237E+02  0.987E-02    2.61       0.0  T
   2    -65.0236937 -0.936921E-06  0.580E-02    2.61       1.0  T
   3    -65.0236939 -0.202600E-06  0.373E-03    2.61       4.2  T
   4    -65.0236942 -0.300617E-06  0.194E-03    2.61       8.1  T
   5    -65.0236942 -0.814397E-08  0.105E-03    2.61      14.9  T
   6    -65.0236942 -0.206836E-07  0.252E-04    2.61      61.9  T
   7    -65.0236942 -0.821700E-09  0.114E-04    2.61     136.4  T
     SCC iter.                  ...        0 min,  0.173 sec
     gradient                   ...        0 min,  0.054 sec
 * total energy  :   -64.1668162 Eh     change       -0.1493429E-04 Eh
   gradient norm :     0.0023712 Eh/α   predicted     0.0000000E+00 (-100.00%)
   displ. norm   :     0.0154700 α      lambda       -0.9218356E-05
   maximum displ.:     0.0066365 α      in ANC's #2, #3, #21, ...

........................................................................
.............................. CYCLE  122 ..............................
........................................................................

 iter      E             dE          RMSdq      gap      omega  full diag
   1    -65.0247785 -0.650248E+02  0.616E-03    2.62       0.0  T
   2    -65.0247787 -0.150600E-06  0.370E-03    2.62       4.2  T
   3    -65.0247786  0.187177E-07  0.198E-03    2.62       7.9  T
   4    -65.0247787 -0.565929E-07  0.429E-04    2.62      36.4  T
   5    -65.0247787 -0.513586E-08  0.164E-04    2.62      95.5  T
     SCC iter.                  ...        0 min,  0.090 sec
     gradient                   ...        0 min,  0.047 sec
 * total energy  :   -64.1668232 Eh     change       -0.7053756E-05 Eh
   gradient norm :     0.0006243 Eh/α   predicted    -0.5209942E-05 ( -26.14%)
   displ. norm   :     0.0347436 α      lambda       -0.4660194E-05
   maximum displ.:     0.0174866 α      in ANC's #2, #3, #10, ...

........................................................................
.............................. CYCLE  123 ..............................
........................................................................

 iter      E             dE          RMSdq      gap      omega  full diag
   1    -65.0255399 -0.650255E+02  0.879E-03    2.62       0.0  T
   2    -65.0255400 -0.145154E-06  0.523E-03    2.62       3.0  T
   3    -65.0255399  0.804097E-07  0.234E-03    2.62       6.7  T
   4    -65.0255401 -0.125763E-06  0.401E-04    2.62      38.9  T
   5    -65.0255401 -0.333060E-08  0.200E-04    2.62      78.0  T
     SCC iter.                  ...        0 min,  0.092 sec
     gradient                   ...        0 min,  0.051 sec
 * total energy  :   -64.1668274 Eh     change       -0.4195616E-05 Eh
   gradient norm :     0.0010263 Eh/α   predicted    -0.2331705E-05 ( -44.43%)
   displ. norm   :     0.0354182 α      lambda       -0.2985259E-05
   maximum displ.:     0.0187950 α      in ANC's #2, #3, #1, ...

........................................................................
.............................. CYCLE  124 ..............................
........................................................................

 iter      E             dE          RMSdq      gap      omega  full diag
   1    -65.0253188 -0.650253E+02  0.792E-03    2.62       0.0  T
   2    -65.0253188 -0.218805E-07  0.466E-03    2.62       3.4  T
   3    -65.0253188  0.299660E-07  0.103E-03    2.62      15.2  T
   4    -65.0253188 -0.366544E-07  0.296E-04    2.62      52.7  T
   5    -65.0253188 -0.189407E-08  0.133E-04    2.62     117.1  T
     SCC iter.                  ...        0 min,  0.096 sec
     gradient                   ...        0 min,  0.052 sec
 * total energy  :   -64.1668313 Eh     change       -0.3895503E-05 Eh
   gradient norm :     0.0008185 Eh/α   predicted    -0.1499431E-05 ( -61.51%)
   displ. norm   :     0.0783320 α      lambda       -0.5780689E-05
   maximum displ.:     0.0419696 α      in ANC's #2, #3, #1, ...

........................................................................
.............................. CYCLE  125 ..............................
........................................................................

 iter      E             dE          RMSdq      gap      omega  full diag
   1    -65.0247564 -0.650248E+02  0.175E-02    2.62       0.0  T
   2    -65.0247565 -0.609875E-07  0.103E-02    2.62       1.5  T
   3    -65.0247563  0.150297E-06  0.239E-03    2.62       6.5  T
   4    -65.0247565 -0.187986E-06  0.479E-04    2.62      32.6  T
   5    -65.0247565 -0.192338E-08  0.298E-04    2.62      52.4  T
     SCC iter.                  ...        0 min,  0.153 sec
     gradient                   ...        0 min,  0.047 sec
 * total energy  :   -64.1668379 Eh     change       -0.6605928E-05 Eh
   gradient norm :     0.0004922 Eh/α   predicted    -0.2902897E-05 ( -56.06%)
   displ. norm   :     0.0817898 α      lambda       -0.4063920E-05
   maximum displ.:     0.0450123 α      in ANC's #2, #3, #1, ...

........................................................................
.............................. CYCLE  126 ..............................
........................................................................

 iter      E             dE          RMSdq      gap      omega  full diag
   1    -65.0244759 -0.650245E+02  0.181E-02    2.62       0.0  T
   2    -65.0244759 -0.538036E-07  0.106E-02    2.62       1.5  T
   3    -65.0244759  0.655928E-07  0.179E-03    2.62       8.7  T
   4    -65.0244760 -0.966830E-07  0.435E-04    2.62      35.9  T
   5    -65.0244760 -0.110063E-09  0.285E-04    2.62      54.9  T
     SCC iter.                  ...        0 min,  0.077 sec
     gradient                   ...        0 min,  0.039 sec
 * total energy  :   -64.1668428 Eh     change       -0.4863629E-05 Eh
   gradient norm :     0.0006683 Eh/α   predicted    -0.2043035E-05 ( -57.99%)
   displ. norm   :     0.0855676 α      lambda       -0.3930027E-05
   maximum displ.:     0.0480887 α      in ANC's #2, #3, #1, ...

........................................................................
.............................. CYCLE  127 ..............................
........................................................................

 iter      E             dE          RMSdq      gap      omega  full diag
   1    -65.0244401 -0.650244E+02  0.191E-02    2.62       0.0  T
   2    -65.0244402 -0.523766E-07  0.112E-02    2.62       1.4  T
   3    -65.0244401  0.247835E-07  0.134E-03    2.62      11.6  T
   4    -65.0244402 -0.519081E-07  0.418E-04    2.62      37.4  T
   5    -65.0244402  0.712816E-10  0.242E-04    2.62      64.6  T
     SCC iter.                  ...        0 min,  0.079 sec
     gradient                   ...        0 min,  0.043 sec
 * total energy  :   -64.1668477 Eh     change       -0.4932590E-05 Eh
   gradient norm :     0.0006609 Eh/α   predicted    -0.1973514E-05 ( -59.99%)
   displ. norm   :     0.1152113 α      lambda       -0.5156194E-05
   maximum displ.:     0.0655806 α      in ANC's #2, #3, #1, ...

........................................................................
.............................. CYCLE  128 ..............................
........................................................................

 iter      E             dE          RMSdq      gap      omega  full diag
   1    -65.0245378 -0.650245E+02  0.257E-02    2.63       0.0  T
   2    -65.0245379 -0.817770E-07  0.151E-02    2.62       1.0  T
   3    -65.0245379  0.194368E-07  0.144E-03    2.62      10.8  T
   4    -65.0245379 -0.604537E-07  0.575E-04    2.62      27.2  T
   5    -65.0245379 -0.111399E-08  0.345E-04    2.62      45.3  T
     SCC iter.                  ...        0 min,  0.079 sec
     gradient                   ...        0 min,  0.048 sec
 * total energy  :   -64.1668537 Eh     change       -0.6018639E-05 Eh
   gradient norm :     0.0005752 Eh/α   predicted    -0.2594608E-05 ( -56.89%)
   displ. norm   :     0.1157060 α      lambda       -0.4382784E-05
   maximum displ.:     0.0680034 α      in ANC's #2, #3, #1, ...

........................................................................
.............................. CYCLE  129 ..............................
........................................................................

 iter      E             dE          RMSdq      gap      omega  full diag
   1    -65.0247136 -0.650247E+02  0.272E-02    2.63       0.0  T
   2    -65.0247137 -0.737987E-07  0.160E-02    2.63       1.0  T
   3    -65.0247137 -0.111230E-07  0.108E-03    2.63      14.4  T
   4    -65.0247137 -0.294478E-07  0.548E-04    2.63      28.5  T
   5    -65.0247137  0.160199E-09  0.295E-04    2.63      53.0  T
     SCC iter.                  ...        0 min,  0.079 sec
     gradient                   ...        0 min,  0.052 sec
 * total energy  :   -64.1668585 Eh     change       -0.4780164E-05 Eh
   gradient norm :     0.0005333 Eh/α   predicted    -0.2205523E-05 ( -53.86%)
   displ. norm   :     0.0889184 α      lambda       -0.3091359E-05
   maximum displ.:     0.0541246 α      in ANC's #2, #1, #3, ...

........................................................................
.............................. CYCLE  130 ..............................
........................................................................

 iter      E             dE          RMSdq      gap      omega  full diag
   1    -65.0249107 -0.650249E+02  0.213E-02    2.63       0.0  T
   2    -65.0249108 -0.537074E-07  0.126E-02    2.63       1.2  T
   3    -65.0249107  0.298297E-07  0.125E-03    2.63      12.5  T
   4    -65.0249108 -0.580254E-07  0.482E-04    2.63      32.4  T
   5    -65.0249108 -0.132046E-08  0.279E-04    2.63      55.9  T
     SCC iter.                  ...        0 min,  0.071 sec
     gradient                   ...        0 min,  0.027 sec
 * total energy  :   -64.1668620 Eh     change       -0.3477006E-05 Eh
   gradient norm :     0.0003570 Eh/α   predicted    -0.1551323E-05 ( -55.38%)
   displ. norm   :     0.0763592 α      lambda       -0.2815098E-05
   maximum displ.:     0.0481772 α      in ANC's #2, #1, #3, ...

........................................................................
.............................. CYCLE  131 ..............................
........................................................................

 iter      E             dE          RMSdq      gap      omega  full diag
   1    -65.0250609 -0.650251E+02  0.200E-02    2.63       0.0  T
   2    -65.0250609 -0.425002E-07  0.118E-02    2.63       1.3  T
   3    -65.0250609  0.158979E-07  0.110E-03    2.63      14.2  T
   4    -65.0250609 -0.398173E-07  0.424E-04    2.63      36.8  T
   5    -65.0250609 -0.272550E-09  0.234E-04    2.63      66.7  T
     SCC iter.                  ...        0 min,  0.060 sec
     gradient                   ...        0 min,  0.027 sec
 * total energy  :   -64.1668656 Eh     change       -0.3571255E-05 Eh
   gradient norm :     0.0002357 Eh/α   predicted    -0.1412010E-05 ( -60.46%)
   displ. norm   :     0.0919395 α      lambda       -0.3702108E-05
   maximum displ.:     0.0582071 α      in ANC's #2, #1, #3, ...

........................................................................
.............................. CYCLE  132 ..............................
........................................................................

 iter      E             dE          RMSdq      gap      omega  full diag
   1    -65.0250695 -0.650251E+02  0.248E-02    2.63       0.0  T
   2    -65.0250695 -0.624699E-07  0.146E-02    2.63       1.1  T
   3    -65.0250695 -0.534698E-08  0.105E-03    2.63      14.9  T
   4    -65.0250696 -0.293126E-07  0.542E-04    2.63      28.8  T
   5    -65.0250696 -0.150874E-08  0.268E-04    2.63      58.3  T
     SCC iter.                  ...        0 min,  0.062 sec
     gradient                   ...        0 min,  0.039 sec
 * total energy  :   -64.1668703 Eh     change       -0.4793294E-05 Eh
   gradient norm :     0.0002870 Eh/α   predicted    -0.1859662E-05 ( -61.20%)
   displ. norm   :     0.1138819 α      lambda       -0.4509675E-05
   maximum displ.:     0.0722410 α      in ANC's #2, #1, #3, ...

........................................................................
.............................. CYCLE  133 ..............................
........................................................................

 iter      E             dE          RMSdq      gap      omega  full diag
   1    -65.0248946 -0.650249E+02  0.319E-02    2.63       0.0  T
   2    -65.0248947 -0.949711E-07  0.188E-02    2.63       1.0  T
   3    -65.0248948 -0.334176E-07  0.114E-03    2.63      13.7  T
   4    -65.0248948 -0.212384E-07  0.694E-04    2.63      22.5  T
   5    -65.0248948 -0.434140E-08  0.240E-04    2.63      65.0  T
     SCC iter.                  ...        0 min,  0.108 sec
     gradient                   ...        0 min,  0.029 sec
 * total energy  :   -64.1668759 Eh     change       -0.5562533E-05 Eh
   gradient norm :     0.0004356 Eh/α   predicted    -0.2268905E-05 ( -59.21%)
   displ. norm   :     0.1066424 α      lambda       -0.3789077E-05
   maximum displ.:     0.0675956 α      in ANC's #2, #1, #5, ...

........................................................................
.............................. CYCLE  134 ..............................
........................................................................

 iter      E             dE          RMSdq      gap      omega  full diag
   1    -65.0247950 -0.650248E+02  0.300E-02    2.63       0.0  T
   2    -65.0247951 -0.923470E-07  0.176E-02    2.63       1.0  T
   3    -65.0247951  0.456697E-08  0.151E-03    2.63      10.3  T
   4    -65.0247952 -0.596733E-07  0.658E-04    2.63      23.7  T
   5    -65.0247952 -0.173220E-08  0.326E-04    2.63      48.0  T
     SCC iter.                  ...        0 min,  0.066 sec
     gradient                   ...        0 min,  0.033 sec
 * total energy  :   -64.1668804 Eh     change       -0.4498543E-05 Eh
   gradient norm :     0.0004260 Eh/α   predicted    -0.1905511E-05 ( -57.64%)
   displ. norm   :     0.0839017 α      lambda       -0.2688868E-05
   maximum displ.:     0.0545149 α      in ANC's #2, #1, #6, ...

........................................................................
.............................. CYCLE  135 ..............................
........................................................................

 iter      E             dE          RMSdq      gap      omega  full diag
   1    -65.0247334 -0.650247E+02  0.243E-02    2.63       0.0  T
   2    -65.0247334 -0.624333E-07  0.143E-02    2.63       1.1  T
   3    -65.0247335 -0.373403E-08  0.115E-03    2.63      13.6  T
   4    -65.0247335 -0.324184E-07  0.522E-04    2.63      29.9  T
   5    -65.0247335 -0.600778E-09  0.284E-04    2.63      55.0  T
     SCC iter.                  ...        0 min,  0.064 sec
     gradient                   ...        0 min,  0.037 sec
 * total energy  :   -64.1668838 Eh     change       -0.3418756E-05 Eh
   gradient norm :     0.0003875 Eh/α   predicted    -0.1351364E-05 ( -60.47%)
   displ. norm   :     0.0747135 α      lambda       -0.2756565E-05
   maximum displ.:     0.0495255 α      in ANC's #2, #1, #4, ...

........................................................................
.............................. CYCLE  136 ..............................
........................................................................

 iter      E             dE          RMSdq      gap      omega  full diag
   1    -65.0247704 -0.650248E+02  0.219E-02    2.63       0.0  T
   2    -65.0247705 -0.525602E-07  0.129E-02    2.63       1.2  T
   3    -65.0247705  0.637243E-08  0.114E-03    2.63      13.7  T
   4    -65.0247705 -0.359775E-07  0.481E-04    2.63      32.4  T
   5    -65.0247705 -0.987527E-09  0.261E-04    2.63      59.9  T
     SCC iter.                  ...        0 min,  0.397 sec
     gradient                   ...        0 min,  0.090 sec
 * total energy  :   -64.1668876 Eh     change       -0.3754543E-05 Eh
   gradient norm :     0.0002696 Eh/α   predicted    -0.1383364E-05 ( -63.15%)
   displ. norm   :     0.1100994 α      lambda       -0.4566254E-05
   maximum displ.:     0.0735214 α      in ANC's #2, #1, #4, ...

........................................................................
.............................. CYCLE  137 ..............................
........................................................................

 iter      E             dE          RMSdq      gap      omega  full diag
   1    -65.0247597 -0.650248E+02  0.320E-02    2.63       0.0  T
   2    -65.0247598 -0.109523E-06  0.188E-02    2.63       1.0  T
   3    -65.0247598  0.932516E-10  0.154E-03    2.63      10.1  T
   4    -65.0247599 -0.617742E-07  0.683E-04    2.63      22.9  T
   5    -65.0247599 -0.128190E-08  0.378E-04    2.63      41.3  T
     SCC iter.                  ...        0 min,  0.076 sec
     gradient                   ...        0 min,  0.044 sec
 * total energy  :   -64.1668937 Eh     change       -0.6163579E-05 Eh
   gradient norm :     0.0004067 Eh/α   predicted    -0.2296806E-05 ( -62.74%)
   displ. norm   :     0.1834933 α      lambda       -0.7458979E-05
   maximum displ.:     0.1224774 α      in ANC's #2, #1, #4, ...

........................................................................
.............................. CYCLE  138 ..............................
........................................................................

 iter      E             dE          RMSdq      gap      omega  full diag
   1    -65.0245118 -0.650245E+02  0.530E-02    2.63       0.0  T
   2    -65.0245120 -0.269301E-06  0.311E-02    2.63       1.0  T
   3    -65.0245121 -0.740697E-07  0.201E-03    2.63       7.8  T
   4    -65.0245122 -0.817128E-07  0.107E-03    2.63      14.6  T
   5    -65.0245122 -0.256000E-08  0.520E-04    2.63      30.0  T
   6    -65.0245122 -0.553008E-08  0.138E-04    2.63     113.0  T
     SCC iter.                  ...        0 min,  0.117 sec
     gradient                   ...        0 min,  0.034 sec
 * total energy  :   -64.1669033 Eh     change       -0.9511683E-05 Eh
   gradient norm :     0.0007923 Eh/α   predicted    -0.3790301E-05 ( -60.15%)
   displ. norm   :     0.3044863 α      lambda       -0.1086335E-04
   maximum displ.:     0.2035062 α      in ANC's #2, #4, #1, ...

........................................................................
.............................. CYCLE  139 ..............................
........................................................................

 iter      E             dE          RMSdq      gap      omega  full diag
   1    -65.0238582 -0.650239E+02  0.858E-02    2.62       0.0  T
   2    -65.0238589 -0.708465E-06  0.504E-02    2.62       1.0  T
   3    -65.0238590 -0.685711E-07  0.374E-03    2.62       4.2  T
   4    -65.0238594 -0.351662E-06  0.171E-03    2.62       9.1  T
   5    -65.0238594  0.954685E-10  0.887E-04    2.62      17.6  T
   6    -65.0238594 -0.160085E-07  0.242E-04    2.62      64.6  T
     SCC iter.                  ...        0 min,  0.109 sec
     gradient                   ...        0 min,  0.048 sec
 * total energy  :   -64.1669140 Eh     change       -0.1076727E-04 Eh
   gradient norm :     0.0015670 Eh/α   predicted    -0.5658028E-05 ( -47.45%)
   displ. norm   :     0.1757824 α      lambda       -0.7270915E-05
   maximum displ.:     0.1157140 α      in ANC's #2, #4, #1, ...

........................................................................
.............................. CYCLE  140 ..............................
........................................................................

 iter      E             dE          RMSdq      gap      omega  full diag
   1    -65.0242539 -0.650243E+02  0.478E-02    2.62       0.0  T
   2    -65.0242541 -0.231432E-06  0.282E-02    2.63       1.0  T
   3    -65.0242541  0.271135E-07  0.236E-03    2.63       6.6  T
   4    -65.0242543 -0.152898E-06  0.940E-04    2.62      16.6  T
   5    -65.0242543 -0.124176E-08  0.509E-04    2.62      30.7  T
     SCC iter.                  ...        0 min,  0.079 sec
     gradient                   ...        0 min,  0.032 sec
 * total energy  :   -64.1669220 Eh     change       -0.7957794E-05 Eh
   gradient norm :     0.0011472 Eh/α   predicted    -0.3690202E-05 ( -53.63%)
   displ. norm   :     0.1874826 α      lambda       -0.6810756E-05
   maximum displ.:     0.1265572 α      in ANC's #2, #4, #1, ...

........................................................................
.............................. CYCLE  141 ..............................
........................................................................

 iter      E             dE          RMSdq      gap      omega  full diag
   1    -65.0245805 -0.650246E+02  0.506E-02    2.62       0.0  T
   2    -65.0245807 -0.274971E-06  0.298E-02    2.63       1.0  T
   3    -65.0245807  0.808754E-07  0.285E-03    2.63       5.5  T
   4    -65.0245809 -0.227769E-06  0.105E-03    2.63      14.9  T
   5    -65.0245809 -0.325070E-08  0.576E-04    2.63      27.1  T
   6    -65.0245809 -0.445588E-08  0.204E-04    2.63      76.5  T
     SCC iter.                  ...        0 min,  0.087 sec
     gradient                   ...        0 min,  0.042 sec
 * total energy  :   -64.1669296 Eh     change       -0.7600049E-05 Eh
   gradient norm :     0.0007732 Eh/α   predicted    -0.3460365E-05 ( -54.47%)
   displ. norm   :     0.2034701 α      lambda       -0.6086831E-05
   maximum displ.:     0.1405505 α      in ANC's #2, #4, #1, ...

........................................................................
.............................. CYCLE  142 ..............................
........................................................................

 iter      E             dE          RMSdq      gap      omega  full diag
   1    -65.0247119 -0.650247E+02  0.543E-02    2.62       0.0  T
   2    -65.0247123 -0.323241E-06  0.320E-02    2.62       1.0  T
   3    -65.0247122  0.898158E-07  0.281E-03    2.62       5.6  T
   4    -65.0247124 -0.259310E-06  0.112E-03    2.62      13.9  T
   5    -65.0247124 -0.407172E-08  0.606E-04    2.62      25.8  T
   6    -65.0247124 -0.544682E-08  0.204E-04    2.62      76.5  T
     SCC iter.                  ...        0 min,  0.097 sec
     gradient                   ...        0 min,  0.042 sec
 * total energy  :   -64.1669358 Eh     change       -0.6201937E-05 Eh
   gradient norm :     0.0004854 Eh/α   predicted    -0.3101809E-05 ( -49.99%)
   displ. norm   :     0.1716155 α      lambda       -0.3970119E-05
   maximum displ.:     0.1232596 α      in ANC's #2, #4, #1, ...

........................................................................
.............................. CYCLE  143 ..............................
........................................................................

 iter      E             dE          RMSdq      gap      omega  full diag
   1    -65.0245079 -0.650245E+02  0.466E-02    2.62       0.0  T
   2    -65.0245081 -0.234946E-06  0.274E-02    2.62       1.0  T
   3    -65.0245081 -0.200773E-07  0.204E-03    2.62       7.7  T
   4    -65.0245082 -0.103363E-06  0.954E-04    2.62      16.4  T
   5    -65.0245082 -0.191358E-08  0.480E-04    2.62      32.5  T
     SCC iter.                  ...        0 min,  0.157 sec
     gradient                   ...        0 min,  0.045 sec
 * total energy  :   -64.1669400 Eh     change       -0.4199456E-05 Eh
   gradient norm :     0.0010048 Eh/α   predicted    -0.2012045E-05 ( -52.09%)
   displ. norm   :     0.1716155 α      lambda        0.0000000E+00
   maximum displ.:     0.1232596 α      in ANC's #2, #4, #1, ...

........................................................................
.............................. CYCLE  144 ..............................
........................................................................

 iter      E             dE          RMSdq      gap      omega  full diag
   1    -65.0239138 -0.650239E+02  0.466E-02    2.62       0.0  T
   2    -65.0239140 -0.248367E-06  0.274E-02    2.62       1.0  T
   3    -65.0239141 -0.336401E-07  0.187E-03    2.62       8.3  T
   4    -65.0239142 -0.930052E-07  0.903E-04    2.62      17.3  T
   5    -65.0239142 -0.689241E-09  0.428E-04    2.62      36.4  T
     SCC iter.                  ...        0 min,  0.073 sec
     gradient                   ...        0 min,  0.043 sec
 * total energy  :   -64.1669397 Eh     change        0.2906078E-06 Eh
   gradient norm :     0.0022152 Eh/α   predicted    -0.3234148E-08 (-101.11%)
   displ. norm   :     0.0448483 α      lambda       -0.8316099E-05
   maximum displ.:     0.0261828 α      in ANC's #2, #9, #13, ...

........................................................................
.............................. CYCLE  145 ..............................
........................................................................

 iter      E             dE          RMSdq      gap      omega  full diag
   1    -65.0254051 -0.650254E+02  0.115E-02    2.63       0.0  T
   2    -65.0254053 -0.212641E-06  0.691E-03    2.63       2.3  T
   3    -65.0254052  0.152887E-06  0.355E-03    2.63       4.4  T
   4    -65.0254054 -0.246344E-06  0.467E-04    2.63      33.5  T
   5    -65.0254054 -0.447166E-08  0.229E-04    2.63      68.3  T
     SCC iter.                  ...        0 min,  0.086 sec
     gradient                   ...        0 min,  0.050 sec
 * total energy  :   -64.1669426 Eh     change       -0.2860686E-05 Eh
   gradient norm :     0.0013906 Eh/α   predicted    -0.4169688E-05 (  45.76%)
   displ. norm   :     0.0342006 α      lambda       -0.7637954E-05
   maximum displ.:     0.0178523 α      in ANC's #2, #3, #10, ...

........................................................................
.............................. CYCLE  146 ..............................
........................................................................

 iter      E             dE          RMSdq      gap      omega  full diag
   1    -65.0249797 -0.650250E+02  0.114E-02    2.62       0.0  T
   2    -65.0249798 -0.141089E-06  0.689E-03    2.62       2.3  T
   3    -65.0249796  0.197293E-06  0.306E-03    2.62       5.1  T
   4    -65.0249799 -0.270137E-06  0.307E-04    2.62      50.9  T
   5    -65.0249799 -0.883077E-09  0.159E-04    2.62      98.5  T
     SCC iter.                  ...        0 min,  0.062 sec
     gradient                   ...        0 min,  0.029 sec
 * total energy  :   -64.1669485 Eh     change       -0.5932250E-05 Eh
   gradient norm :     0.0010744 Eh/α   predicted    -0.3822630E-05 ( -35.56%)
   displ. norm   :     0.1025110 α      lambda       -0.5432576E-05
   maximum displ.:     0.0817736 α      in ANC's #2, #1, #3, ...

........................................................................
.............................. CYCLE  147 ..............................
........................................................................

 iter      E             dE          RMSdq      gap      omega  full diag
   1    -65.0247671 -0.650248E+02  0.287E-02    2.62       0.0  T
   2    -65.0247672 -0.106911E-06  0.169E-02    2.62       1.0  T
   3    -65.0247672  0.255104E-07  0.159E-03    2.62       9.8  T
   4    -65.0247673 -0.795291E-07  0.554E-04    2.62      28.2  T
   5    -65.0247673 -0.716227E-10  0.276E-04    2.62      56.6  T
     SCC iter.                  ...        0 min,  0.071 sec
     gradient                   ...        0 min,  0.034 sec
 * total energy  :   -64.1669552 Eh     change       -0.6732553E-05 Eh
   gradient norm :     0.0007571 Eh/α   predicted    -0.2730648E-05 ( -59.44%)
   displ. norm   :     0.3825431 α      lambda       -0.1312815E-04
   maximum displ.:     0.3076659 α      in ANC's #2, #1, #3, ...

........................................................................
.............................. CYCLE  148 ..............................
........................................................................

 iter      E             dE          RMSdq      gap      omega  full diag
   1    -65.0232268 -0.650232E+02  0.107E-01    2.61       0.0  T
   2    -65.0232280 -0.121959E-05  0.630E-02    2.61       1.0  T
   3    -65.0232282 -0.261192E-06  0.384E-03    2.61       4.1  T
   4    -65.0232286 -0.344615E-06  0.198E-03    2.61       7.9  T
   5    -65.0232286 -0.118770E-07  0.100E-03    2.61      15.5  T
   6    -65.0232286 -0.138718E-07  0.342E-04    2.61      45.6  T
   7    -65.0232286 -0.247903E-08  0.128E-04    2.61     122.3  T
     SCC iter.                  ...        0 min,  0.071 sec
     gradient                   ...        0 min,  0.021 sec
 * total energy  :   -64.1669629 Eh     change       -0.7720497E-05 Eh
   gradient norm :     0.0021872 Eh/α   predicted    -0.6995794E-05 (  -9.39%)
   displ. norm   :     0.0611689 α      lambda       -0.9563862E-05
   maximum displ.:     0.0312614 α      in ANC's #2, #4, #1, ...

........................................................................
.............................. CYCLE  149 ..............................
........................................................................

 iter      E             dE          RMSdq      gap      omega  full diag
   1    -65.0246970 -0.650247E+02  0.161E-02    2.62       0.0  T
   2    -65.0246971 -0.121556E-06  0.948E-03    2.62       1.6  T
   3    -65.0246969  0.201238E-06  0.281E-03    2.62       5.6  T
   4    -65.0246972 -0.249790E-06  0.432E-04    2.62      36.2  T
   5    -65.0246972 -0.268665E-08  0.248E-04    2.62      62.9  T
     SCC iter.                  ...        0 min,  0.060 sec
     gradient                   ...        0 min,  0.032 sec
 * total energy  :   -64.1669679 Eh     change       -0.4964918E-05 Eh
   gradient norm :     0.0009243 Eh/α   predicted    -0.4800323E-05 (  -3.32%)
   displ. norm   :     0.1097060 α      lambda       -0.4339465E-05
   maximum displ.:     0.0884694 α      in ANC's #2, #4, #7, ...

........................................................................
.............................. CYCLE  150 ..............................
........................................................................

 iter      E             dE          RMSdq      gap      omega  full diag
   1    -65.0249640 -0.650250E+02  0.296E-02    2.62       0.0  T
   2    -65.0249641 -0.101706E-06  0.174E-02    2.62       1.0  T
   3    -65.0249641  0.789062E-08  0.149E-03    2.62      10.5  T
   4    -65.0249641 -0.577656E-07  0.550E-04    2.62      28.4  T
   5    -65.0249641 -0.620147E-09  0.292E-04    2.62      53.5  T
     SCC iter.                  ...        0 min,  0.056 sec
     gradient                   ...        0 min,  0.026 sec
 * total energy  :   -64.1669729 Eh     change       -0.4949873E-05 Eh
   gradient norm :     0.0008475 Eh/α   predicted    -0.2182705E-05 ( -55.90%)
   displ. norm   :     0.3365341 α      lambda       -0.9970169E-05
   maximum displ.:     0.2790312 α      in ANC's #2, #4, #7, ...
 * RMSD in coord.:     0.4665695 α      energy gain  -0.1716280E-03 Eh

generating ANC from exact Hessian ...
Using Lindh-Hessian (1995)
 Shifting diagonal of input Hessian by    9.7803123714240124E-003
 Lowest  eigenvalues of input Hessian
    0.000000    0.000000    0.000000    0.000000    0.000000    0.000000
    0.010000    0.010188    0.010245    0.010522    0.010796    0.011035
    0.012347    0.013393    0.013532    0.014616    0.016294    0.017861
 Highest eigenvalues
    1.905046    1.920379    1.924301    2.100367    2.126761    2.418187


........................................................................
.............................. CYCLE  151 ..............................
........................................................................

 iter      E             dE          RMSdq      gap      omega  full diag
   1    -65.0241976 -0.650242E+02  0.923E-02    2.61       0.0  T
   2    -65.0241984 -0.777258E-06  0.544E-02    2.61       1.0  T
   3    -65.0241986 -0.165831E-06  0.312E-03    2.61       5.0  T
   4    -65.0241989 -0.265075E-06  0.169E-03    2.61       9.2  T
   5    -65.0241989 -0.119051E-07  0.675E-04    2.61      23.1  T
   6    -65.0241989 -0.776582E-08  0.249E-04    2.61      62.8  T
     SCC iter.                  ...        0 min,  0.129 sec
     gradient                   ...        0 min,  0.046 sec
 * total energy  :   -64.1669834 Eh     change       -0.1053197E-04 Eh
   gradient norm :     0.0014029 Eh/α   predicted     0.0000000E+00 (-100.00%)
   displ. norm   :     0.0177510 α      lambda       -0.4463920E-05
   maximum displ.:     0.0080721 α      in ANC's #9, #2, #12, ...

........................................................................
.............................. CYCLE  152 ..............................
........................................................................

 iter      E             dE          RMSdq      gap      omega  full diag
   1    -65.0252222 -0.650252E+02  0.696E-03    2.62       0.0  T
   2    -65.0252223 -0.984306E-07  0.417E-03    2.62       3.7  T
   3    -65.0252223  0.520206E-07  0.208E-03    2.62       7.5  T
   4    -65.0252223 -0.843837E-07  0.322E-04    2.62      48.5  T
   5    -65.0252223 -0.227210E-08  0.154E-04    2.62     101.1  T
     SCC iter.                  ...        0 min,  0.067 sec
     gradient                   ...        0 min,  0.024 sec
 * total energy  :   -64.1669876 Eh     change       -0.4221887E-05 Eh
   gradient norm :     0.0005018 Eh/α   predicted    -0.2564914E-05 ( -39.25%)
   displ. norm   :     0.0226875 α      lambda       -0.2145267E-05
   maximum displ.:     0.0116552 α      in ANC's #2, #9, #6, ...

........................................................................
.............................. CYCLE  153 ..............................
........................................................................

 iter      E             dE          RMSdq      gap      omega  full diag
   1    -65.0253317 -0.650253E+02  0.681E-03    2.62       0.0  T
   2    -65.0253317 -0.177328E-07  0.403E-03    2.62       3.9  T
   3    -65.0253317  0.373233E-07  0.116E-03    2.62      13.5  T
   4    -65.0253317 -0.458359E-07  0.203E-04    2.62      76.8  T
   5    -65.0253317 -0.422489E-09  0.124E-04    2.62     125.8  T
     SCC iter.                  ...        0 min,  0.060 sec
     gradient                   ...        0 min,  0.028 sec
 * total energy  :   -64.1669903 Eh     change       -0.2684830E-05 Eh
   gradient norm :     0.0005679 Eh/α   predicted    -0.1074042E-05 ( -60.00%)
   displ. norm   :     0.0769003 α      lambda       -0.5797328E-05
   maximum displ.:     0.0382064 α      in ANC's #2, #9, #6, ...

........................................................................
.............................. CYCLE  154 ..............................
........................................................................

 iter      E             dE          RMSdq      gap      omega  full diag
   1    -65.0251185 -0.650251E+02  0.218E-02    2.62       0.0  T
   2    -65.0251186 -0.736901E-07  0.128E-02    2.62       1.2  T
   3    -65.0251186  0.325072E-07  0.138E-03    2.62      11.3  T
   4    -65.0251187 -0.663532E-07  0.538E-04    2.62      29.0  T
   5    -65.0251187 -0.215137E-08  0.312E-04    2.62      50.0  T
     SCC iter.                  ...        0 min,  0.054 sec
     gradient                   ...        0 min,  0.033 sec
 * total energy  :   -64.1669961 Eh     change       -0.5824798E-05 Eh
   gradient norm :     0.0007242 Eh/α   predicted    -0.2906596E-05 ( -50.10%)
   displ. norm   :     0.0546042 α      lambda       -0.2517498E-05
   maximum displ.:     0.0297201 α      in ANC's #2, #9, #1, ...

........................................................................
.............................. CYCLE  155 ..............................
........................................................................

 iter      E             dE          RMSdq      gap      omega  full diag
   1    -65.0249936 -0.650250E+02  0.143E-02    2.62       0.0  T
   2    -65.0249936 -0.403600E-07  0.844E-03    2.62       1.9  T
   3    -65.0249936  0.682727E-07  0.177E-03    2.62       8.8  T
   4    -65.0249936 -0.916046E-07  0.331E-04    2.62      47.1  T
   5    -65.0249936 -0.698037E-10  0.189E-04    2.62      82.8  T
     SCC iter.                  ...        0 min,  0.133 sec
     gradient                   ...        0 min,  0.043 sec
 * total energy  :   -64.1669988 Eh     change       -0.2638983E-05 Eh
   gradient norm :     0.0004795 Eh/α   predicted    -0.1260830E-05 ( -52.22%)
   displ. norm   :     0.0427943 α      lambda       -0.1740579E-05
   maximum displ.:     0.0253322 α      in ANC's #2, #1, #5, ...

........................................................................
.............................. CYCLE  156 ..............................
........................................................................

 iter      E             dE          RMSdq      gap      omega  full diag
   1    -65.0249293 -0.650249E+02  0.943E-03    2.62       0.0  T
   2    -65.0249293 -0.311531E-07  0.554E-03    2.62       2.8  T
   3    -65.0249292  0.642196E-07  0.173E-03    2.62       9.0  T
   4    -65.0249293 -0.811740E-07  0.245E-04    2.62      63.7  T
   5    -65.0249293 -0.194476E-09  0.146E-04    2.62     107.0  T
     SCC iter.                  ...        0 min,  0.064 sec
     gradient                   ...        0 min,  0.031 sec
 * total energy  :   -64.1670008 Eh     change       -0.2090194E-05 Eh
   gradient norm :     0.0002425 Eh/α   predicted    -0.8718560E-06 ( -58.29%)
   displ. norm   :     0.0549416 α      lambda       -0.2414258E-05
   maximum displ.:     0.0330117 α      in ANC's #2, #1, #5, ...

........................................................................
.............................. CYCLE  157 ..............................
........................................................................

 iter      E             dE          RMSdq      gap      omega  full diag
   1    -65.0248611 -0.650249E+02  0.105E-02    2.63       0.0  T
   2    -65.0248612 -0.378947E-07  0.614E-03    2.63       2.5  T
   3    -65.0248611  0.740802E-07  0.187E-03    2.63       8.3  T
   4    -65.0248612 -0.930661E-07  0.248E-04    2.63      63.1  T
   5    -65.0248612 -0.285283E-09  0.123E-04    2.63     126.8  T
     SCC iter.                  ...        0 min,  0.049 sec
     gradient                   ...        0 min,  0.025 sec
 * total energy  :   -64.1670039 Eh     change       -0.3035634E-05 Eh
   gradient norm :     0.0005064 Eh/α   predicted    -0.1221187E-05 ( -59.77%)
   displ. norm   :     0.0895805 α      lambda       -0.3785764E-05
   maximum displ.:     0.0535157 α      in ANC's #2, #1, #5, ...

........................................................................
.............................. CYCLE  158 ..............................
........................................................................

 iter      E             dE          RMSdq      gap      omega  full diag
   1    -65.0248224 -0.650248E+02  0.165E-02    2.63       0.0  T
   2    -65.0248224 -0.479793E-07  0.973E-03    2.63       1.6  T
   3    -65.0248224  0.806525E-07  0.188E-03    2.63       8.3  T
   4    -65.0248225 -0.102729E-06  0.349E-04    2.63      44.8  T
   5    -65.0248225 -0.524125E-09  0.206E-04    2.63      75.7  T
     SCC iter.                  ...        0 min,  0.062 sec
     gradient                   ...        0 min,  0.031 sec
 * total energy  :   -64.1670085 Eh     change       -0.4646237E-05 Eh
   gradient norm :     0.0008738 Eh/α   predicted    -0.1900539E-05 ( -59.10%)
   displ. norm   :     0.1161699 α      lambda       -0.4241396E-05
   maximum displ.:     0.0699907 α      in ANC's #2, #1, #5, ...

........................................................................
.............................. CYCLE  159 ..............................
........................................................................

 iter      E             dE          RMSdq      gap      omega  full diag
   1    -65.0247725 -0.650248E+02  0.214E-02    2.63       0.0  T
   2    -65.0247725 -0.547461E-07  0.126E-02    2.63       1.2  T
   3    -65.0247725  0.247791E-07  0.124E-03    2.63      12.6  T
   4    -65.0247726 -0.443957E-07  0.463E-04    2.63      33.7  T
   5    -65.0247726 -0.280137E-08  0.239E-04    2.63      65.5  T
     SCC iter.                  ...        0 min,  0.066 sec
     gradient                   ...        0 min,  0.031 sec
 * total energy  :   -64.1670139 Eh     change       -0.5330241E-05 Eh
   gradient norm :     0.0008930 Eh/α   predicted    -0.2135884E-05 ( -59.93%)
   displ. norm   :     0.1294667 α      lambda       -0.4489072E-05
   maximum displ.:     0.0789839 α      in ANC's #2, #1, #5, ...

........................................................................
.............................. CYCLE  160 ..............................
........................................................................

 iter      E             dE          RMSdq      gap      omega  full diag
   1    -65.0248248 -0.650248E+02  0.243E-02    2.63       0.0  T
   2    -65.0248249 -0.824933E-07  0.143E-02    2.63       1.1  T
   3    -65.0248249  0.360628E-07  0.136E-03    2.63      11.4  T
   4    -65.0248249 -0.617390E-07  0.555E-04    2.63      28.1  T
   5    -65.0248249 -0.498524E-08  0.281E-04    2.63      55.6  T
     SCC iter.                  ...        0 min,  0.056 sec
     gradient                   ...        0 min,  0.025 sec
 * total energy  :   -64.1670194 Eh     change       -0.5558641E-05 Eh
   gradient norm :     0.0006123 Eh/α   predicted    -0.2261665E-05 ( -59.31%)
   displ. norm   :     0.1329850 α      lambda       -0.4148474E-05
   maximum displ.:     0.0824098 α      in ANC's #2, #1, #5, ...

........................................................................
.............................. CYCLE  161 ..............................
........................................................................

 iter      E             dE          RMSdq      gap      omega  full diag
   1    -65.0249327 -0.650249E+02  0.253E-02    2.64       0.0  T
   2    -65.0249328 -0.104519E-06  0.149E-02    2.64       1.0  T
   3    -65.0249327  0.423614E-07  0.152E-03    2.64      10.3  T
   4    -65.0249328 -0.728844E-07  0.600E-04    2.64      26.0  T
   5    -65.0249328 -0.578416E-08  0.308E-04    2.64      50.8  T
     SCC iter.                  ...        0 min,  0.060 sec
     gradient                   ...        0 min,  0.025 sec
 * total energy  :   -64.1670243 Eh     change       -0.4888392E-05 Eh
   gradient norm :     0.0002802 Eh/α   predicted    -0.2093552E-05 ( -57.17%)
   displ. norm   :     0.1045413 α      lambda       -0.2846856E-05
   maximum displ.:     0.0661926 α      in ANC's #2, #1, #5, ...

........................................................................
.............................. CYCLE  162 ..............................
........................................................................

 iter      E             dE          RMSdq      gap      omega  full diag
   1    -65.0250532 -0.650251E+02  0.210E-02    2.64       0.0  T
   2    -65.0250533 -0.536128E-07  0.124E-02    2.64       1.3  T
   3    -65.0250532  0.226685E-07  0.114E-03    2.64      13.8  T
   4    -65.0250533 -0.469601E-07  0.404E-04    2.64      38.7  T
   5    -65.0250533 -0.892655E-09  0.198E-04    2.64      79.1  T
     SCC iter.                  ...        0 min,  0.063 sec
     gradient                   ...        0 min,  0.041 sec
 * total energy  :   -64.1670276 Eh     change       -0.3244434E-05 Eh
   gradient norm :     0.0003621 Eh/α   predicted    -0.1432029E-05 ( -55.86%)
   displ. norm   :     0.0743073 α      lambda       -0.1967008E-05
   maximum displ.:     0.0485389 α      in ANC's #2, #1, #5, ...

........................................................................
.............................. CYCLE  163 ..............................
........................................................................

 iter      E             dE          RMSdq      gap      omega  full diag
   1    -65.0251882 -0.650252E+02  0.151E-02    2.64       0.0  T
   2    -65.0251882 -0.310402E-07  0.889E-03    2.64       1.8  T
   3    -65.0251882 -0.525080E-08  0.534E-04    2.64      29.2  T
   4    -65.0251882 -0.453147E-08  0.325E-04    2.64      48.0  T
     SCC iter.                  ...        0 min,  0.057 sec
     gradient                   ...        0 min,  0.032 sec
 * total energy  :   -64.1670300 Eh     change       -0.2431878E-05 Eh
   gradient norm :     0.0003697 Eh/α   predicted    -0.9868104E-06 ( -59.42%)
   displ. norm   :     0.0669755 α      lambda       -0.1985272E-05
   maximum displ.:     0.0444981 α      in ANC's #2, #1, #5, ...

........................................................................
.............................. CYCLE  164 ..............................
........................................................................

 iter      E             dE          RMSdq      gap      omega  full diag
   1    -65.0252253 -0.650252E+02  0.148E-02    2.64       0.0  T
   2    -65.0252253 -0.206281E-07  0.872E-03    2.64       1.8  T
   3    -65.0252253  0.301124E-08  0.742E-04    2.64      21.0  T
   4    -65.0252253 -0.144870E-07  0.297E-04    2.64      52.5  T
     SCC iter.                  ...        0 min,  0.048 sec
     gradient                   ...        0 min,  0.033 sec
 * total energy  :   -64.1670327 Eh     change       -0.2686449E-05 Eh
   gradient norm :     0.0003187 Eh/α   predicted    -0.9977449E-06 ( -62.86%)
   displ. norm   :     0.0909632 α      lambda       -0.3016149E-05
   maximum displ.:     0.0600739 α      in ANC's #2, #1, #5, ...

........................................................................
.............................. CYCLE  165 ..............................
........................................................................

 iter      E             dE          RMSdq      gap      omega  full diag
   1    -65.0251766 -0.650252E+02  0.204E-02    2.64       0.0  T
   2    -65.0251766 -0.386819E-07  0.120E-02    2.64       1.3  T
   3    -65.0251766  0.178687E-07  0.116E-03    2.64      13.5  T
   4    -65.0251766 -0.394359E-07  0.407E-04    2.64      38.3  T
   5    -65.0251766 -0.557520E-09  0.219E-04    2.64      71.4  T
     SCC iter.                  ...        0 min,  0.071 sec
     gradient                   ...        0 min,  0.030 sec
 * total energy  :   -64.1670367 Eh     change       -0.4007942E-05 Eh
   gradient norm :     0.0002453 Eh/α   predicted    -0.1515773E-05 ( -62.18%)
   displ. norm   :     0.1314902 α      lambda       -0.4151114E-05
   maximum displ.:     0.0864857 α      in ANC's #2, #1, #5, ...

........................................................................
.............................. CYCLE  166 ..............................
........................................................................

 iter      E             dE          RMSdq      gap      omega  full diag
   1    -65.0250107 -0.650250E+02  0.297E-02    2.64       0.0  T
   2    -65.0250108 -0.797164E-07  0.175E-02    2.64       1.0  T
   3    -65.0250108  0.149441E-07  0.148E-03    2.64      10.5  T
   4    -65.0250109 -0.581449E-07  0.560E-04    2.64      27.9  T
   5    -65.0250109 -0.369539E-09  0.307E-04    2.64      50.8  T
     SCC iter.                  ...        0 min,  0.060 sec
     gradient                   ...        0 min,  0.032 sec
 * total energy  :   -64.1670418 Eh     change       -0.5145700E-05 Eh
   gradient norm :     0.0003357 Eh/α   predicted    -0.2093211E-05 ( -59.32%)
   displ. norm   :     0.1299247 α      lambda       -0.3463821E-05
   maximum displ.:     0.0860127 α      in ANC's #2, #1, #5, ...

........................................................................
.............................. CYCLE  167 ..............................
........................................................................

 iter      E             dE          RMSdq      gap      omega  full diag
   1    -65.0249281 -0.650249E+02  0.288E-02    2.64       0.0  T
   2    -65.0249281 -0.700393E-07  0.170E-02    2.64       1.0  T
   3    -65.0249281 -0.542246E-08  0.111E-03    2.64      14.1  T
   4    -65.0249282 -0.302195E-07  0.545E-04    2.64      28.6  T
   5    -65.0249282 -0.217861E-08  0.239E-04    2.64      65.4  T
     SCC iter.                  ...        0 min,  0.070 sec
     gradient                   ...        0 min,  0.046 sec
 * total energy  :   -64.1670460 Eh     change       -0.4196421E-05 Eh
   gradient norm :     0.0004355 Eh/α   predicted    -0.1748322E-05 ( -58.34%)
   displ. norm   :     0.0955191 α      lambda       -0.2325256E-05
   maximum displ.:     0.0645337 α      in ANC's #2, #1, #5, ...

........................................................................
.............................. CYCLE  168 ..............................
........................................................................

 iter      E             dE          RMSdq      gap      omega  full diag
   1    -65.0249950 -0.650250E+02  0.210E-02    2.64       0.0  T
   2    -65.0249951 -0.400334E-07  0.124E-02    2.64       1.3  T
   3    -65.0249951  0.771320E-08  0.971E-04    2.64      16.1  T
   4    -65.0249951 -0.274320E-07  0.407E-04    2.64      38.4  T
     SCC iter.                  ...        0 min,  0.048 sec
     gradient                   ...        0 min,  0.025 sec
 * total energy  :   -64.1670489 Eh     change       -0.2850955E-05 Eh
   gradient norm :     0.0003661 Eh/α   predicted    -0.1171687E-05 ( -58.90%)
   displ. norm   :     0.0691497 α      lambda       -0.1615729E-05
   maximum displ.:     0.0487685 α      in ANC's #2, #1, #5, ...

........................................................................
.............................. CYCLE  169 ..............................
........................................................................

 iter      E             dE          RMSdq      gap      omega  full diag
   1    -65.0251097 -0.650251E+02  0.150E-02    2.64       0.0  T
   2    -65.0251097 -0.271379E-07  0.887E-03    2.64       1.8  T
   3    -65.0251097  0.408979E-07  0.129E-03    2.64      12.1  T
   4    -65.0251097 -0.548835E-07  0.319E-04    2.64      48.9  T
   5    -65.0251097 -0.832557E-09  0.185E-04    2.64      84.5  T
     SCC iter.                  ...        0 min,  0.060 sec
     gradient                   ...        0 min,  0.031 sec
 * total energy  :   -64.1670509 Eh     change       -0.2003947E-05 Eh
   gradient norm :     0.0002069 Eh/α   predicted    -0.8123384E-06 ( -59.46%)
   displ. norm   :     0.0428700 α      lambda       -0.1059478E-05
   maximum displ.:     0.0322693 α      in ANC's #2, #1, #4, ...

........................................................................
.............................. CYCLE  170 ..............................
........................................................................

 iter      E             dE          RMSdq      gap      omega  full diag
   1    -65.0251716 -0.650252E+02  0.971E-03    2.64       0.0  T
   2    -65.0251716 -0.144693E-07  0.573E-03    2.64       2.7  T
   3    -65.0251716  0.236653E-07  0.988E-04    2.64      15.8  T
   4    -65.0251716 -0.306462E-07  0.216E-04    2.64      72.2  T
     SCC iter.                  ...        0 min,  0.040 sec
     gradient                   ...        0 min,  0.025 sec
 * total energy  :   -64.1670522 Eh     change       -0.1374382E-05 Eh
   gradient norm :     0.0001356 Eh/α   predicted    -0.5324602E-06 ( -61.26%)
   displ. norm   :     0.0285069 α      lambda       -0.9058425E-06
   maximum displ.:     0.0222735 α      in ANC's #2, #4, #6, ...

........................................................................
.............................. CYCLE  171 ..............................
........................................................................

 iter      E             dE          RMSdq      gap      omega  full diag
   1    -65.0252371 -0.650252E+02  0.655E-03    2.64       0.0  T
   2    -65.0252371 -0.706547E-08  0.387E-03    2.64       4.0  T
   3    -65.0252371  0.152629E-07  0.757E-04    2.64      20.6  T
   4    -65.0252371 -0.189997E-07  0.160E-04    2.64      97.6  T
     SCC iter.                  ...        0 min,  0.041 sec
     gradient                   ...        0 min,  0.024 sec
 * total energy  :   -64.1670535 Eh     change       -0.1235543E-05 Eh
   gradient norm :     0.0001773 Eh/α   predicted    -0.4533281E-06 ( -63.31%)
   displ. norm   :     0.0330952 α      lambda       -0.1212241E-05
   maximum displ.:     0.0243689 α      in ANC's #2, #4, #6, ...

........................................................................
.............................. CYCLE  172 ..............................
........................................................................

 iter      E             dE          RMSdq      gap      omega  full diag
   1    -65.0252388 -0.650252E+02  0.786E-03    2.63       0.0  T
   2    -65.0252388 -0.898447E-08  0.464E-03    2.63       3.4  T
   3    -65.0252388  0.137529E-07  0.751E-04    2.63      20.8  T
   4    -65.0252388 -0.183093E-07  0.180E-04    2.63      86.8  T
     SCC iter.                  ...        0 min,  0.041 sec
     gradient                   ...        0 min,  0.026 sec
 * total energy  :   -64.1670552 Eh     change       -0.1680539E-05 Eh
   gradient norm :     0.0002509 Eh/α   predicted    -0.6099087E-06 ( -63.71%)
   displ. norm   :     0.0498792 α      lambda       -0.1800102E-05
   maximum displ.:     0.0347528 α      in ANC's #2, #4, #6, ...

........................................................................
.............................. CYCLE  173 ..............................
........................................................................

 iter      E             dE          RMSdq      gap      omega  full diag
   1    -65.0252448 -0.650252E+02  0.119E-02    2.63       0.0  T
   2    -65.0252448 -0.151428E-07  0.702E-03    2.63       2.2  T
   3    -65.0252448  0.130571E-07  0.799E-04    2.63      19.6  T
   4    -65.0252448 -0.215513E-07  0.248E-04    2.63      62.9  T
     SCC iter.                  ...        0 min,  0.108 sec
     gradient                   ...        0 min,  0.033 sec
 * total energy  :   -64.1670576 Eh     change       -0.2393516E-05 Eh
   gradient norm :     0.0002559 Eh/α   predicted    -0.9038975E-06 ( -62.24%)
   displ. norm   :     0.0611675 α      lambda       -0.1941793E-05
   maximum displ.:     0.0424123 α      in ANC's #2, #4, #6, ...

........................................................................
.............................. CYCLE  174 ..............................
........................................................................

 iter      E             dE          RMSdq      gap      omega  full diag
   1    -65.0252094 -0.650252E+02  0.152E-02    2.63       0.0  T
   2    -65.0252094 -0.221783E-07  0.897E-03    2.63       1.7  T
   3    -65.0252094  0.139137E-07  0.907E-04    2.63      17.2  T
   4    -65.0252094 -0.270656E-07  0.304E-04    2.63      51.3  T
     SCC iter.                  ...        0 min,  0.058 sec
     gradient                   ...        0 min,  0.026 sec
 * total energy  :   -64.1670600 Eh     change       -0.2486332E-05 Eh
   gradient norm :     0.0002706 Eh/α   predicted    -0.9738174E-06 ( -60.83%)
   displ. norm   :     0.0545241 α      lambda       -0.1488680E-05
   maximum displ.:     0.0383860 α      in ANC's #2, #4, #6, ...

........................................................................
.............................. CYCLE  175 ..............................
........................................................................

 iter      E             dE          RMSdq      gap      omega  full diag
   1    -65.0252057 -0.650252E+02  0.141E-02    2.63       0.0  T
   2    -65.0252057 -0.189548E-07  0.829E-03    2.63       1.9  T
   3    -65.0252057  0.115537E-07  0.827E-04    2.63      18.9  T
   4    -65.0252058 -0.230786E-07  0.279E-04    2.63      56.0  T
     SCC iter.                  ...        0 min,  0.046 sec
     gradient                   ...        0 min,  0.025 sec
 * total energy  :   -64.1670620 Eh     change       -0.1938590E-05 Eh
   gradient norm :     0.0001617 Eh/α   predicted    -0.7465787E-06 ( -61.49%)
   displ. norm   :     0.0459559 α      lambda       -0.1191074E-05
   maximum displ.:     0.0326176 α      in ANC's #2, #4, #6, ...

........................................................................
.............................. CYCLE  176 ..............................
........................................................................

 iter      E             dE          RMSdq      gap      omega  full diag
   1    -65.0252047 -0.650252E+02  0.124E-02    2.63       0.0  T
   2    -65.0252047 -0.141715E-07  0.729E-03    2.63       2.1  T
   3    -65.0252047  0.305269E-08  0.615E-04    2.63      25.4  T
   4    -65.0252047 -0.115077E-07  0.241E-04    2.63      64.8  T
     SCC iter.                  ...        0 min,  0.048 sec
     gradient                   ...        0 min,  0.032 sec
 * total energy  :   -64.1670636 Eh     change       -0.1624090E-05 Eh
   gradient norm :     0.0001377 Eh/α   predicted    -0.5986632E-06 ( -63.14%)
   displ. norm   :     0.0421514 α      lambda       -0.1132815E-05
   maximum displ.:     0.0290809 α      in ANC's #2, #4, #6, ...

........................................................................
.............................. CYCLE  177 ..............................
........................................................................

 iter      E             dE          RMSdq      gap      omega  full diag
   1    -65.0251881 -0.650252E+02  0.113E-02    2.63       0.0  T
   2    -65.0251881 -0.118472E-07  0.665E-03    2.63       2.3  T
   3    -65.0251881  0.146026E-08  0.530E-04    2.63      29.5  T
   4    -65.0251881 -0.838854E-08  0.220E-04    2.63      70.9  T
     SCC iter.                  ...        0 min,  0.051 sec
     gradient                   ...        0 min,  0.038 sec
 * total energy  :   -64.1670652 Eh     change       -0.1573203E-05 Eh
   gradient norm :     0.0001370 Eh/α   predicted    -0.5691423E-06 ( -63.82%)
   displ. norm   :     0.0492076 α      lambda       -0.1307212E-05
   maximum displ.:     0.0322906 α      in ANC's #2, #4, #3, ...

........................................................................
.............................. CYCLE  178 ..............................
........................................................................

 iter      E             dE          RMSdq      gap      omega  full diag
   1    -65.0251709 -0.650252E+02  0.128E-02    2.63       0.0  T
   2    -65.0251709 -0.150267E-07  0.753E-03    2.63       2.1  T
   3    -65.0251709  0.110711E-08  0.585E-04    2.63      26.7  T
   4    -65.0251709 -0.987302E-08  0.248E-04    2.63      63.1  T
     SCC iter.                  ...        0 min,  0.057 sec
     gradient                   ...        0 min,  0.039 sec
 * total energy  :   -64.1670670 Eh     change       -0.1802517E-05 Eh
   gradient norm :     0.0001878 Eh/α   predicted    -0.6565154E-06 ( -63.58%)
   displ. norm   :     0.0571136 α      lambda       -0.1430761E-05
   maximum displ.:     0.0371513 α      in ANC's #2, #4, #14, ...

........................................................................
.............................. CYCLE  179 ..............................
........................................................................

 iter      E             dE          RMSdq      gap      omega  full diag
   1    -65.0250939 -0.650251E+02  0.145E-02    2.63       0.0  T
   2    -65.0250939 -0.206905E-07  0.853E-03    2.63       1.8  T
   3    -65.0250939  0.633591E-09  0.663E-04    2.63      23.6  T
   4    -65.0250939 -0.120369E-07  0.283E-04    2.63      55.1  T
     SCC iter.                  ...        0 min,  0.054 sec
     gradient                   ...        0 min,  0.032 sec
 * total energy  :   -64.1670689 Eh     change       -0.1962865E-05 Eh
   gradient norm :     0.0002104 Eh/α   predicted    -0.7200542E-06 ( -63.32%)
   displ. norm   :     0.0602980 α      lambda       -0.1433131E-05
   maximum displ.:     0.0392270 α      in ANC's #2, #4, #14, ...

........................................................................
.............................. CYCLE  180 ..............................
........................................................................

 iter      E             dE          RMSdq      gap      omega  full diag
   1    -65.0250890 -0.650251E+02  0.149E-02    2.62       0.0  T
   2    -65.0250891 -0.225658E-07  0.880E-03    2.62       1.8  T
   3    -65.0250891  0.506235E-08  0.770E-04    2.62      20.3  T
   4    -65.0250891 -0.179300E-07  0.299E-04    2.62      52.3  T
     SCC iter.                  ...        0 min,  0.055 sec
     gradient                   ...        0 min,  0.033 sec
 * total energy  :   -64.1670709 Eh     change       -0.1958407E-05 Eh
   gradient norm :     0.0002128 Eh/α   predicted    -0.7190443E-06 ( -63.28%)
   displ. norm   :     0.0630128 α      lambda       -0.1481108E-05
   maximum displ.:     0.0425535 α      in ANC's #2, #4, #3, ...

........................................................................
.............................. CYCLE  181 ..............................
........................................................................

 iter      E             dE          RMSdq      gap      omega  full diag
   1    -65.0250523 -0.650251E+02  0.156E-02    2.62       0.0  T
   2    -65.0250523 -0.273089E-07  0.922E-03    2.62       1.7  T
   3    -65.0250523  0.614730E-08  0.859E-04    2.62      18.2  T
   4    -65.0250523 -0.208793E-07  0.322E-04    2.62      48.5  T
     SCC iter.                  ...        0 min,  0.056 sec
     gradient                   ...        0 min,  0.032 sec
 * total energy  :   -64.1670729 Eh     change       -0.2038259E-05 Eh
   gradient norm :     0.0001959 Eh/α   predicted    -0.7442402E-06 ( -63.49%)
   displ. norm   :     0.0621705 α      lambda       -0.1470959E-05
   maximum displ.:     0.0435225 α      in ANC's #2, #4, #3, ...

........................................................................
.............................. CYCLE  182 ..............................
........................................................................

 iter      E             dE          RMSdq      gap      omega  full diag
   1    -65.0250747 -0.650251E+02  0.155E-02    2.62       0.0  T
   2    -65.0250747 -0.270442E-07  0.915E-03    2.62       1.7  T
   3    -65.0250747  0.536366E-08  0.833E-04    2.62      18.7  T
   4    -65.0250747 -0.202290E-07  0.329E-04    2.62      47.5  T
     SCC iter.                  ...        0 min,  0.057 sec
     gradient                   ...        0 min,  0.026 sec
 * total energy  :   -64.1670750 Eh     change       -0.2075077E-05 Eh
   gradient norm :     0.0001610 Eh/α   predicted    -0.7403478E-06 ( -64.32%)
   displ. norm   :     0.0671347 α      lambda       -0.1677663E-05
   maximum displ.:     0.0491428 α      in ANC's #2, #7, #1, ...

........................................................................
.............................. CYCLE  183 ..............................
........................................................................

 iter      E             dE          RMSdq      gap      omega  full diag
   1    -65.0250720 -0.650251E+02  0.171E-02    2.62       0.0  T
   2    -65.0250720 -0.339668E-07  0.101E-02    2.62       1.5  T
   3    -65.0250720  0.192728E-07  0.111E-03    2.62      14.1  T
   4    -65.0250721 -0.385553E-07  0.386E-04    2.62      40.5  T
   5    -65.0250721 -0.720718E-09  0.215E-04    2.62      72.5  T
     SCC iter.                  ...        0 min,  0.053 sec
     gradient                   ...        0 min,  0.025 sec
 * total energy  :   -64.1670774 Eh     change       -0.2381280E-05 Eh
   gradient norm :     0.0002292 Eh/α   predicted    -0.8414134E-06 ( -64.67%)
   displ. norm   :     0.0755531 α      lambda       -0.1946495E-05
   maximum displ.:     0.0562658 α      in ANC's #2, #7, #1, ...
 * RMSD in coord.:     0.2474911 α      energy gain  -0.1045441E-03 Eh

generating ANC from exact Hessian ...
Using Lindh-Hessian (1995)
 Shifting diagonal of input Hessian by    9.7869851315552890E-003
 Lowest  eigenvalues of input Hessian
    0.000000    0.000000    0.000000    0.000000    0.000000    0.000000
    0.010000    0.010202    0.010252    0.010516    0.010813    0.011049
    0.012327    0.013342    0.013476    0.014507    0.016563    0.017896
 Highest eigenvalues
    1.906336    1.921477    1.925055    2.102115    2.128809    2.417878


........................................................................
.............................. CYCLE  184 ..............................
........................................................................

 iter      E             dE          RMSdq      gap      omega  full diag
   1    -65.0250921 -0.650251E+02  0.195E-02    2.62       0.0  T
   2    -65.0250921 -0.435355E-07  0.115E-02    2.62       1.4  T
   3    -65.0250921 -0.103152E-08  0.922E-04    2.62      16.9  T
   4    -65.0250921 -0.224738E-07  0.433E-04    2.62      36.1  T
     SCC iter.                  ...        0 min,  0.064 sec
     gradient                   ...        0 min,  0.042 sec
 * total energy  :   -64.1670802 Eh     change       -0.2793038E-05 Eh
   gradient norm :     0.0002983 Eh/α   predicted     0.0000000E+00 (-100.00%)
   displ. norm   :     0.0088089 α      lambda       -0.5020190E-06
   maximum displ.:     0.0067586 α      in ANC's #2, #4, #12, ...

........................................................................
.............................. CYCLE  185 ..............................
........................................................................

 iter      E             dE          RMSdq      gap      omega  full diag
   1    -65.0252111 -0.650252E+02  0.247E-03    2.62       0.0  T
   2    -65.0252111 -0.562896E-08  0.147E-03    2.62      10.7  T
   3    -65.0252111  0.757811E-08  0.572E-04    2.62      27.3  T
   4    -65.0252111 -0.945379E-08  0.129E-04    2.62     121.4  T
     SCC iter.                  ...        0 min,  0.164 sec
     gradient                   ...        0 min,  0.066 sec
 * total energy  :   -64.1670809 Eh     change       -0.6919825E-06 Eh
   gradient norm :     0.0001302 Eh/α   predicted    -0.2621184E-06 ( -62.12%)
   displ. norm   :     0.0266127 α      lambda       -0.1266674E-05
   maximum displ.:     0.0186591 α      in ANC's #2, #4, #12, ...

   *** GEOMETRY OPTIMIZATION CONVERGED AFTER 185 ITERATIONS ***

------------------------------------------------------------------------
 total energy gain   :        -0.0084563 Eh       -5.3064 kcal/mol
 total RMSD          :         2.2651882 a0        1.1987 Å
 total power (kW/mol):        -0.1200104 (step)   -0.7413 (real)
------------------------------------------------------------------------

 ANCopt (total)                0 d,  0 h,  0 min, 29.948 sec
 optimizer setup                ...        0 min,  0.001 sec (  0.002%)
 model hessian                  ...        0 min,  0.137 sec (  0.458%)
 ANC generation                 ...        0 min,  0.195 sec (  0.653%)
 coordinate transformation      ...        0 min,  0.004 sec (  0.012%)
 single point calculation       ...        0 min, 28.928 sec ( 96.593%)
 optimization log               ...        0 min,  0.033 sec (  0.111%)
 hessian update                 ...        0 min,  0.568 sec (  1.897%)
 rational function              ...        0 min,  0.025 sec (  0.085%)

================
 final structure:
================
41
 xtb: 6.7.1 (edcfbbe)
C           -6.19487739968262       -0.87010803626269       -1.68753929972537
C           -5.18153068815915       -0.16098326859904       -0.83630829949891
C           -5.72940450407066        0.32802726429082        0.47144158585541
C           -3.92648245485650       -0.01075669432398       -1.24263921760973
C           -2.80153503847223        0.64004932976758       -0.49971915763465
C           -1.94449106296262       -0.41814503888267        0.22205204266533
C           -0.83196180503536        0.23240904086042        0.98925218446941
C           -1.19901331825571        0.90384775045160        2.28038180606365
C            0.41093484939316        0.25081566817144        0.52263018879050
C            1.55858469903443        0.92403393387718        1.21420149079143
O            2.77733809625519        0.67663918300263        0.51433293171296
C            3.60099443419503       -0.23769007086292        1.01273603762735
O            3.45434528676402       -0.83003631058630        2.04672371947021
C            4.76949098624537       -0.43627944449555        0.09038343032639
C            4.58741156677970       -0.75595527041863       -1.25165809626423
F            3.33993815686291       -0.87701180151485       -1.73067933990096
C            5.65089291833963       -0.98072873920930       -2.10681669998510
C            6.94142719778629       -0.87701569878406       -1.61720857054147
C            7.16505047379224       -0.55670786650021       -0.28961500197951
C            6.08146789172886       -0.34697267257805        0.54518833428014
F            6.30821232933121       -0.01511419163583        1.82246340744808
H           -7.00705953008657       -0.19271580383687       -1.95129054678092
H           -5.74767039535948       -1.24797232697726       -2.60303295493536
H           -6.62829753170717       -1.70629854486147       -1.13938119674174
H           -6.65163120904676        0.88375495692289        0.30555836866607
H           -5.03015335766764        0.96714822032802        1.00054645178674
H           -5.96779449137108       -0.52182816753856        1.11163818197887
H           -3.64328051344216       -0.43073517000387       -2.19971395486441
H           -3.17312040660254        1.35989174787779        0.22943942102046
H           -2.16376140357542        1.17762931699778       -1.20489852275453
H           -1.53844350262037       -1.10882176123184       -0.51819899294464
H           -2.58508362358676       -0.98351740140152        0.90234032919865
H           -1.03100374714076        1.97887324127727        2.21783518030307
H           -2.24234513220198        0.72880790303061        2.52778144932091
H           -0.58257790378625        0.52390690112540        3.09435791994655
H            0.66438972985963       -0.23066494161502       -0.41025000426138
H            1.43136415347578        2.01252823139273        1.22384776632527
H            1.66167150355026        0.56788447523784        2.24708504569990
H            5.45664997708170       -1.23223925260988       -3.13696273530281
H            7.77871016613497       -1.04703654674639       -2.27546428072579
H            8.16264460307839       -0.46810766080415        0.10915959870099

 Bond Distances (Angstroems)
 ---------------------------
C1-C2=1.5014         C1-H22=1.0900        C1-H23=1.0867        C1-H24=1.0897        C2-C1=1.5014         C2-C3=1.4998         
C2-C4=1.3277         C3-C2=1.4998         C3-H25=1.0894        C3-H26=1.0851        C3-H27=1.0904        C4-C2=1.3277         
C4-C5=1.4970         C4-H28=1.0829        C5-C4=1.4970         C5-C6=1.5412         C5-H29=1.0899        C5-H30=1.0923        
C6-C5=1.5412         C6-C7=1.4998         C6-H31=1.0908        C6-H32=1.0922        C7-C6=1.4998         C7-C8=1.5009         
C7-C9=1.3277         C8-C7=1.5009         C8-H33=1.0899        C8-H34=1.0865        C8-H35=1.0895        C9-C7=1.3277         
C9-C10=1.4995        C9-H36=1.0800        C10-C9=1.4995        C10-O11=1.4270       C10-H37=1.0959       C10-H38=1.0974       
O11-C10=1.4270       O11-C12=1.3277       C12-O11=1.3277       C12-O13=1.2006       C12-C14=1.5019       O13-C12=1.2006       
C14-C12=1.5019       C14-C15=1.3916       C14-C20=1.3914       C15-C14=1.3916       C15-F16=1.3418       C15-C17=1.3830       
F16-C15=1.3418       C17-C15=1.3830       C17-C18=1.3842       C17-H39=1.0780       C18-C17=1.3842       C18-C19=1.3839       
C18-H40=1.0785       C19-C18=1.3839       C19-C20=1.3838       C19-H41=1.0780       C20-C14=1.3914       C20-C19=1.3838       
C20-F21=1.3390       F21-C20=1.3390       H22-C1=1.0900        H23-C1=1.0867        H24-C1=1.0897        H25-C3=1.0894        
H26-C3=1.0851        H27-C3=1.0904        H28-C4=1.0829        H29-C5=1.0899        H30-C5=1.0923        H31-C6=1.0908        
H32-C6=1.0922        H33-C8=1.0899        H34-C8=1.0865        H35-C8=1.0895        H36-C9=1.0800        H37-C10=1.0959       
H38-C10=1.0974       H39-C17=1.0780       H40-C18=1.0785       H41-C19=1.0780       
 C  H  Rav=1.0876 sigma=0.0055  Rmin=1.0780  Rmax=1.0974    20
 C  C  Rav=1.4384 sigma=0.0698  Rmin=1.3277  Rmax=1.5412    16
 O  C  Rav=1.3185 sigma=0.0927  Rmin=1.2006  Rmax=1.4270     3
 F  C  Rav=1.3404 sigma=0.0014  Rmin=1.3390  Rmax=1.3418     2

 selected bond angles (degree)
 --------------------
H22-C1-C2=110.28               H23-C1-C2=111.35               H23-C1-H22=108.60              H24-C1-C2=110.22               
H24-C1-H22=107.59              H24-C1-H23=108.70              C3-C2-C1=113.69                C4-C2-C1=121.19                
C4-C2-C3=125.12                H25-C3-C2=110.05               H26-C3-C2=112.45               H26-C3-H25=108.62              
H27-C3-C2=109.74               H27-C3-H25=107.57              H27-C3-H26=108.28              C5-C4-C2=127.42                
H28-C4-C2=118.28               H28-C4-C5=114.25               C6-C5-C4=110.60                H29-C5-C4=111.28               
H29-C5-C6=109.25               H30-C5-C4=109.41               H30-C5-C6=108.40               H30-C5-H29=107.81              
C7-C6-C5=110.75                H31-C6-C5=108.90               H31-C6-C7=110.22               H32-C6-C5=108.72               
H32-C6-C7=109.94               H32-C6-H31=108.26              C8-C7-C6=116.92                C9-C7-C6=121.37                
C9-C7-C8=121.67                H33-C8-C7=110.74               H34-C8-C7=111.02               H34-C8-H33=108.66              
H35-C8-C7=110.39               H35-C8-H33=107.44              H35-C8-H34=108.48              C10-C9-C7=124.10               
H36-C9-C7=121.14               H36-C9-C10=114.77              O11-C10-C9=110.46              H37-C10-C9=111.17              
H37-C10-O11=106.00             H38-C10-C9=111.12              H38-C10-O11=108.97             H38-C10-H37=108.96             

 selected dihedral angles (degree)
 ---------------------------------
C3-C2-C1-H22= 62.01           C3-C2-C1-H23=182.64           C3-C2-C1-H24=303.36           C4-C2-C1-H22=241.69           
C4-C2-C1-H23=  2.32           C4-C2-C1-H24=123.04           H25-C3-C2-C1=310.13           H25-C3-C2-C4=130.47           
H26-C3-C2-C1=188.90           H26-C3-C2-C4=  9.23           H27-C3-C2-C1= 68.32           H27-C3-C2-C4=248.65           
C5-C4-C2-C1=181.49            C5-C4-C2-C3=  1.13            H28-C4-C2-C1=358.83           H28-C4-C2-C3=178.47           
C6-C5-C4-C2= 97.02            C6-C5-C4-H28=279.60           H29-C5-C4-C2=335.39           H29-C5-C4-H28=157.97          
H30-C5-C4-C2=216.35           H30-C5-C4-H28= 38.93          C7-C6-C5-C4=181.10            C7-C6-C5-H29=303.92           
C7-C6-C5-H30= 61.15           H31-C6-C5-C4= 59.74           H31-C6-C5-H29=182.56          H31-C6-C5-H30=299.79          
H32-C6-C5-C4=301.99           H32-C6-C5-H29= 64.80          H32-C6-C5-H30=182.04          C8-C7-C6-C5= 76.08            
C8-C7-C6-H31=196.65           C8-C7-C6-H32=315.91           C9-C7-C6-C5=258.29            C9-C7-C6-H31= 18.87           
C9-C7-C6-H32=138.12           H33-C8-C7-C6=244.99           H33-C8-C7-C9= 62.77           H34-C8-C7-C6=  5.80           
H34-C8-C7-C9=183.58           H35-C8-C7-C6=126.14           H35-C8-C7-C9=303.92           C10-C9-C7-C6=177.78           
C10-C9-C7-C8=  0.10           H36-C9-C7-C6=358.02           H36-C9-C7-C8=180.34           O11-C10-C9-C7=175.51          
O11-C10-C9-H36=355.28         H37-C10-C9-C7=292.89          H37-C10-C9-H36=112.67         H38-C10-C9-C7= 54.44          
H38-C10-C9-H36=234.21         
           -------------------------------------------------
          |                Final Singlepoint                |
           -------------------------------------------------

          ...................................................
          :                      SETUP                      :
          :.................................................:
          :  # basis functions                 104          :
          :  # atomic orbitals                 104          :
          :  # shells                           62          :
          :  # electrons                       114          :
          :  max. iterations                   250          :
          :  Hamiltonian                  GFN2-xTB          :
          :  restarted?                      false          :
          :  GBSA solvation                  false          :
          :  PC potential                    false          :
          :  electronic temp.          300.0000000     K    :
          :  accuracy                    1.0000000          :
          :  -> integral cutoff          0.2500000E+02      :
          :  -> integral neglect         0.1000000E-07      :
          :  -> SCF convergence          0.1000000E-05 Eh   :
          :  -> wf. convergence          0.1000000E-03 e    :
          :  Broyden damping             0.4000000          :
          :  net charge                          0          :
          :  unpaired electrons                  0          :
          ...................................................

 iter      E             dE          RMSdq      gap      omega  full diag
   1    -65.0252111 -0.650252E+02  0.559E-05    2.62       0.0  T
   2    -65.0252111 -0.726175E-11  0.372E-05    2.62     420.1  T
   3    -65.0252111 -0.346745E-11  0.267E-05    2.62     585.7  T

   *** convergence criteria satisfied after 3 iterations ***

         #    Occupation            Energy/Eh            Energy/eV
      -------------------------------------------------------------
         1        2.0000           -0.8364916             -22.7621
       ...           ...                  ...                  ...
        51        2.0000           -0.4354513             -11.8492
        52        2.0000           -0.4310535             -11.7296
        53        2.0000           -0.4235926             -11.5265
        54        2.0000           -0.4221794             -11.4881
        55        2.0000           -0.4163657             -11.3299
        56        2.0000           -0.3888685             -10.5817
        57        2.0000           -0.3736631             -10.1679 (HOMO)
        58                         -0.2772913              -7.5455 (LUMO)
        59                         -0.2579072              -7.0180
        60                         -0.2221345              -6.0446
        61                         -0.2034706              -5.5367
        62                         -0.1843597              -5.0167
       ...                                ...                  ...
       104                          0.6804158              18.5151
      -------------------------------------------------------------
                  HL-Gap            0.0963718 Eh            2.6224 eV
             Fermi-level           -0.3254772 Eh           -8.8567 eV

 SCC (total)                   0 d,  0 h,  0 min,  0.140 sec
 SCC setup                      ...        0 min,  0.003 sec (  2.278%)
 Dispersion                     ...        0 min,  0.012 sec (  8.337%)
 classical contributions        ...        0 min,  0.006 sec (  4.090%)
 integral evaluation            ...        0 min,  0.018 sec ( 12.538%)
 iterations                     ...        0 min,  0.054 sec ( 38.404%)
 molecular gradient             ...        0 min,  0.048 sec ( 34.175%)
 printout                       ...        0 min,  0.000 sec (  0.157%)

         :::::::::::::::::::::::::::::::::::::::::::::::::::::
         ::                     SUMMARY                     ::
         :::::::::::::::::::::::::::::::::::::::::::::::::::::
         :: total energy             -64.167080885166 Eh    ::
         :: gradient norm              0.000132378012 Eh/a0 ::
         :: HOMO-LUMO gap              2.622410165885 eV    ::
         ::.................................................::
         :: SCC energy               -65.025438224964 Eh    ::
         :: -> isotropic ES            0.069792626248 Eh    ::
         :: -> anisotropic ES          0.004842401361 Eh    ::
         :: -> anisotropic XC          0.014317476411 Eh    ::
         :: -> dispersion             -0.035632551784 Eh    ::
         :: repulsion energy           0.858357339797 Eh    ::
         :: add. restraining           0.000000000000 Eh    ::
         :: total charge               0.000000000000 e     ::
         :::::::::::::::::::::::::::::::::::::::::::::::::::::

           -------------------------------------------------
          |                Property Printout                |
           -------------------------------------------------

    * Orbital Energies and Occupations

         #    Occupation            Energy/Eh            Energy/eV
      -------------------------------------------------------------
         1        2.0000           -0.8364916             -22.7621
       ...           ...                  ...                  ...
        45        2.0000           -0.4619780             -12.5711
        46        2.0000           -0.4595303             -12.5045
        47        2.0000           -0.4516760             -12.2907
        48        2.0000           -0.4494234             -12.2294
        49        2.0000           -0.4421716             -12.0321
        50        2.0000           -0.4403513             -11.9826
        51        2.0000           -0.4354513             -11.8492
        52        2.0000           -0.4310535             -11.7296
        53        2.0000           -0.4235926             -11.5265
        54        2.0000           -0.4221794             -11.4881
        55        2.0000           -0.4163657             -11.3299
        56        2.0000           -0.3888685             -10.5817
        57        2.0000           -0.3736631             -10.1679 (HOMO)
        58                         -0.2772913              -7.5455 (LUMO)
        59                         -0.2579072              -7.0180
        60                         -0.2221345              -6.0446
        61                         -0.2034706              -5.5367
        62                         -0.1843597              -5.0167
        63                         -0.1282534              -3.4900
        64                         -0.0036237              -0.0986
        65                          0.0241422               0.6569
        66                          0.0764405               2.0801
        67                          0.0882993               2.4027
        68                          0.0897385               2.4419
       ...                                ...                  ...
       104                          0.6804158              18.5151
      -------------------------------------------------------------
                  HL-Gap            0.0963718 Eh            2.6224 eV
             Fermi-level           -0.3254772 Eh           -8.8567 eV

     #   Z          covCN         q      C6AA      α(0)
     1   6 C        3.761    -0.110    22.645     6.784
     2   6 C        2.937     0.007    27.875     8.659
     3   6 C        3.758    -0.107    22.592     6.777
     4   6 C        2.897    -0.060    29.488     8.903
     5   6 C        3.805    -0.053    21.523     6.604
     6   6 C        3.811    -0.061    21.668     6.626
     7   6 C        2.942     0.007    27.854     8.656
     8   6 C        3.759    -0.113    22.709     6.794
     9   6 C        2.896    -0.070    29.750     8.943
    10   6 C        3.705     0.078    19.416     6.300
    11   8 O        1.706    -0.249    18.124     5.748
    12   6 C        2.720     0.377    20.609     7.432
    13   8 O        0.856    -0.393    21.542     6.223
    14   6 C        2.966    -0.047    29.174     8.860
    15   6 C        2.791     0.179    24.156     8.051
    16   9 F        0.787    -0.201    11.246     3.961
    17   6 C        2.916    -0.053    29.311     8.878
    18   6 C        2.926    -0.024    28.597     8.770
    19   6 C        2.916    -0.053    29.304     8.877
    20   6 C        2.791     0.181    24.114     8.044
    21   9 F        0.788    -0.195    11.185     3.951
    22   1 H        0.925     0.041     2.429     2.437
    23   1 H        0.925     0.036     2.499     2.472
    24   1 H        0.925     0.042     2.417     2.431
    25   1 H        0.925     0.040     2.447     2.446
    26   1 H        0.925     0.039     2.459     2.452
    27   1 H        0.924     0.042     2.427     2.436
    28   1 H        0.925     0.025     2.662     2.552
    29   1 H        0.925     0.036     2.502     2.473
    30   1 H        0.924     0.034     2.526     2.486
    31   1 H        0.924     0.040     2.448     2.447
    32   1 H        0.924     0.044     2.395     2.420
    33   1 H        0.925     0.043     2.413     2.429
    34   1 H        0.925     0.049     2.338     2.391
    35   1 H        0.925     0.047     2.360     2.402
    36   1 H        0.926     0.054     2.276     2.359
    37   1 H        0.924     0.059     2.216     2.328
    38   1 H        0.924     0.067     2.120     2.277
    39   1 H        0.926     0.077     2.013     2.219
    40   1 H        0.926     0.067     2.119     2.276
    41   1 H        0.926     0.078     2.002     2.213

 Mol. C6AA /au·bohr⁶  :      17210.306009
 Mol. C8AA /au·bohr⁸  :     398731.426124
 Mol. α(0) /au        :        201.786377


Wiberg/Mayer (AO) data.
largest (>0.10) Wiberg bond orders for each atom

 ---------------------------------------------------------------------------
     #   Z sym  total        # sym  WBO       # sym  WBO       # sym  WBO
 ---------------------------------------------------------------------------
     1   6 C    3.996 --     2 C    1.022    23 H    0.985    24 H    0.974
                            22 H    0.973
     2   6 C    3.984 --     4 C    1.882     3 C    1.024     1 C    1.022
     3   6 C    3.997 --     2 C    1.024    26 H    0.979    25 H    0.976
                            27 H    0.970
     4   6 C    3.986 --     2 C    1.882     5 C    1.023    28 H    0.965
     5   6 C    3.996 --     4 C    1.023    30 H    0.973    29 H    0.968
                             6 C    0.966
     6   6 C    3.994 --     7 C    1.014    31 H    0.975    32 H    0.968
                             5 C    0.966
     7   6 C    3.986 --     9 C    1.876     8 C    1.024     6 C    1.014
     8   6 C    3.997 --     7 C    1.024    34 H    0.985    33 H    0.971
                            35 H    0.970
     9   6 C    3.975 --     7 C    1.876    10 C    1.010    36 H    0.962
    10   6 C    3.916 --     9 C    1.010    37 H    0.955    38 H    0.952
                            11 O    0.932
    11   8 O    2.335 --    12 C    1.157    10 C    0.932    13 O    0.187
    12   6 C    3.928 --    13 O    1.750    11 O    1.157    14 C    0.956
    13   8 O    2.061 --    12 C    1.750    11 O    0.187
    14   6 C    3.985 --    20 C    1.359    15 C    1.359    12 C    0.956
                            18 C    0.105
    15   6 C    3.895 --    17 C    1.398    14 C    1.359    16 F    0.979
    16   9 F    1.119 --    15 C    0.979
    17   6 C    3.987 --    18 C    1.437    15 C    1.398    39 H    0.964
    18   6 C    3.988 --    19 C    1.439    17 C    1.437    40 H    0.968
                            14 C    0.105
    19   6 C    3.986 --    18 C    1.439    20 C    1.395    41 H    0.964
    20   6 C    3.896 --    19 C    1.395    14 C    1.359    21 F    0.985
    21   9 F    1.128 --    20 C    0.985
    22   1 H    0.998 --     1 C    0.973
    23   1 H    0.999 --     1 C    0.985
    24   1 H    0.998 --     1 C    0.974
    25   1 H    0.998 --     3 C    0.976
    26   1 H    0.998 --     3 C    0.979
    27   1 H    0.998 --     3 C    0.970
    28   1 H    0.999 --     4 C    0.965
    29   1 H    0.999 --     5 C    0.968
    30   1 H    0.999 --     5 C    0.973
    31   1 H    0.998 --     6 C    0.975
    32   1 H    0.998 --     6 C    0.968
    33   1 H    0.998 --     8 C    0.971
    34   1 H    0.998 --     8 C    0.985
    35   1 H    0.998 --     8 C    0.970
    36   1 H    0.997 --     9 C    0.962
    37   1 H    0.996 --    10 C    0.955
    38   1 H    0.995 --    10 C    0.952
    39   1 H    0.993 --    17 C    0.964
    40   1 H    0.995 --    18 C    0.968
    41   1 H    0.994 --    19 C    0.964
 ---------------------------------------------------------------------------

Topologies differ in total number of bonds
Writing topology from bond orders to xtbtopo.mol

molecular dipole:
                 x           y           z       tot (Debye)
 q only:       -0.146       0.344      -0.971
   full:       -0.067       0.415      -1.000       2.757
molecular quadrupole (traceless):
                xx          xy          yy          xz          yz          zz
 q only:       20.084      -1.447      -8.194     -24.116       5.995     -11.891
  q+dip:       22.638      -0.025     -10.297     -27.268       8.336     -12.341
   full:       20.904      -0.139      -7.382     -26.026       7.440     -13.522

           -------------------------------------------------
          |                Geometry Summary                 |
           -------------------------------------------------

      molecular mass/u    :      294.3369415
   center of mass at/Å    :        1.3914650      -0.1591915       0.0544394
  moments of inertia/u·Å² :        0.6471004E+03   0.5498279E+04   0.6014469E+04
rotational constants/cm⁻¹ :        0.2605103E-01   0.3065984E-02   0.2802846E-02

 * 32 selected distances

     #   Z          #   Z                                           value/Å
     2   6 C        4   6 C                                       1.3277120
     7   6 C        9   6 C                                       1.3277301
    10   6 C       11   8 O                                       1.4270180 (max)
    11   8 O       12   6 C                                       1.3277100
    12   6 C       13   8 O                                       1.2006293
    14   6 C       15   6 C                                       1.3915536
    15   6 C       17   6 C                                       1.3830446
    17   6 C       18   6 C                                       1.3841790
    18   6 C       19   6 C                                       1.3838748
    14   6 C       20   6 C                                       1.3914406
    19   6 C       20   6 C                                       1.3838486
    20   6 C       21   9 F                                       1.3390202
     1   6 C       22   1 H                                       1.0899839
     1   6 C       23   1 H                                       1.0866942
     1   6 C       24   1 H                                       1.0897454
     3   6 C       25   1 H                                       1.0894278
     3   6 C       26   1 H                                       1.0850714
     3   6 C       27   1 H                                       1.0903834
     4   6 C       28   1 H                                       1.0828562
     5   6 C       29   1 H                                       1.0899180
     5   6 C       30   1 H                                       1.0922571
     6   6 C       31   1 H                                       1.0908166
     6   6 C       32   1 H                                       1.0921525
     8   6 C       33   1 H                                       1.0898712
     8   6 C       34   1 H                                       1.0864562
     8   6 C       35   1 H                                       1.0894517
     9   6 C       36   1 H                                       1.0799670
    10   6 C       37   1 H                                       1.0959462
    10   6 C       38   1 H                                       1.0974142
    17   6 C       39   1 H                                       1.0780487
    18   6 C       40   1 H                                       1.0785410
    19   6 C       41   1 H                                       1.0779914 (min)

 * 4 distinct bonds (by element types)

   Z      Z             #   av. dist./Å        max./Å        min./Å
   1 H    6 C          20     1.0876497     1.0974142     1.0779914
   6 C    6 C           8     1.3716729     1.3915536     1.3277120
   6 C    8 O           3     1.3184524     1.4270180     1.2006293
   6 C    9 F           1     1.3390202     1.3390202     1.3390202


optimized geometry written to: xtbopt.xyz


           -------------------------------------------------
          | TOTAL ENERGY              -64.167080885166 Eh   |
          | GRADIENT NORM               0.000132378012 Eh/α |
          | HOMO-LUMO GAP               2.622410165885 eV   |
           -------------------------------------------------

------------------------------------------------------------------------
 * finished run on 2026/07/06 at 21:09:00.879     
------------------------------------------------------------------------
 total:
 * wall-time:     0 d,  0 h,  0 min, 30.470 sec
 *  cpu-time:     0 d,  0 h,  8 min,  3.344 sec
 * ratio c/w:    15.863 speedup
 SCF:
 * wall-time:     0 d,  0 h,  0 min,  0.312 sec
 *  cpu-time:     0 d,  0 h,  0 min,  4.761 sec
 * ratio c/w:    15.282 speedup
 ANC optimizer:
 * wall-time:     0 d,  0 h,  0 min, 30.096 sec
 *  cpu-time:     0 d,  0 h,  7 min, 58.084 sec
 * ratio c/w:    15.885 speedup

