      -----------------------------------------------------------      
     |                   =====================                   |     
     |                           x T B                           |     
     |                   =====================                   |     
     |                         S. Grimme                         |     
     |          Mulliken Center for Theoretical Chemistry        |     
     |                    University of Bonn                     |     
      -----------------------------------------------------------      

   * xtb version 6.7.1 (edcfbbe) compiled by 'conda@5dfe00f5fb80' on 2026-06-10

   xtb is free software: you can redistribute it and/or modify it under
   the terms of the GNU Lesser General Public License as published by
   the Free Software Foundation, either version 3 of the License, or
   (at your option) any later version.
   
   xtb is distributed in the hope that it will be useful,
   but WITHOUT ANY WARRANTY; without even the implied warranty of
   MERCHANTABILITY or FITNESS FOR A PARTICULAR PURPOSE.  See the
   GNU Lesser General Public License for more details.
   
   Cite this work as:
   * C. Bannwarth, E. Caldeweyher, S. Ehlert, A. Hansen, P. Pracht,
     J. Seibert, S. Spicher, S. Grimme, WIREs Comput. Mol. Sci., 2020, 11,
     e01493. DOI: 10.1002/wcms.1493
   
   for GFN2-xTB:
   * C. Bannwarth, S. Ehlert and S. Grimme., J. Chem. Theory Comput., 2019,
     15, 1652-1671. DOI: 10.1021/acs.jctc.8b01176
   for GFN1-xTB:
   * S. Grimme, C. Bannwarth, P. Shushkov, J. Chem. Theory Comput., 2017,
     13, 1989-2009. DOI: 10.1021/acs.jctc.7b00118
   for GFN0-xTB:
   * P. Pracht, E. Caldeweyher, S. Ehlert, S. Grimme, ChemRxiv, 2019, preprint.
     DOI: 10.26434/chemrxiv.8326202.v1
   for GFN-FF:
   * S. Spicher and S. Grimme, Angew. Chem. Int. Ed., 2020, 59, 15665-15673.
     DOI: 10.1002/anie.202004239
   
   for ALPB and GBSA implicit solvation:
   * S. Ehlert, M. Stahn, S. Spicher, S. Grimme, J. Chem. Theory Comput.,
     2021, 17, 4250-4261. DOI: 10.1021/acs.jctc.1c00471
   
   for ddCOSMO and CPCM-X implicit solvation:
   * M. Stahn, S. Ehlert, S. Grimme, J. Phys. Chem. A,
     2023, XX, XXXX-XXXX. DOI: 10.1021/acs.jpca.3c04382
   
   for DFT-D4:
   * E. Caldeweyher, C. Bannwarth and S. Grimme, J. Chem. Phys., 2017,
     147, 034112. DOI: 10.1063/1.4993215
   * E. Caldeweyher, S. Ehlert, A. Hansen, H. Neugebauer, S. Spicher,
     C. Bannwarth and S. Grimme, J. Chem. Phys., 2019, 150, 154122.
     DOI: 10.1063/1.5090222
   * E. Caldeweyher, J.-M. Mewes, S. Ehlert and S. Grimme, Phys. Chem. Chem. Phys.
     2020, 22, 8499-8512. DOI: 10.1039/D0CP00502A
   
   for sTDA-xTB:
   * S. Grimme and C. Bannwarth, J. Chem. Phys., 2016, 145, 054103.
     DOI: 10.1063/1.4959605
   
   in the mass-spec context:
   * V. Asgeirsson, C. Bauer and S. Grimme, Chem. Sci., 2017, 8, 4879.
     DOI: 10.1039/c7sc00601b
   * J. Koopman and S. Grimme, ACS Omega 2019, 4, 12, 15120-15133.
     DOI: 10.1021/acsomega.9b02011
   
   for metadynamics refer to:
   * S. Grimme, J. Chem. Theory Comput., 2019, 155, 2847-2862
     DOI: 10.1021/acs.jctc.9b00143
   
   for SPH calculations refer to:
   * S. Spicher and S. Grimme, J. Chem. Theory Comput., 2021, 17, 1701-1714
     DOI: 10.1021/acs.jctc.0c01306
   
   for ONIOM refer to:
   * C. Plett, A. Katbashev, S. Ehlert, S. Grimme, M. Bursch,
     Phys. Chem. Chem. Phys., 2023, 25, 17860-17868. DOI: 10.1039/D3CP02178E
   
   for DIPRO refer to:
   * J. Kohn, N. Gildemeister, S. Grimme, D. Fazzi, A. Hansen,
     J. Chem. Phys., 2023, just accepted.
   
   for PTB refer to:
   * S. Grimme, M. Mueller, A. Hansen, J. Chem. Phys., 2023, 158, 124111.
     DOI: 10.1063/5.0137838
   
   with help from (in alphabetical order)
   P. Atkinson, C. Bannwarth, F. Bohle, G. Brandenburg, E. Caldeweyher
   M. Checinski, S. Dohm, S. Ehlert, S. Ehrlich, I. Gerasimov, C. Hölzer
   A. Katbashev, J. Kohn, J. Koopman, C. Lavigne, S. Lehtola, F. März, M. Müller,
   F. Musil, H. Neugebauer, J. Pisarek, C. Plett, P. Pracht, F. Pultar,
   J. Seibert, P. Shushkov, S. Spicher, M. Stahn, M. Steiner, T. Strunk,
   J. Stückrath, T. Rose, and J. Unsleber
   
 * started run on 2026/07/06 at 17:26:01.363     
   ID    Z sym.   atoms
    1    6 C      1-10, 12, 14-19, 22-25, 29, 30
    2    8 O      11, 13, 27, 28
    3    7 N      20, 21, 26
    4    1 H      31-59

           -------------------------------------------------
          |                Calculation Setup                |
           -------------------------------------------------

          program call               : /home/ws/xd2484/miniforge3/envs/p3z_dft/bin/xtb xtb_input.xyz --gfn 2 --opt tight --cycles 500 --chrg 0 --uhf 0
          hostname                   : gpu10
          coordinate file            : xtb_input.xyz
          omp threads                :                    16


           -------------------------------------------------
          |                 G F N 2 - x T B                 |
           -------------------------------------------------

        Reference                      10.1021/acs.jctc.8b01176
      * Hamiltonian:
        H0-scaling (s, p, d)           1.850000    2.230000    2.230000
        zeta-weighting                 0.500000
      * Dispersion:
        s8                             2.700000
        a1                             0.520000
        a2                             5.000000
        s9                             5.000000
      * Repulsion:
        kExp                           1.500000    1.000000
        rExp                           1.000000
      * Coulomb:
        alpha                          2.000000
        third order                    shell-resolved
        anisotropic                    true
        a3                             3.000000
        a5                             4.000000
        cn-shift                       1.200000
        cn-exp                         4.000000
        max-rad                        5.000000


          ...................................................
          :                      SETUP                      :
          :.................................................:
          :  # basis functions                 149          :
          :  # atomic orbitals                 149          :
          :  # shells                           89          :
          :  # electrons                       160          :
          :  max. iterations                   250          :
          :  Hamiltonian                  GFN2-xTB          :
          :  restarted?                      false          :
          :  GBSA solvation                  false          :
          :  PC potential                    false          :
          :  electronic temp.          300.0000000     K    :
          :  accuracy                    1.0000000          :
          :  -> integral cutoff          0.2500000E+02      :
          :  -> integral neglect         0.1000000E-07      :
          :  -> SCF convergence          0.1000000E-05 Eh   :
          :  -> wf. convergence          0.1000000E-03 e    :
          :  Broyden damping             0.4000000          :
          :  net charge                          0          :
          :  unpaired electrons                  0          :
          ...................................................

 iter      E             dE          RMSdq      gap      omega  full diag
   1    -89.8547045 -0.898547E+02  0.426E+00    2.82       0.0  T
   2    -90.0775064 -0.222802E+00  0.235E+00    2.33       1.0  T
   3    -90.0796504 -0.214397E-02  0.127E+00    1.96       1.0  T
   4    -90.0839365 -0.428616E-02  0.680E-01    1.45       1.0  T
   5    -90.1006875 -0.167510E-01  0.168E-01    1.32       1.0  T
   6    -90.1017034 -0.101588E-02  0.614E-02    1.36       1.0  T
   7    -90.1017497 -0.462988E-04  0.315E-02    1.39       1.0  T
   8    -90.1017715 -0.218409E-04  0.120E-02    1.40       1.1  T
   9    -90.1017740 -0.247257E-05  0.578E-03    1.41       2.3  T
  10    -90.1017748 -0.827183E-06  0.256E-03    1.40       5.1  T
  11    -90.1017750 -0.138596E-06  0.108E-03    1.40      12.0  T
  12    -90.1017750 -0.323426E-07  0.556E-04    1.40      23.4  T
  13    -90.1017750 -0.559368E-08  0.217E-04    1.40      59.9  T

   *** convergence criteria satisfied after 13 iterations ***

         #    Occupation            Energy/Eh            Energy/eV
      -------------------------------------------------------------
         1        2.0000           -0.7592051             -20.6590
       ...           ...                  ...                  ...
        74        2.0000           -0.4300749             -11.7029
        75        2.0000           -0.4292498             -11.6805
        76        2.0000           -0.4230742             -11.5124
        77        2.0000           -0.4166288             -11.3370
        78        2.0000           -0.4111478             -11.1879
        79        2.0000           -0.3972657             -10.8101
        80        2.0000           -0.3790796             -10.3153 (HOMO)
        81                         -0.3275854              -8.9141 (LUMO)
        82                         -0.2955537              -8.0424
        83                         -0.2649289              -7.2091
        84                         -0.2436875              -6.6311
        85                         -0.2192886              -5.9671
       ...                                ...                  ...
       149                          0.6321253              17.2010
      -------------------------------------------------------------
                  HL-Gap            0.0514943 Eh            1.4012 eV
             Fermi-level           -0.3533325 Eh           -9.6147 eV

 SCC (total)                   0 d,  0 h,  0 min,  0.325 sec
 SCC setup                      ...        0 min,  0.004 sec (  1.293%)
 Dispersion                     ...        0 min,  0.010 sec (  3.099%)
 classical contributions        ...        0 min,  0.005 sec (  1.406%)
 integral evaluation            ...        0 min,  0.018 sec (  5.484%)
 iterations                     ...        0 min,  0.234 sec ( 72.210%)
 molecular gradient             ...        0 min,  0.053 sec ( 16.417%)
 printout                       ...        0 min,  0.000 sec (  0.082%)

         :::::::::::::::::::::::::::::::::::::::::::::::::::::
         ::                     SUMMARY                     ::
         :::::::::::::::::::::::::::::::::::::::::::::::::::::
         :: total energy             -88.955321750982 Eh    ::
         :: gradient norm              0.106633967239 Eh/a0 ::
         :: HOMO-LUMO gap              1.401230214983 eV    ::
         ::.................................................::
         :: SCC energy               -90.101594409498 Eh    ::
         :: -> isotropic ES            0.106702123282 Eh    ::
         :: -> anisotropic ES          0.014359005631 Eh    ::
         :: -> anisotropic XC          0.038284790029 Eh    ::
         :: -> dispersion             -0.056893744199 Eh    ::
         :: repulsion energy           1.146272658516 Eh    ::
         :: add. restraining           0.000000000000 Eh    ::
         :: total charge               0.000000000000 e     ::
         :::::::::::::::::::::::::::::::::::::::::::::::::::::

      ----------------------------------------------------------- 
     |                   =====================                   |
     |                        A N C O P T                        |
     |                   =====================                   |
     |               Approximate Normal Coordinate               |
     |                Rational Function Optimizer                |
      ----------------------------------------------------------- 
      ----------------------------------------------------------- 
     |                   =====================                   |
     |                        A N C O P T                        |
     |                   =====================                   |
     |               Approximate Normal Coordinate               |
     |                Rational Function Optimizer                |
      ----------------------------------------------------------- 

          ...................................................
          :                      SETUP                      :
          :.................................................:
          :   optimization level             tight          :
          :   max. optcycles                   500          :
          :   ANC micro-cycles                  20          :
          :   degrees of freedom               171          :
          :.................................................:
          :   RF solver                   davidson          :
          :   write xtbopt.log                true          :
          :   linear?                        false          :
          :   energy convergence         0.1000000E-05 Eh   :
          :   grad. convergence          0.8000000E-03 Eh/α :
          :   maxmium RF displ.          1.0000000          :
          :   Hlow (freq-cutoff)         0.1000000E-01      :
          :   Hmax (freq-cutoff)         5.0000000          :
          :   S6 in model hess.         20.0000000          :
          ...................................................

generating ANC from exact Hessian ...
Using Lindh-Hessian (1995)
 Shifting diagonal of input Hessian by    9.9406944265945270E-003
 Lowest  eigenvalues of input Hessian
    0.000000    0.000000    0.000000    0.000000    0.000000    0.000000
    0.010000    0.010040    0.010159    0.010383    0.010516    0.010680
    0.010918    0.010957    0.011034    0.011577    0.012183    0.012457
 Highest eigenvalues
    1.926228    1.984718    2.060208    2.098319    2.371598    2.449309


........................................................................
.............................. CYCLE    1 ..............................
........................................................................

 iter      E             dE          RMSdq      gap      omega  full diag
   1    -90.1017750 -0.901018E+02  0.799E-05    1.40       0.0  T
   2    -90.1017750 -0.110290E-09  0.535E-05    1.40     243.2  T
   3    -90.1017750 -0.955964E-10  0.268E-05    1.40     486.5  T
     SCC iter.                  ...        0 min,  0.052 sec
     gradient                   ...        0 min,  0.046 sec
 * total energy  :   -88.9553218 Eh     change       -0.7492957E-09 Eh
   gradient norm :     0.1066360 Eh/α   predicted     0.0000000E+00 (-100.00%)
   displ. norm   :     0.3384188 α      lambda       -0.1886521E-01
   maximum displ.:     0.1310567 α      in ANC's #40, #95, #23, ...

........................................................................
.............................. CYCLE    2 ..............................
........................................................................

 iter      E             dE          RMSdq      gap      omega  full diag
   1    -90.1668556 -0.901669E+02  0.194E-01    1.62       0.0  T
   2    -90.1671877 -0.332131E-03  0.113E-01    1.59       1.0  T
   3    -90.1671649  0.227414E-04  0.557E-02    1.58       1.0  T
   4    -90.1672021 -0.371224E-04  0.266E-02    1.58       1.0  T
   5    -90.1672330 -0.309530E-04  0.677E-03    1.58       1.9  T
   6    -90.1672344 -0.138650E-05  0.341E-03    1.58       3.8  T
   7    -90.1672345 -0.114867E-06  0.158E-03    1.58       8.3  T
   8    -90.1672346 -0.589354E-07  0.542E-04    1.58      24.0  T
   9    -90.1672346 -0.768510E-08  0.265E-04    1.58      49.1  T
     SCC iter.                  ...        0 min,  0.178 sec
     gradient                   ...        0 min,  0.044 sec
 * total energy  :   -88.9676108 Eh     change       -0.1228910E-01 Eh
   gradient norm :     0.0403111 Eh/α   predicted    -0.1052110E-01 ( -14.39%)
   displ. norm   :     0.2842086 α      lambda       -0.4420168E-02
   maximum displ.:     0.1066581 α      in ANC's #40, #23, #16, ...

........................................................................
.............................. CYCLE    3 ..............................
........................................................................

 iter      E             dE          RMSdq      gap      omega  full diag
   1    -90.1996988 -0.901997E+02  0.118E-01    1.68       0.0  T
   2    -90.1998428 -0.144087E-03  0.700E-02    1.67       1.0  T
   3    -90.1998432 -0.378197E-06  0.369E-02    1.67       1.0  T
   4    -90.1998595 -0.163216E-04  0.155E-02    1.67       1.0  T
   5    -90.1998701 -0.105293E-04  0.377E-03    1.67       3.5  T
   6    -90.1998706 -0.495275E-06  0.182E-03    1.67       7.1  T
   7    -90.1998706 -0.336780E-07  0.958E-04    1.67      13.6  T
   8    -90.1998706 -0.161309E-07  0.331E-04    1.67      39.3  T
     SCC iter.                  ...        0 min,  0.104 sec
     gradient                   ...        0 min,  0.032 sec
 * total energy  :   -88.9701594 Eh     change       -0.2548529E-02 Eh
   gradient norm :     0.0143140 Eh/α   predicted    -0.2394339E-02 (  -6.05%)
   displ. norm   :     0.1962382 α      lambda       -0.8107135E-03
   maximum displ.:     0.0755535 α      in ANC's #23, #16, #13, ...

........................................................................
.............................. CYCLE    4 ..............................
........................................................................

 iter      E             dE          RMSdq      gap      omega  full diag
   1    -90.2025669 -0.902026E+02  0.545E-02    1.65       0.0  T
   2    -90.2025809 -0.139757E-04  0.327E-02    1.66       1.0  T
   3    -90.2025760  0.489841E-05  0.140E-02    1.66       1.0  T
   4    -90.2025828 -0.686024E-05  0.442E-03    1.67       2.9  T
   5    -90.2025839 -0.110453E-05  0.107E-03    1.67      12.1  T
   6    -90.2025839 -0.227588E-07  0.598E-04    1.67      21.8  T
   7    -90.2025840 -0.520727E-08  0.234E-04    1.67      55.6  T
     SCC iter.                  ...        0 min,  0.082 sec
     gradient                   ...        0 min,  0.028 sec
 * total energy  :   -88.9706567 Eh     change       -0.4973647E-03 Eh
   gradient norm :     0.0088492 Eh/α   predicted    -0.4210164E-03 ( -15.35%)
   displ. norm   :     0.2786911 α      lambda       -0.7671518E-03
   maximum displ.:     0.0927827 α      in ANC's #16, #23, #10, ...

........................................................................
.............................. CYCLE    5 ..............................
........................................................................

 iter      E             dE          RMSdq      gap      omega  full diag
   1    -90.2019058 -0.902019E+02  0.717E-02    1.63       0.0  T
   2    -90.2019226 -0.168805E-04  0.426E-02    1.64       1.0  T
   3    -90.2019145  0.810765E-05  0.156E-02    1.65       1.0  T
   4    -90.2019245 -0.994188E-05  0.508E-03    1.65       2.6  T
   5    -90.2019259 -0.139518E-05  0.133E-03    1.65       9.8  T
   6    -90.2019259 -0.245997E-07  0.749E-04    1.65      17.4  T
   7    -90.2019259 -0.864905E-08  0.296E-04    1.65      43.9  T
     SCC iter.                  ...        0 min,  0.097 sec
     gradient                   ...        0 min,  0.032 sec
 * total energy  :   -88.9708516 Eh     change       -0.1948758E-03 Eh
   gradient norm :     0.0116101 Eh/α   predicted    -0.4133689E-03 ( 112.12%)
   displ. norm   :     0.1027968 α      lambda       -0.4212709E-03
   maximum displ.:     0.0381319 α      in ANC's #5, #7, #10, ...

........................................................................
.............................. CYCLE    6 ..............................
........................................................................

 iter      E             dE          RMSdq      gap      omega  full diag
   1    -90.2014711 -0.902015E+02  0.283E-02    1.65       0.0  T
   2    -90.2014725 -0.143745E-05  0.168E-02    1.65       1.0  T
   3    -90.2014715  0.102897E-05  0.490E-03    1.65       2.7  T
   4    -90.2014728 -0.126779E-05  0.130E-03    1.65      10.0  T
   5    -90.2014728 -0.873109E-07  0.457E-04    1.65      28.5  T
   6    -90.2014728  0.854072E-11  0.265E-04    1.65      49.2  T
     SCC iter.                  ...        0 min,  0.069 sec
     gradient                   ...        0 min,  0.031 sec
 * total energy  :   -88.9711265 Eh     change       -0.2748619E-03 Eh
   gradient norm :     0.0060437 Eh/α   predicted    -0.2128619E-03 ( -22.56%)
   displ. norm   :     0.1631824 α      lambda       -0.2005249E-03
   maximum displ.:     0.0711548 α      in ANC's #5, #7, #11, ...

........................................................................
.............................. CYCLE    7 ..............................
........................................................................

 iter      E             dE          RMSdq      gap      omega  full diag
   1    -90.2012313 -0.902012E+02  0.344E-02    1.65       0.0  T
   2    -90.2012334 -0.203748E-05  0.202E-02    1.65       1.0  T
   3    -90.2012318  0.153635E-05  0.639E-03    1.64       2.0  T
   4    -90.2012337 -0.185549E-05  0.148E-03    1.64       8.8  T
   5    -90.2012338 -0.109336E-06  0.490E-04    1.64      26.6  T
   6    -90.2012338 -0.318234E-08  0.300E-04    1.64      43.5  T
     SCC iter.                  ...        0 min,  0.141 sec
     gradient                   ...        0 min,  0.039 sec
 * total energy  :   -88.9712796 Eh     change       -0.1530790E-03 Eh
   gradient norm :     0.0040307 Eh/α   predicted    -0.1029400E-03 ( -32.75%)
   displ. norm   :     0.2777044 α      lambda       -0.2162685E-03
   maximum displ.:     0.1223276 α      in ANC's #5, #7, #11, ...

........................................................................
.............................. CYCLE    8 ..............................
........................................................................

 iter      E             dE          RMSdq      gap      omega  full diag
   1    -90.2011631 -0.902012E+02  0.560E-02    1.65       0.0  T
   2    -90.2011662 -0.305746E-05  0.328E-02    1.65       1.0  T
   3    -90.2011633  0.292340E-05  0.862E-03    1.64       1.5  T
   4    -90.2011668 -0.354503E-05  0.203E-03    1.64       6.4  T
   5    -90.2011669 -0.149483E-06  0.840E-04    1.64      15.5  T
   6    -90.2011670 -0.106826E-07  0.475E-04    1.64      27.4  T
     SCC iter.                  ...        0 min,  0.085 sec
     gradient                   ...        0 min,  0.033 sec
 * total energy  :   -88.9714361 Eh     change       -0.1565586E-03 Eh
   gradient norm :     0.0035863 Eh/α   predicted    -0.1164902E-03 ( -25.59%)
   displ. norm   :     0.2571940 α      lambda       -0.1399499E-03
   maximum displ.:     0.1175532 α      in ANC's #5, #4, #7, ...

........................................................................
.............................. CYCLE    9 ..............................
........................................................................

 iter      E             dE          RMSdq      gap      omega  full diag
   1    -90.2016040 -0.902016E+02  0.505E-02    1.65       0.0  T
   2    -90.2016056 -0.163637E-05  0.297E-02    1.65       1.0  T
   3    -90.2016032  0.244665E-05  0.747E-03    1.64       1.7  T
   4    -90.2016062 -0.299441E-05  0.158E-03    1.64       8.2  T
   5    -90.2016062 -0.689600E-07  0.785E-04    1.64      16.6  T
   6    -90.2016062 -0.939475E-08  0.394E-04    1.64      33.1  T
     SCC iter.                  ...        0 min,  0.102 sec
     gradient                   ...        0 min,  0.039 sec
 * total energy  :   -88.9715426 Eh     change       -0.1064763E-03 Eh
   gradient norm :     0.0031627 Eh/α   predicted    -0.7461797E-04 ( -29.92%)
   displ. norm   :     0.2526481 α      lambda       -0.1183673E-03
   maximum displ.:     0.1188445 α      in ANC's #5, #4, #7, ...

........................................................................
.............................. CYCLE   10 ..............................
........................................................................

 iter      E             dE          RMSdq      gap      omega  full diag
   1    -90.2023682 -0.902024E+02  0.486E-02    1.65       0.0  T
   2    -90.2023696 -0.140190E-05  0.287E-02    1.64       1.0  T
   3    -90.2023667  0.296533E-05  0.768E-03    1.64       1.7  T
   4    -90.2023703 -0.362449E-05  0.142E-03    1.64       9.2  T
   5    -90.2023703 -0.451606E-07  0.801E-04    1.64      16.2  T
   6    -90.2023704 -0.898652E-08  0.371E-04    1.64      35.1  T
     SCC iter.                  ...        0 min,  0.077 sec
     gradient                   ...        0 min,  0.031 sec
 * total energy  :   -88.9716345 Eh     change       -0.9186872E-04 Eh
   gradient norm :     0.0025654 Eh/α   predicted    -0.6297211E-04 ( -31.45%)
   displ. norm   :     0.2615914 α      lambda       -0.1088076E-03
   maximum displ.:     0.1288741 α      in ANC's #4, #5, #7, ...

........................................................................
.............................. CYCLE   11 ..............................
........................................................................

 iter      E             dE          RMSdq      gap      omega  full diag
   1    -90.2028828 -0.902029E+02  0.499E-02    1.64       0.0  T
   2    -90.2028841 -0.132682E-05  0.295E-02    1.64       1.0  T
   3    -90.2028813  0.283288E-05  0.741E-03    1.64       1.8  T
   4    -90.2028848 -0.350692E-05  0.137E-03    1.64       9.5  T
   5    -90.2028848 -0.298118E-07  0.836E-04    1.64      15.6  T
   6    -90.2028848 -0.105198E-07  0.360E-04    1.64      36.2  T
     SCC iter.                  ...        0 min,  0.163 sec
     gradient                   ...        0 min,  0.040 sec
 * total energy  :   -88.9717213 Eh     change       -0.8682662E-04 Eh
   gradient norm :     0.0028108 Eh/α   predicted    -0.5814334E-04 ( -33.04%)
   displ. norm   :     0.3051315 α      lambda       -0.1211262E-03
   maximum displ.:     0.1580302 α      in ANC's #4, #5, #7, ...

........................................................................
.............................. CYCLE   12 ..............................
........................................................................

 iter      E             dE          RMSdq      gap      omega  full diag
   1    -90.2028712 -0.902029E+02  0.589E-02    1.64       0.0  T
   2    -90.2028727 -0.153749E-05  0.347E-02    1.64       1.0  T
   3    -90.2028702  0.252492E-05  0.749E-03    1.64       1.7  T
   4    -90.2028735 -0.327707E-05  0.160E-03    1.64       8.1  T
   5    -90.2028735 -0.265455E-07  0.992E-04    1.64      13.1  T
   6    -90.2028735 -0.154430E-07  0.395E-04    1.64      33.0  T
     SCC iter.                  ...        0 min,  0.078 sec
     gradient                   ...        0 min,  0.032 sec
 * total energy  :   -88.9718206 Eh     change       -0.9930336E-04 Eh
   gradient norm :     0.0035427 Eh/α   predicted    -0.6620360E-04 ( -33.33%)
   displ. norm   :     0.3804342 α      lambda       -0.1526910E-03
   maximum displ.:     0.2021150 α      in ANC's #4, #5, #7, ...

........................................................................
.............................. CYCLE   13 ..............................
........................................................................

 iter      E             dE          RMSdq      gap      omega  full diag
   1    -90.2022933 -0.902023E+02  0.753E-02    1.64       0.0  T
   2    -90.2022956 -0.236081E-05  0.442E-02    1.64       1.0  T
   3    -90.2022931  0.254354E-05  0.845E-03    1.64       1.5  T
   4    -90.2022967 -0.357582E-05  0.213E-03    1.64       6.1  T
   5    -90.2022967 -0.516251E-07  0.128E-03    1.64      10.1  T
   6    -90.2022968 -0.226608E-07  0.524E-04    1.64      24.8  T
   7    -90.2022968 -0.577020E-08  0.164E-04    1.64      79.2  T
     SCC iter.                  ...        0 min,  0.090 sec
     gradient                   ...        0 min,  0.054 sec
 * total energy  :   -88.9719443 Eh     change       -0.1237297E-03 Eh
   gradient norm :     0.0042087 Eh/α   predicted    -0.8740052E-04 ( -29.36%)
   displ. norm   :     0.4227946 α      lambda       -0.1711087E-03
   maximum displ.:     0.2275525 α      in ANC's #4, #5, #7, ...

........................................................................
.............................. CYCLE   14 ..............................
........................................................................

 iter      E             dE          RMSdq      gap      omega  full diag
   1    -90.2015137 -0.902015E+02  0.859E-02    1.64       0.0  T
   2    -90.2015169 -0.312932E-05  0.503E-02    1.64       1.0  T
   3    -90.2015144  0.243983E-05  0.897E-03    1.64       1.5  T
   4    -90.2015181 -0.365588E-05  0.250E-03    1.64       5.2  T
   5    -90.2015182 -0.898911E-07  0.145E-03    1.64       9.0  T
   6    -90.2015182 -0.257856E-07  0.613E-04    1.64      21.2  T
   7    -90.2015182 -0.869200E-08  0.191E-04    1.64      68.3  T
     SCC iter.                  ...        0 min,  0.213 sec
     gradient                   ...        0 min,  0.040 sec
 * total energy  :   -88.9720770 Eh     change       -0.1326808E-03 Eh
   gradient norm :     0.0042338 Eh/α   predicted    -0.1008496E-03 ( -23.99%)
   displ. norm   :     0.3892638 α      lambda       -0.1507569E-03
   maximum displ.:     0.2088813 α      in ANC's #4, #5, #2, ...

........................................................................
.............................. CYCLE   15 ..............................
........................................................................

 iter      E             dE          RMSdq      gap      omega  full diag
   1    -90.2013249 -0.902013E+02  0.804E-02    1.64       0.0  T
   2    -90.2013276 -0.269252E-05  0.471E-02    1.64       1.0  T
   3    -90.2013259  0.171998E-05  0.759E-03    1.64       1.7  T
   4    -90.2013286 -0.269360E-05  0.228E-03    1.64       5.7  T
   5    -90.2013287 -0.852267E-07  0.129E-03    1.64      10.1  T
   6    -90.2013287 -0.215421E-07  0.519E-04    1.64      25.1  T
   7    -90.2013287 -0.630449E-08  0.180E-04    1.64      72.5  T
     SCC iter.                  ...        0 min,  0.104 sec
     gradient                   ...        0 min,  0.054 sec
 * total energy  :   -88.9721888 Eh     change       -0.1118293E-03 Eh
   gradient norm :     0.0035625 Eh/α   predicted    -0.8680225E-04 ( -22.38%)
   displ. norm   :     0.3427118 α      lambda       -0.1059836E-03
   maximum displ.:     0.1797485 α      in ANC's #4, #5, #2, ...

........................................................................
.............................. CYCLE   16 ..............................
........................................................................

 iter      E             dE          RMSdq      gap      omega  full diag
   1    -90.2008868 -0.902009E+02  0.709E-02    1.64       0.0  T
   2    -90.2008886 -0.173216E-05  0.416E-02    1.64       1.0  T
   3    -90.2008873  0.129511E-05  0.600E-03    1.64       2.2  T
   4    -90.2008892 -0.196803E-05  0.180E-03    1.64       7.2  T
   5    -90.2008893 -0.471130E-07  0.998E-04    1.64      13.0  T
   6    -90.2008893 -0.123927E-07  0.423E-04    1.64      30.8  T
     SCC iter.                  ...        0 min,  0.100 sec
     gradient                   ...        0 min,  0.033 sec
 * total energy  :   -88.9722667 Eh     change       -0.7789793E-04 Eh
   gradient norm :     0.0033678 Eh/α   predicted    -0.5921620E-04 ( -23.98%)
   displ. norm   :     0.2567415 α      lambda       -0.8211266E-04
   maximum displ.:     0.1262927 α      in ANC's #4, #5, #2, ...

........................................................................
.............................. CYCLE   17 ..............................
........................................................................

 iter      E             dE          RMSdq      gap      omega  full diag
   1    -90.2031079 -0.902031E+02  0.525E-02    1.65       0.0  T
   2    -90.2031090 -0.106654E-05  0.308E-02    1.64       1.0  T
   3    -90.2031082  0.747809E-06  0.448E-03    1.64       2.9  T
   4    -90.2031094 -0.112877E-05  0.127E-03    1.64      10.2  T
   5    -90.2031094 -0.223520E-07  0.699E-04    1.64      18.6  T
   6    -90.2031094 -0.552023E-08  0.322E-04    1.64      40.4  T
     SCC iter.                  ...        0 min,  0.078 sec
     gradient                   ...        0 min,  0.032 sec
 * total energy  :   -88.9723217 Eh     change       -0.5501245E-04 Eh
   gradient norm :     0.0030233 Eh/α   predicted    -0.4376445E-04 ( -20.45%)
   displ. norm   :     0.4108799 α      lambda       -0.7957911E-04
   maximum displ.:     0.2013293 α      in ANC's #4, #5, #7, ...

........................................................................
.............................. CYCLE   18 ..............................
........................................................................

 iter      E             dE          RMSdq      gap      omega  full diag
   1    -90.1992145 -0.901992E+02  0.875E-02    1.64       0.0  T
   2    -90.1992184 -0.389323E-05  0.515E-02    1.63       1.0  T
   3    -90.1992140  0.442638E-05  0.104E-02    1.63       1.3  T
   4    -90.1992197 -0.575585E-05  0.252E-03    1.63       5.2  T
   5    -90.1992199 -0.147672E-06  0.141E-03    1.63       9.2  T
   6    -90.1992199 -0.294422E-07  0.638E-04    1.63      20.4  T
   7    -90.1992199 -0.492953E-08  0.238E-04    1.63      54.7  T
     SCC iter.                  ...        0 min,  0.083 sec
     gradient                   ...        0 min,  0.026 sec
 * total energy  :   -88.9723491 Eh     change       -0.2739767E-04 Eh
   gradient norm :     0.0055265 Eh/α   predicted    -0.4650849E-04 (  69.75%)
   displ. norm   :     0.0669091 α      lambda       -0.7538801E-04
   maximum displ.:     0.0378735 α      in ANC's #11, #2, #8, ...

........................................................................
.............................. CYCLE   19 ..............................
........................................................................

 iter      E             dE          RMSdq      gap      omega  full diag
   1    -90.2031947 -0.902032E+02  0.159E-02    1.64       0.0  T
   2    -90.2031959 -0.119020E-05  0.933E-03    1.64       1.4  T
   3    -90.2031956  0.295521E-06  0.427E-03    1.64       3.1  T
   4    -90.2031961 -0.524411E-06  0.103E-03    1.63      12.6  T
   5    -90.2031961 -0.341976E-07  0.436E-04    1.63      29.9  T
   6    -90.2031961 -0.479204E-08  0.230E-04    1.63      56.6  T
     SCC iter.                  ...        0 min,  0.081 sec
     gradient                   ...        0 min,  0.032 sec
 * total energy  :   -88.9723990 Eh     change       -0.4988723E-04 Eh
   gradient norm :     0.0027665 Eh/α   predicted    -0.3786318E-04 ( -24.10%)
   displ. norm   :     0.1672882 α      lambda       -0.5336369E-04
   maximum displ.:     0.0707334 α      in ANC's #2, #5, #8, ...

........................................................................
.............................. CYCLE   20 ..............................
........................................................................

 iter      E             dE          RMSdq      gap      omega  full diag
   1    -90.2045892 -0.902046E+02  0.343E-02    1.64       0.0  T
   2    -90.2045903 -0.110660E-05  0.202E-02    1.63       1.0  T
   3    -90.2045894  0.928064E-06  0.496E-03    1.63       2.6  T
   4    -90.2045906 -0.127080E-05  0.101E-03    1.63      12.9  T
   5    -90.2045907 -0.170280E-07  0.565E-04    1.63      23.0  T
   6    -90.2045907 -0.195023E-08  0.298E-04    1.63      43.7  T
     SCC iter.                  ...        0 min,  0.086 sec
     gradient                   ...        0 min,  0.034 sec
 * total energy  :   -88.9724407 Eh     change       -0.4167617E-04 Eh
   gradient norm :     0.0026633 Eh/α   predicted    -0.2743054E-04 ( -34.18%)
   displ. norm   :     0.3152918 α      lambda       -0.8138065E-04
   maximum displ.:     0.1344190 α      in ANC's #8, #2, #5, ...
 * RMSD in coord.:     0.5601257 α      energy gain  -0.1711895E-01 Eh

generating ANC from exact Hessian ...
Using Lindh-Hessian (1995)
 Shifting diagonal of input Hessian by    9.9445742042007824E-003
 Lowest  eigenvalues of input Hessian
    0.000000    0.000000    0.000000    0.000000    0.000000    0.000000
    0.010000    0.010057    0.010185    0.010388    0.010561    0.010788
    0.010983    0.011037    0.011160    0.011786    0.012340    0.013159
 Highest eigenvalues
    2.013311    2.161087    2.178444    2.245303    2.433380    2.647943


........................................................................
.............................. CYCLE   21 ..............................
........................................................................

 iter      E             dE          RMSdq      gap      omega  full diag
   1    -90.2044159 -0.902044E+02  0.667E-02    1.63       0.0  T
   2    -90.2044180 -0.210138E-05  0.392E-02    1.63       1.0  T
   3    -90.2044160  0.199200E-05  0.733E-03    1.63       1.8  T
   4    -90.2044189 -0.290316E-05  0.180E-03    1.63       7.2  T
   5    -90.2044189 -0.186663E-07  0.112E-03    1.63      11.7  T
   6    -90.2044189 -0.219807E-07  0.428E-04    1.63      30.4  T
   7    -90.2044190 -0.467598E-08  0.142E-04    1.63      91.8  T
     SCC iter.                  ...        0 min,  0.101 sec
     gradient                   ...        0 min,  0.033 sec
 * total energy  :   -88.9724997 Eh     change       -0.5902210E-04 Eh
   gradient norm :     0.0029598 Eh/α   predicted     0.0000000E+00 (-100.00%)
   displ. norm   :     0.0304207 α      lambda       -0.2006232E-04
   maximum displ.:     0.0100816 α      in ANC's #18, #7, #2, ...

........................................................................
.............................. CYCLE   22 ..............................
........................................................................

 iter      E             dE          RMSdq      gap      omega  full diag
   1    -90.2037017 -0.902037E+02  0.659E-03    1.63       0.0  T
   2    -90.2037020 -0.244072E-06  0.392E-03    1.63       3.3  T
   3    -90.2037019  0.409243E-07  0.190E-03    1.63       6.8  T
   4    -90.2037020 -0.923542E-07  0.521E-04    1.63      25.0  T
   5    -90.2037020 -0.109056E-07  0.190E-04    1.63      68.5  T
     SCC iter.                  ...        0 min,  0.068 sec
     gradient                   ...        0 min,  0.037 sec
 * total energy  :   -88.9725199 Eh     change       -0.2018883E-04 Eh
   gradient norm :     0.0016231 Eh/α   predicted    -0.1262104E-04 ( -37.49%)
   displ. norm   :     0.1517406 α      lambda       -0.5287977E-04
   maximum displ.:     0.0512121 α      in ANC's #18, #7, #9, ...

........................................................................
.............................. CYCLE   23 ..............................
........................................................................

 iter      E             dE          RMSdq      gap      omega  full diag
   1    -90.2014977 -0.902015E+02  0.270E-02    1.64       0.0  T
   2    -90.2015009 -0.327173E-05  0.161E-02    1.64       1.0  T
   3    -90.2015001  0.830868E-06  0.741E-03    1.64       1.8  T
   4    -90.2015017 -0.156509E-05  0.201E-03    1.64       6.5  T
   5    -90.2015018 -0.146823E-06  0.842E-04    1.64      15.5  T
   6    -90.2015018 -0.132998E-07  0.476E-04    1.64      27.4  T
     SCC iter.                  ...        0 min,  0.098 sec
     gradient                   ...        0 min,  0.033 sec
 * total energy  :   -88.9725369 Eh     change       -0.1696727E-04 Eh
   gradient norm :     0.0045147 Eh/α   predicted    -0.2671291E-04 (  57.44%)
   displ. norm   :     0.0405640 α      lambda       -0.4054446E-04
   maximum displ.:     0.0152581 α      in ANC's #9, #2, #7, ...

........................................................................
.............................. CYCLE   24 ..............................
........................................................................

 iter      E             dE          RMSdq      gap      omega  full diag
   1    -90.2020447 -0.902020E+02  0.861E-03    1.64       0.0  T
   2    -90.2020448 -0.117008E-06  0.509E-03    1.64       2.6  T
   3    -90.2020447  0.174306E-06  0.224E-03    1.64       5.8  T
   4    -90.2020449 -0.227980E-06  0.553E-04    1.64      23.6  T
   5    -90.2020449 -0.926246E-08  0.267E-04    1.64      48.8  T
     SCC iter.                  ...        0 min,  0.065 sec
     gradient                   ...        0 min,  0.033 sec
 * total energy  :   -88.9725611 Eh     change       -0.2424755E-04 Eh
   gradient norm :     0.0032341 Eh/α   predicted    -0.2032806E-04 ( -16.16%)
   displ. norm   :     0.0369876 α      lambda       -0.2769237E-04
   maximum displ.:     0.0149591 α      in ANC's #9, #2, #17, ...

........................................................................
.............................. CYCLE   25 ..............................
........................................................................

 iter      E             dE          RMSdq      gap      omega  full diag
   1    -90.2032103 -0.902032E+02  0.824E-03    1.64       0.0  T
   2    -90.2032107 -0.419652E-06  0.497E-03    1.64       2.6  T
   3    -90.2032106  0.577133E-07  0.262E-03    1.64       5.0  T
   4    -90.2032108 -0.189910E-06  0.706E-04    1.64      18.4  T
   5    -90.2032108 -0.189758E-07  0.276E-04    1.64      47.2  T
     SCC iter.                  ...        0 min,  0.076 sec
     gradient                   ...        0 min,  0.036 sec
 * total energy  :   -88.9725823 Eh     change       -0.2113875E-04 Eh
   gradient norm :     0.0016704 Eh/α   predicted    -0.1386550E-04 ( -34.41%)
   displ. norm   :     0.1806218 α      lambda       -0.3936120E-04
   maximum displ.:     0.0751199 α      in ANC's #9, #2, #7, ...

........................................................................
.............................. CYCLE   26 ..............................
........................................................................

 iter      E             dE          RMSdq      gap      omega  full diag
   1    -90.2044966 -0.902045E+02  0.276E-02    1.63       0.0  T
   2    -90.2044984 -0.180706E-05  0.164E-02    1.63       1.0  T
   3    -90.2044968  0.160802E-05  0.711E-03    1.63       1.8  T
   4    -90.2044991 -0.236421E-05  0.176E-03    1.63       7.4  T
   5    -90.2044992 -0.729710E-07  0.973E-04    1.63      13.4  T
   6    -90.2044992 -0.124681E-07  0.499E-04    1.63      26.1  T
     SCC iter.                  ...        0 min,  0.082 sec
     gradient                   ...        0 min,  0.034 sec
 * total energy  :   -88.9726194 Eh     change       -0.3712468E-04 Eh
   gradient norm :     0.0033641 Eh/α   predicted    -0.1997781E-04 ( -46.19%)
   displ. norm   :     0.1359939 α      lambda       -0.3257007E-04
   maximum displ.:     0.0548751 α      in ANC's #9, #2, #7, ...

........................................................................
.............................. CYCLE   27 ..............................
........................................................................

 iter      E             dE          RMSdq      gap      omega  full diag
   1    -90.2041875 -0.902042E+02  0.192E-02    1.63       0.0  T
   2    -90.2041878 -0.302988E-06  0.114E-02    1.63       1.1  T
   3    -90.2041877  0.109269E-06  0.247E-03    1.63       5.3  T
   4    -90.2041880 -0.273585E-06  0.984E-04    1.63      13.2  T
   5    -90.2041880 -0.258949E-08  0.566E-04    1.63      23.0  T
     SCC iter.                  ...        0 min,  0.068 sec
     gradient                   ...        0 min,  0.028 sec
 * total energy  :   -88.9726479 Eh     change       -0.2847955E-04 Eh
   gradient norm :     0.0036227 Eh/α   predicted    -0.1662157E-04 ( -41.64%)
   displ. norm   :     0.3547886 α      lambda       -0.8766621E-04
   maximum displ.:     0.1415959 α      in ANC's #9, #2, #7, ...

........................................................................
.............................. CYCLE   28 ..............................
........................................................................

 iter      E             dE          RMSdq      gap      omega  full diag
   1    -90.2023491 -0.902023E+02  0.503E-02    1.63       0.0  T
   2    -90.2023510 -0.193621E-05  0.298E-02    1.63       1.0  T
   3    -90.2023513 -0.275932E-06  0.455E-03    1.63       2.9  T
   4    -90.2023519 -0.659940E-06  0.237E-03    1.63       5.5  T
   5    -90.2023520 -0.338061E-07  0.121E-03    1.63      10.8  T
   6    -90.2023520 -0.340623E-07  0.388E-04    1.63      33.5  T
   7    -90.2023520 -0.568789E-08  0.134E-04    1.63      97.3  T
     SCC iter.                  ...        0 min,  0.112 sec
     gradient                   ...        0 min,  0.045 sec
 * total energy  :   -88.9726966 Eh     change       -0.4872676E-04 Eh
   gradient norm :     0.0050617 Eh/α   predicted    -0.4935335E-04 (   1.29%)
   displ. norm   :     0.0568841 α      lambda       -0.5179804E-04
   maximum displ.:     0.0252391 α      in ANC's #2, #9, #17, ...

........................................................................
.............................. CYCLE   29 ..............................
........................................................................

 iter      E             dE          RMSdq      gap      omega  full diag
   1    -90.2032332 -0.902032E+02  0.114E-02    1.64       0.0  T
   2    -90.2032339 -0.711853E-06  0.647E-03    1.63       2.0  T
   3    -90.2032338  0.848623E-07  0.251E-03    1.63       5.2  T
   4    -90.2032339 -0.111789E-06  0.102E-03    1.63      12.7  T
   5    -90.2032340 -0.595342E-07  0.311E-04    1.63      41.9  T
   6    -90.2032340 -0.478209E-09  0.177E-04    1.63      73.6  T
     SCC iter.                  ...        0 min,  0.089 sec
     gradient                   ...        0 min,  0.036 sec
 * total energy  :   -88.9727294 Eh     change       -0.3280497E-04 Eh
   gradient norm :     0.0022960 Eh/α   predicted    -0.2598295E-04 ( -20.80%)
   displ. norm   :     0.2057117 α      lambda       -0.4097879E-04
   maximum displ.:     0.0868874 α      in ANC's #2, #9, #18, ...

........................................................................
.............................. CYCLE   30 ..............................
........................................................................

 iter      E             dE          RMSdq      gap      omega  full diag
   1    -90.2027635 -0.902028E+02  0.297E-02    1.64       0.0  T
   2    -90.2027643 -0.836263E-06  0.177E-02    1.63       1.0  T
   3    -90.2027637  0.614452E-06  0.448E-03    1.63       2.9  T
   4    -90.2027647 -0.981552E-06  0.130E-03    1.63      10.0  T
   5    -90.2027647 -0.209509E-07  0.745E-04    1.63      17.5  T
   6    -90.2027647 -0.851996E-08  0.227E-04    1.63      57.3  T
     SCC iter.                  ...        0 min,  0.081 sec
     gradient                   ...        0 min,  0.027 sec
 * total energy  :   -88.9727592 Eh     change       -0.2975596E-04 Eh
   gradient norm :     0.0021868 Eh/α   predicted    -0.2136209E-04 ( -28.21%)
   displ. norm   :     0.1774396 α      lambda       -0.3379539E-04
   maximum displ.:     0.0774857 α      in ANC's #2, #9, #18, ...

........................................................................
.............................. CYCLE   31 ..............................
........................................................................

 iter      E             dE          RMSdq      gap      omega  full diag
   1    -90.2032085 -0.902032E+02  0.264E-02    1.64       0.0  T
   2    -90.2032090 -0.569019E-06  0.157E-02    1.63       1.0  T
   3    -90.2032085  0.483341E-06  0.385E-03    1.63       3.4  T
   4    -90.2032093 -0.726179E-06  0.113E-03    1.63      11.5  T
   5    -90.2032093 -0.178319E-07  0.681E-04    1.63      19.1  T
   6    -90.2032093 -0.628786E-08  0.259E-04    1.63      50.2  T
     SCC iter.                  ...        0 min,  0.082 sec
     gradient                   ...        0 min,  0.034 sec
 * total energy  :   -88.9727836 Eh     change       -0.2440620E-04 Eh
   gradient norm :     0.0022539 Eh/α   predicted    -0.1743850E-04 ( -28.55%)
   displ. norm   :     0.1551261 α      lambda       -0.3311447E-04
   maximum displ.:     0.0672578 α      in ANC's #2, #18, #9, ...

........................................................................
.............................. CYCLE   32 ..............................
........................................................................

 iter      E             dE          RMSdq      gap      omega  full diag
   1    -90.2042534 -0.902043E+02  0.238E-02    1.64       0.0  T
   2    -90.2042537 -0.298823E-06  0.141E-02    1.63       1.0  T
   3    -90.2042534  0.233274E-06  0.267E-03    1.63       4.9  T
   4    -90.2042538 -0.348048E-06  0.909E-04    1.63      14.3  T
   5    -90.2042538 -0.131508E-07  0.492E-04    1.63      26.5  T
     SCC iter.                  ...        0 min,  0.079 sec
     gradient                   ...        0 min,  0.038 sec
 * total energy  :   -88.9728091 Eh     change       -0.2549442E-04 Eh
   gradient norm :     0.0020252 Eh/α   predicted    -0.1695956E-04 ( -33.48%)
   displ. norm   :     0.2895787 α      lambda       -0.4751132E-04
   maximum displ.:     0.1245249 α      in ANC's #2, #18, #9, ...

........................................................................
.............................. CYCLE   33 ..............................
........................................................................

 iter      E             dE          RMSdq      gap      omega  full diag
   1    -90.2034882 -0.902035E+02  0.449E-02    1.63       0.0  T
   2    -90.2034894 -0.117212E-05  0.266E-02    1.63       1.0  T
   3    -90.2034890  0.379541E-06  0.440E-03    1.63       3.0  T
   4    -90.2034898 -0.796504E-06  0.167E-03    1.63       7.8  T
   5    -90.2034898 -0.337037E-07  0.924E-04    1.63      14.1  T
   6    -90.2034898 -0.114754E-07  0.375E-04    1.63      34.7  T
     SCC iter.                  ...        0 min,  0.085 sec
     gradient                   ...        0 min,  0.034 sec
 * total energy  :   -88.9728305 Eh     change       -0.2147240E-04 Eh
   gradient norm :     0.0038968 Eh/α   predicted    -0.2574951E-04 (  19.92%)
   displ. norm   :     0.2082799 α      lambda       -0.9852820E-04
   maximum displ.:     0.0859008 α      in ANC's #4, #7, #11, ...

........................................................................
.............................. CYCLE   34 ..............................
........................................................................

 iter      E             dE          RMSdq      gap      omega  full diag
   1    -90.2063302 -0.902063E+02  0.320E-02    1.63       0.0  T
   2    -90.2063316 -0.140763E-05  0.188E-02    1.63       1.0  T
   3    -90.2063308  0.802302E-06  0.511E-03    1.63       2.5  T
   4    -90.2063318 -0.934224E-06  0.158E-03    1.63       8.2  T
   5    -90.2063319 -0.109775E-06  0.580E-04    1.63      22.4  T
   6    -90.2063319 -0.504068E-08  0.294E-04    1.63      44.2  T
     SCC iter.                  ...        0 min,  0.136 sec
     gradient                   ...        0 min,  0.034 sec
 * total energy  :   -88.9728773 Eh     change       -0.4672198E-04 Eh
   gradient norm :     0.0033883 Eh/α   predicted    -0.5140339E-04 (  10.02%)
   displ. norm   :     0.2162878 α      lambda       -0.4295440E-04
   maximum displ.:     0.0859085 α      in ANC's #2, #18, #4, ...

........................................................................
.............................. CYCLE   35 ..............................
........................................................................

 iter      E             dE          RMSdq      gap      omega  full diag
   1    -90.2046513 -0.902047E+02  0.333E-02    1.63       0.0  T
   2    -90.2046519 -0.548333E-06  0.196E-02    1.63       1.0  T
   3    -90.2046517  0.158504E-06  0.270E-03    1.63       4.8  T
   4    -90.2046519 -0.251751E-06  0.127E-03    1.63      10.3  T
   5    -90.2046520 -0.508964E-07  0.513E-04    1.63      25.4  T
   6    -90.2046520 -0.429850E-09  0.197E-04    1.63      66.2  T
     SCC iter.                  ...        0 min,  0.078 sec
     gradient                   ...        0 min,  0.034 sec
 * total energy  :   -88.9729063 Eh     change       -0.2901350E-04 Eh
   gradient norm :     0.0031408 Eh/α   predicted    -0.2248244E-04 ( -22.51%)
   displ. norm   :     0.1490482 α      lambda       -0.5631380E-04
   maximum displ.:     0.0677620 α      in ANC's #4, #18, #7, ...

........................................................................
.............................. CYCLE   36 ..............................
........................................................................

 iter      E             dE          RMSdq      gap      omega  full diag
   1    -90.2030741 -0.902031E+02  0.216E-02    1.63       0.0  T
   2    -90.2030745 -0.351619E-06  0.128E-02    1.63       1.0  T
   3    -90.2030737  0.768712E-06  0.424E-03    1.63       3.1  T
   4    -90.2030746 -0.885833E-06  0.885E-04    1.63      14.7  T
   5    -90.2030746 -0.260288E-07  0.377E-04    1.63      34.5  T
     SCC iter.                  ...        0 min,  0.065 sec
     gradient                   ...        0 min,  0.034 sec
 * total energy  :   -88.9729468 Eh     change       -0.4054084E-04 Eh
   gradient norm :     0.0026353 Eh/α   predicted    -0.2878978E-04 ( -28.99%)
   displ. norm   :     0.1484682 α      lambda       -0.4913822E-04
   maximum displ.:     0.0705505 α      in ANC's #8, #4, #7, ...

........................................................................
.............................. CYCLE   37 ..............................
........................................................................

 iter      E             dE          RMSdq      gap      omega  full diag
   1    -90.2029698 -0.902030E+02  0.204E-02    1.64       0.0  T
   2    -90.2029703 -0.505621E-06  0.119E-02    1.64       1.1  T
   3    -90.2029697  0.553115E-06  0.397E-03    1.64       3.3  T
   4    -90.2029705 -0.754377E-06  0.104E-03    1.64      12.6  T
   5    -90.2029705 -0.173381E-07  0.579E-04    1.64      22.5  T
   6    -90.2029705 -0.566737E-08  0.277E-04    1.64      47.1  T
     SCC iter.                  ...        0 min,  0.079 sec
     gradient                   ...        0 min,  0.034 sec
 * total energy  :   -88.9729781 Eh     change       -0.3131161E-04 Eh
   gradient norm :     0.0021720 Eh/α   predicted    -0.2511261E-04 ( -19.80%)
   displ. norm   :     0.2488546 α      lambda       -0.3714553E-04
   maximum displ.:     0.1113939 α      in ANC's #4, #18, #7, ...

........................................................................
.............................. CYCLE   38 ..............................
........................................................................

 iter      E             dE          RMSdq      gap      omega  full diag
   1    -90.2016778 -0.902017E+02  0.341E-02    1.64       0.0  T
   2    -90.2016783 -0.537551E-06  0.201E-02    1.64       1.0  T
   3    -90.2016778  0.502557E-06  0.349E-03    1.64       3.7  T
   4    -90.2016785 -0.626899E-06  0.104E-03    1.64      12.5  T
   5    -90.2016785 -0.306928E-07  0.473E-04    1.64      27.5  T
   6    -90.2016785 -0.118209E-08  0.255E-04    1.64      51.1  T
     SCC iter.                  ...        0 min,  0.078 sec
     gradient                   ...        0 min,  0.034 sec
 * total energy  :   -88.9729991 Eh     change       -0.2097024E-04 Eh
   gradient norm :     0.0035922 Eh/α   predicted    -0.1972711E-04 (  -5.93%)
   displ. norm   :     0.1243732 α      lambda       -0.3875004E-04
   maximum displ.:     0.0638886 α      in ANC's #8, #4, #7, ...

........................................................................
.............................. CYCLE   39 ..............................
........................................................................

 iter      E             dE          RMSdq      gap      omega  full diag
   1    -90.2028481 -0.902028E+02  0.150E-02    1.63       0.0  T
   2    -90.2028484 -0.311953E-06  0.875E-03    1.64       1.5  T
   3    -90.2028482  0.234925E-06  0.263E-03    1.64       5.0  T
   4    -90.2028485 -0.302440E-06  0.871E-04    1.64      14.9  T
   5    -90.2028485 -0.235202E-07  0.390E-04    1.64      33.3  T
     SCC iter.                  ...        0 min,  0.065 sec
     gradient                   ...        0 min,  0.038 sec
 * total energy  :   -88.9730273 Eh     change       -0.2823790E-04 Eh
   gradient norm :     0.0017718 Eh/α   predicted    -0.1967538E-04 ( -30.32%)
   displ. norm   :     0.3095448 α      lambda       -0.3792008E-04
   maximum displ.:     0.1454783 α      in ANC's #4, #8, #7, ...

........................................................................
.............................. CYCLE   40 ..............................
........................................................................

 iter      E             dE          RMSdq      gap      omega  full diag
   1    -90.2040474 -0.902040E+02  0.370E-02    1.64       0.0  T
   2    -90.2040479 -0.522587E-06  0.219E-02    1.64       1.0  T
   3    -90.2040469  0.949237E-06  0.471E-03    1.64       2.8  T
   4    -90.2040481 -0.121422E-05  0.123E-03    1.64      10.6  T
   5    -90.2040482 -0.214134E-07  0.689E-04    1.64      18.9  T
   6    -90.2040482 -0.673630E-08  0.247E-04    1.64      52.8  T
     SCC iter.                  ...        0 min,  0.091 sec
     gradient                   ...        0 min,  0.039 sec
 * total energy  :   -88.9730601 Eh     change       -0.3274833E-04 Eh
   gradient norm :     0.0023434 Eh/α   predicted    -0.1976814E-04 ( -39.64%)
   displ. norm   :     0.0606501 α      lambda       -0.1636176E-04
   maximum displ.:     0.0248310 α      in ANC's #8, #4, #9, ...

........................................................................
.............................. CYCLE   41 ..............................
........................................................................

 iter      E             dE          RMSdq      gap      omega  full diag
   1    -90.2044430 -0.902044E+02  0.799E-03    1.64       0.0  T
   2    -90.2044431 -0.100789E-06  0.469E-03    1.64       2.8  T
   3    -90.2044431  0.448201E-07  0.128E-03    1.64      10.2  T
   4    -90.2044431 -0.565235E-07  0.404E-04    1.64      32.2  T
   5    -90.2044431 -0.719555E-08  0.152E-04    1.64      85.4  T
     SCC iter.                  ...        0 min,  0.061 sec
     gradient                   ...        0 min,  0.029 sec
 * total energy  :   -88.9730726 Eh     change       -0.1250844E-04 Eh
   gradient norm :     0.0015106 Eh/α   predicted    -0.8212044E-05 ( -34.35%)
   displ. norm   :     0.3586317 α      lambda       -0.3125342E-04
   maximum displ.:     0.1490760 α      in ANC's #4, #2, #8, ...

........................................................................
.............................. CYCLE   42 ..............................
........................................................................

 iter      E             dE          RMSdq      gap      omega  full diag
   1    -90.2019249 -0.902019E+02  0.487E-02    1.63       0.0  T
   2    -90.2019259 -0.103995E-05  0.288E-02    1.64       1.0  T
   3    -90.2019246  0.132700E-05  0.530E-03    1.64       2.5  T
   4    -90.2019261 -0.154606E-05  0.141E-03    1.64       9.2  T
   5    -90.2019262 -0.777262E-07  0.588E-04    1.64      22.2  T
   6    -90.2019262 -0.314652E-08  0.319E-04    1.64      40.8  T
     SCC iter.                  ...        0 min,  0.074 sec
     gradient                   ...        0 min,  0.039 sec
 * total energy  :   -88.9730834 Eh     change       -0.1077514E-04 Eh
   gradient norm :     0.0034207 Eh/α   predicted    -0.1652317E-04 (  53.35%)
   displ. norm   :     0.0818960 α      lambda       -0.2535102E-04
   maximum displ.:     0.0362091 α      in ANC's #4, #7, #18, ...
 * RMSD in coord.:     0.3570864 α      energy gain  -0.6426574E-03 Eh

generating ANC from exact Hessian ...
Using Lindh-Hessian (1995)
 Shifting diagonal of input Hessian by    9.9444869594004556E-003
 Lowest  eigenvalues of input Hessian
    0.000000    0.000000    0.000000    0.000000    0.000000    0.000000
    0.010000    0.010068    0.010187    0.010379    0.010567    0.010780
    0.010974    0.011044    0.011164    0.011840    0.012324    0.013194
 Highest eigenvalues
    2.011939    2.160850    2.176282    2.244933    2.435318    2.646368


........................................................................
.............................. CYCLE   43 ..............................
........................................................................

 iter      E             dE          RMSdq      gap      omega  full diag
   1    -90.2036514 -0.902037E+02  0.116E-02    1.64       0.0  T
   2    -90.2036517 -0.288191E-06  0.672E-03    1.64       1.9  T
   3    -90.2036516  0.912752E-07  0.198E-03    1.64       6.6  T
   4    -90.2036517 -0.970501E-07  0.876E-04    1.64      14.9  T
   5    -90.2036517 -0.315387E-07  0.226E-04    1.64      57.6  T
     SCC iter.                  ...        0 min,  0.066 sec
     gradient                   ...        0 min,  0.047 sec
 * total energy  :   -88.9730974 Eh     change       -0.1401319E-04 Eh
   gradient norm :     0.0017858 Eh/α   predicted     0.0000000E+00 (-100.00%)
   displ. norm   :     0.0315985 α      lambda       -0.9760396E-05
   maximum displ.:     0.0149436 α      in ANC's #11, #10, #17, ...

........................................................................
.............................. CYCLE   44 ..............................
........................................................................

 iter      E             dE          RMSdq      gap      omega  full diag
   1    -90.2045613 -0.902046E+02  0.700E-03    1.64       0.0  T
   2    -90.2045614 -0.892290E-07  0.414E-03    1.64       3.1  T
   3    -90.2045613  0.117286E-06  0.181E-03    1.64       7.2  T
   4    -90.2045615 -0.135685E-06  0.472E-04    1.64      27.6  T
   5    -90.2045615 -0.882038E-08  0.133E-04    1.64      97.6  T
     SCC iter.                  ...        0 min,  0.149 sec
     gradient                   ...        0 min,  0.043 sec
 * total energy  :   -88.9731095 Eh     change       -0.1210367E-04 Eh
   gradient norm :     0.0006530 Eh/α   predicted    -0.5584787E-05 ( -53.86%)
   displ. norm   :     0.0650639 α      lambda       -0.1143299E-04
   maximum displ.:     0.0326431 α      in ANC's #11, #10, #14, ...

........................................................................
.............................. CYCLE   45 ..............................
........................................................................

 iter      E             dE          RMSdq      gap      omega  full diag
   1    -90.2046663 -0.902047E+02  0.118E-02    1.64       0.0  T
   2    -90.2046664 -0.124398E-06  0.692E-03    1.64       1.9  T
   3    -90.2046663  0.113190E-06  0.175E-03    1.64       7.4  T
   4    -90.2046664 -0.135522E-06  0.534E-04    1.64      24.4  T
   5    -90.2046664 -0.109082E-07  0.200E-04    1.64      65.2  T
     SCC iter.                  ...        0 min,  0.076 sec
     gradient                   ...        0 min,  0.035 sec
 * total energy  :   -88.9731193 Eh     change       -0.9779616E-05 Eh
   gradient norm :     0.0011606 Eh/α   predicted    -0.5728140E-05 ( -41.43%)
   displ. norm   :     0.0846658 α      lambda       -0.1114306E-04
   maximum displ.:     0.0426490 α      in ANC's #11, #10, #7, ...

........................................................................
.............................. CYCLE   46 ..............................
........................................................................

 iter      E             dE          RMSdq      gap      omega  full diag
   1    -90.2042500 -0.902043E+02  0.152E-02    1.64       0.0  T
   2    -90.2042501 -0.996111E-07  0.892E-03    1.64       1.5  T
   3    -90.2042500  0.122220E-06  0.171E-03    1.64       7.6  T
   4    -90.2042502 -0.151154E-06  0.525E-04    1.64      24.8  T
   5    -90.2042502 -0.807820E-08  0.224E-04    1.64      58.2  T
     SCC iter.                  ...        0 min,  0.099 sec
     gradient                   ...        0 min,  0.048 sec
 * total energy  :   -88.9731192 Eh     change        0.1155401E-07 Eh
   gradient norm :     0.0022774 Eh/α   predicted    -0.5590326E-05 (*******%)
   displ. norm   :     0.0119413 α      lambda       -0.1089084E-04
   maximum displ.:     0.0039834 α      in ANC's #7, #9, #13, ...

........................................................................
.............................. CYCLE   47 ..............................
........................................................................

 iter      E             dE          RMSdq      gap      omega  full diag
   1    -90.2042509 -0.902043E+02  0.317E-03    1.64       0.0  T
   2    -90.2042509 -0.827573E-08  0.186E-03    1.64       7.0  T
   3    -90.2042509  0.894113E-08  0.530E-04    1.64      24.6  T
   4    -90.2042509 -0.119110E-07  0.108E-04    1.64     121.0  T
     SCC iter.                  ...        0 min,  0.070 sec
     gradient                   ...        0 min,  0.045 sec
 * total energy  :   -88.9731277 Eh     change       -0.8461100E-05 Eh
   gradient norm :     0.0012472 Eh/α   predicted    -0.5448888E-05 ( -35.60%)
   displ. norm   :     0.0662950 α      lambda       -0.1256309E-04
   maximum displ.:     0.0261574 α      in ANC's #9, #7, #11, ...

........................................................................
.............................. CYCLE   48 ..............................
........................................................................

 iter      E             dE          RMSdq      gap      omega  full diag
   1    -90.2042008 -0.902042E+02  0.112E-02    1.64       0.0  T
   2    -90.2042009 -0.692588E-07  0.658E-03    1.64       2.0  T
   3    -90.2042008  0.985350E-07  0.172E-03    1.64       7.6  T
   4    -90.2042009 -0.128419E-06  0.308E-04    1.64      42.2  T
   5    -90.2042009 -0.116972E-08  0.168E-04    1.64      77.5  T
     SCC iter.                  ...        0 min,  0.076 sec
     gradient                   ...        0 min,  0.051 sec
 * total energy  :   -88.9731373 Eh     change       -0.9611930E-05 Eh
   gradient norm :     0.0012312 Eh/α   predicted    -0.6298344E-05 ( -34.47%)
   displ. norm   :     0.0677708 α      lambda       -0.5976572E-05
   maximum displ.:     0.0268855 α      in ANC's #9, #11, #7, ...

........................................................................
.............................. CYCLE   49 ..............................
........................................................................

 iter      E             dE          RMSdq      gap      omega  full diag
   1    -90.2041100 -0.902041E+02  0.105E-02    1.64       0.0  T
   2    -90.2041100 -0.242767E-07  0.619E-03    1.64       2.1  T
   3    -90.2041099  0.588943E-07  0.120E-03    1.64      10.8  T
   4    -90.2041100 -0.735944E-07  0.276E-04    1.64      47.2  T
   5    -90.2041100 -0.841311E-09  0.157E-04    1.64      83.1  T
     SCC iter.                  ...        0 min,  0.127 sec
     gradient                   ...        0 min,  0.034 sec
 * total energy  :   -88.9731456 Eh     change       -0.8295046E-05 Eh
   gradient norm :     0.0010968 Eh/α   predicted    -0.2996754E-05 ( -63.87%)
   displ. norm   :     0.3462157 α      lambda       -0.2898632E-04
   maximum displ.:     0.1364148 α      in ANC's #9, #7, #11, ...

........................................................................
.............................. CYCLE   50 ..............................
........................................................................

 iter      E             dE          RMSdq      gap      omega  full diag
   1    -90.2032676 -0.902033E+02  0.536E-02    1.64       0.0  T
   2    -90.2032682 -0.631762E-06  0.317E-02    1.64       1.0  T
   3    -90.2032671  0.108984E-05  0.532E-03    1.64       2.4  T
   4    -90.2032686 -0.143287E-05  0.138E-03    1.64       9.5  T
   5    -90.2032686 -0.192230E-07  0.733E-04    1.64      17.8  T
   6    -90.2032686 -0.725150E-08  0.266E-04    1.64      48.9  T
     SCC iter.                  ...        0 min,  0.086 sec
     gradient                   ...        0 min,  0.053 sec
 * total energy  :   -88.9731715 Eh     change       -0.2585783E-04 Eh
   gradient norm :     0.0017571 Eh/α   predicted    -0.1526659E-04 ( -40.96%)
   displ. norm   :     0.1251224 α      lambda       -0.9502461E-05
   maximum displ.:     0.0508501 α      in ANC's #9, #8, #7, ...

........................................................................
.............................. CYCLE   51 ..............................
........................................................................

 iter      E             dE          RMSdq      gap      omega  full diag
   1    -90.2037590 -0.902038E+02  0.188E-02    1.64       0.0  T
   2    -90.2037591 -0.817577E-07  0.111E-02    1.64       1.2  T
   3    -90.2037584  0.645633E-06  0.376E-03    1.64       3.5  T
   4    -90.2037592 -0.732433E-06  0.457E-04    1.64      28.5  T
   5    -90.2037592 -0.157095E-08  0.234E-04    1.64      55.6  T
     SCC iter.                  ...        0 min,  0.082 sec
     gradient                   ...        0 min,  0.059 sec
 * total energy  :   -88.9731820 Eh     change       -0.1049658E-04 Eh
   gradient norm :     0.0013045 Eh/α   predicted    -0.4785114E-05 ( -54.41%)
   displ. norm   :     0.2043622 α      lambda       -0.1314278E-04
   maximum displ.:     0.0829989 α      in ANC's #9, #8, #1, ...

........................................................................
.............................. CYCLE   52 ..............................
........................................................................

 iter      E             dE          RMSdq      gap      omega  full diag
   1    -90.2042841 -0.902043E+02  0.311E-02    1.64       0.0  T
   2    -90.2042843 -0.176442E-06  0.184E-02    1.64       1.0  T
   3    -90.2042835  0.838154E-06  0.429E-03    1.64       3.0  T
   4    -90.2042844 -0.977525E-06  0.691E-04    1.64      18.8  T
   5    -90.2042844 -0.336433E-08  0.340E-04    1.64      38.3  T
     SCC iter.                  ...        0 min,  0.127 sec
     gradient                   ...        0 min,  0.049 sec
 * total energy  :   -88.9731973 Eh     change       -0.1529086E-04 Eh
   gradient norm :     0.0007283 Eh/α   predicted    -0.6695186E-05 ( -56.21%)
   displ. norm   :     0.2636242 α      lambda       -0.1508048E-04
   maximum displ.:     0.1085360 α      in ANC's #8, #9, #1, ...

........................................................................
.............................. CYCLE   53 ..............................
........................................................................

 iter      E             dE          RMSdq      gap      omega  full diag
   1    -90.2042344 -0.902042E+02  0.391E-02    1.64       0.0  T
   2    -90.2042346 -0.249261E-06  0.232E-02    1.64       1.0  T
   3    -90.2042336  0.105148E-05  0.482E-03    1.64       2.7  T
   4    -90.2042348 -0.123320E-05  0.793E-04    1.64      16.4  T
   5    -90.2042348 -0.355763E-08  0.396E-04    1.64      32.8  T
   6    -90.2042348 -0.109678E-08  0.150E-04    1.64      86.7  T
     SCC iter.                  ...        0 min,  0.199 sec
     gradient                   ...        0 min,  0.068 sec
 * total energy  :   -88.9732138 Eh     change       -0.1653311E-04 Eh
   gradient norm :     0.0010390 Eh/α   predicted    -0.7773705E-05 ( -52.98%)
   displ. norm   :     0.2448912 α      lambda       -0.2021706E-04
   maximum displ.:     0.1156986 α      in ANC's #8, #9, #1, ...

........................................................................
.............................. CYCLE   54 ..............................
........................................................................

 iter      E             dE          RMSdq      gap      omega  full diag
   1    -90.2056407 -0.902056E+02  0.349E-02    1.65       0.0  T
   2    -90.2056410 -0.307016E-06  0.207E-02    1.65       1.0  T
   3    -90.2056393  0.176854E-05  0.612E-03    1.65       2.1  T
   4    -90.2056412 -0.198206E-05  0.853E-04    1.65      15.3  T
   5    -90.2056413 -0.155035E-07  0.406E-04    1.65      32.1  T
   6    -90.2056413 -0.128638E-08  0.189E-04    1.65      69.0  T
     SCC iter.                  ...        0 min,  0.144 sec
     gradient                   ...        0 min,  0.058 sec
 * total energy  :   -88.9732293 Eh     change       -0.1546850E-04 Eh
   gradient norm :     0.0018175 Eh/α   predicted    -0.1038163E-04 ( -32.89%)
   displ. norm   :     0.4436199 α      lambda       -0.2212616E-04
   maximum displ.:     0.1940935 α      in ANC's #8, #9, #1, ...

........................................................................
.............................. CYCLE   55 ..............................
........................................................................

 iter      E             dE          RMSdq      gap      omega  full diag
   1    -90.2022621 -0.902023E+02  0.677E-02    1.64       0.0  T
   2    -90.2022637 -0.164393E-05  0.399E-02    1.65       1.0  T
   3    -90.2022611  0.257192E-05  0.782E-03    1.65       1.7  T
   4    -90.2022641 -0.297075E-05  0.207E-03    1.65       6.3  T
   5    -90.2022642 -0.134678E-06  0.773E-04    1.65      16.9  T
   6    -90.2022642  0.961549E-09  0.391E-04    1.65      33.3  T
     SCC iter.                  ...        0 min,  0.094 sec
     gradient                   ...        0 min,  0.041 sec
 * total energy  :   -88.9732196 Eh     change        0.9694986E-05 Eh
   gradient norm :     0.0045418 Eh/α   predicted    -0.1203183E-04 (-224.10%)
   displ. norm   :     0.1649933 α      lambda       -0.4768798E-04
   maximum displ.:     0.0665985 α      in ANC's #9, #8, #1, ...

........................................................................
.............................. CYCLE   56 ..............................
........................................................................

 iter      E             dE          RMSdq      gap      omega  full diag
   1    -90.2040144 -0.902040E+02  0.260E-02    1.65       0.0  T
   2    -90.2040148 -0.418427E-06  0.153E-02    1.65       1.0  T
   3    -90.2040145  0.343544E-06  0.308E-03    1.65       4.2  T
   4    -90.2040149 -0.395400E-06  0.109E-03    1.65      12.0  T
   5    -90.2040149 -0.425690E-07  0.341E-04    1.65      38.2  T
   6    -90.2040149  0.260215E-09  0.155E-04    1.65      83.8  T
     SCC iter.                  ...        0 min,  0.099 sec
     gradient                   ...        0 min,  0.035 sec
 * total energy  :   -88.9732475 Eh     change       -0.2791760E-04 Eh
   gradient norm :     0.0016018 Eh/α   predicted    -0.2449615E-04 ( -12.26%)
   displ. norm   :     0.0628289 α      lambda       -0.1270043E-04
   maximum displ.:     0.0350558 α      in ANC's #7, #6, #4, ...

........................................................................
.............................. CYCLE   57 ..............................
........................................................................

 iter      E             dE          RMSdq      gap      omega  full diag
   1    -90.2047442 -0.902047E+02  0.814E-03    1.65       0.0  T
   2    -90.2047444 -0.104443E-06  0.469E-03    1.65       2.8  T
   3    -90.2047443  0.698439E-07  0.156E-03    1.65       8.3  T
   4    -90.2047444 -0.872911E-07  0.513E-04    1.65      25.4  T
   5    -90.2047444 -0.887717E-08  0.185E-04    1.65      70.2  T
     SCC iter.                  ...        0 min,  0.078 sec
     gradient                   ...        0 min,  0.036 sec
 * total energy  :   -88.9732614 Eh     change       -0.1390163E-04 Eh
   gradient norm :     0.0006530 Eh/α   predicted    -0.6363135E-05 ( -54.23%)
   displ. norm   :     0.1830490 α      lambda       -0.1552025E-04
   maximum displ.:     0.0812434 α      in ANC's #8, #4, #6, ...

........................................................................
.............................. CYCLE   58 ..............................
........................................................................

 iter      E             dE          RMSdq      gap      omega  full diag
   1    -90.2047217 -0.902047E+02  0.253E-02    1.65       0.0  T
   2    -90.2047218 -0.128863E-06  0.149E-02    1.65       1.0  T
   3    -90.2047216  0.267877E-06  0.244E-03    1.65       5.3  T
   4    -90.2047219 -0.327651E-06  0.578E-04    1.65      22.5  T
   5    -90.2047219 -0.591153E-08  0.298E-04    1.65      43.7  T
     SCC iter.                  ...        0 min,  0.087 sec
     gradient                   ...        0 min,  0.042 sec
 * total energy  :   -88.9732809 Eh     change       -0.1955229E-04 Eh
   gradient norm :     0.0008412 Eh/α   predicted    -0.7877743E-05 ( -59.71%)
   displ. norm   :     0.4745988 α      lambda       -0.2924345E-04
   maximum displ.:     0.2113072 α      in ANC's #8, #4, #1, ...

........................................................................
.............................. CYCLE   59 ..............................
........................................................................

 iter      E             dE          RMSdq      gap      omega  full diag
   1    -90.2025364 -0.902025E+02  0.668E-02    1.64       0.0  T
   2    -90.2025375 -0.108919E-05  0.394E-02    1.65       1.0  T
   3    -90.2025364  0.113396E-05  0.528E-03    1.65       2.5  T
   4    -90.2025378 -0.141023E-05  0.169E-03    1.65       7.7  T
   5    -90.2025378 -0.790547E-07  0.690E-04    1.65      18.9  T
   6    -90.2025378 -0.197473E-08  0.339E-04    1.65      38.4  T
     SCC iter.                  ...        0 min,  0.077 sec
     gradient                   ...        0 min,  0.030 sec
 * total energy  :   -88.9733002 Eh     change       -0.1924606E-04 Eh
   gradient norm :     0.0030398 Eh/α   predicted    -0.1609336E-04 ( -16.38%)
   displ. norm   :     0.0548747 α      lambda       -0.1626970E-04
   maximum displ.:     0.0247008 α      in ANC's #8, #9, #10, ...

........................................................................
.............................. CYCLE   60 ..............................
........................................................................

 iter      E             dE          RMSdq      gap      omega  full diag
   1    -90.2035694 -0.902036E+02  0.910E-03    1.65       0.0  T
   2    -90.2035695 -0.108548E-06  0.530E-03    1.65       2.5  T
   3    -90.2035695  0.330620E-07  0.116E-03    1.65      11.2  T
   4    -90.2035695 -0.387712E-07  0.503E-04    1.65      25.9  T
   5    -90.2035696 -0.104929E-07  0.168E-04    1.65      77.5  T
     SCC iter.                  ...        0 min,  0.063 sec
     gradient                   ...        0 min,  0.032 sec
 * total energy  :   -88.9733112 Eh     change       -0.1099814E-04 Eh
   gradient norm :     0.0015009 Eh/α   predicted    -0.8161275E-05 ( -25.79%)
   displ. norm   :     0.1332408 α      lambda       -0.1122662E-04
   maximum displ.:     0.0694982 α      in ANC's #4, #7, #6, ...

........................................................................
.............................. CYCLE   61 ..............................
........................................................................

 iter      E             dE          RMSdq      gap      omega  full diag
   1    -90.2044907 -0.902045E+02  0.168E-02    1.65       0.0  T
   2    -90.2044908 -0.129947E-06  0.986E-03    1.65       1.3  T
   3    -90.2044908  0.222477E-07  0.128E-03    1.65      10.2  T
   4    -90.2044908 -0.596250E-07  0.541E-04    1.65      24.1  T
   5    -90.2044908 -0.561143E-08  0.291E-04    1.65      44.8  T
     SCC iter.                  ...        0 min,  0.070 sec
     gradient                   ...        0 min,  0.031 sec
 * total energy  :   -88.9733214 Eh     change       -0.1018043E-04 Eh
   gradient norm :     0.0007444 Eh/α   predicted    -0.5664776E-05 ( -44.36%)
   displ. norm   :     0.1426920 α      lambda       -0.5820986E-05
   maximum displ.:     0.0706499 α      in ANC's #4, #1, #2, ...

........................................................................
.............................. CYCLE   62 ..............................
........................................................................

 iter      E             dE          RMSdq      gap      omega  full diag
   1    -90.2042743 -0.902043E+02  0.191E-02    1.65       0.0  T
   2    -90.2042744 -0.801774E-07  0.113E-02    1.65       1.2  T
   3    -90.2042744  0.167075E-07  0.101E-03    1.65      12.8  T
   4    -90.2042744 -0.436606E-07  0.387E-04    1.65      33.6  T
   5    -90.2042744 -0.169041E-08  0.197E-04    1.65      66.2  T
     SCC iter.                  ...        0 min,  0.063 sec
     gradient                   ...        0 min,  0.033 sec
 * total energy  :   -88.9733279 Eh     change       -0.6493206E-05 Eh
   gradient norm :     0.0004265 Eh/α   predicted    -0.2939587E-05 ( -54.73%)
   displ. norm   :     0.1386392 α      lambda       -0.4673327E-05
   maximum displ.:     0.0715393 α      in ANC's #4, #1, #2, ...

........................................................................
.............................. CYCLE   63 ..............................
........................................................................

 iter      E             dE          RMSdq      gap      omega  full diag
   1    -90.2039999 -0.902040E+02  0.189E-02    1.65       0.0  T
   2    -90.2040000 -0.895197E-07  0.111E-02    1.65       1.2  T
   3    -90.2039999  0.272877E-07  0.108E-03    1.65      12.0  T
   4    -90.2040000 -0.540462E-07  0.400E-04    1.65      32.6  T
   5    -90.2040000 -0.243585E-08  0.196E-04    1.65      66.4  T
     SCC iter.                  ...        0 min,  0.063 sec
     gradient                   ...        0 min,  0.031 sec
 * total energy  :   -88.9733326 Eh     change       -0.4766949E-05 Eh
   gradient norm :     0.0010132 Eh/α   predicted    -0.2358840E-05 ( -50.52%)
   displ. norm   :     0.0918709 α      lambda       -0.4306058E-05
   maximum displ.:     0.0489450 α      in ANC's #4, #2, #1, ...

........................................................................
.............................. CYCLE   64 ..............................
........................................................................

 iter      E             dE          RMSdq      gap      omega  full diag
   1    -90.2040705 -0.902041E+02  0.131E-02    1.65       0.0  T
   2    -90.2040706 -0.471514E-07  0.769E-03    1.65       1.7  T
   3    -90.2040705  0.653306E-07  0.128E-03    1.65      10.1  T
   4    -90.2040706 -0.853147E-07  0.317E-04    1.65      41.1  T
   5    -90.2040706 -0.115557E-08  0.171E-04    1.65      76.0  T
     SCC iter.                  ...        0 min,  0.063 sec
     gradient                   ...        0 min,  0.033 sec
 * total energy  :   -88.9733377 Eh     change       -0.5107867E-05 Eh
   gradient norm :     0.0011626 Eh/α   predicted    -0.2163860E-05 ( -57.64%)
   displ. norm   :     0.2034036 α      lambda       -0.9611901E-05
   maximum displ.:     0.1065356 α      in ANC's #4, #2, #1, ...

........................................................................
.............................. CYCLE   65 ..............................
........................................................................

 iter      E             dE          RMSdq      gap      omega  full diag
   1    -90.2039371 -0.902039E+02  0.290E-02    1.65       0.0  T
   2    -90.2039373 -0.184526E-06  0.170E-02    1.65       1.0  T
   3    -90.2039372  0.107796E-06  0.187E-03    1.65       7.0  T
   4    -90.2039374 -0.180217E-06  0.629E-04    1.65      20.7  T
   5    -90.2039374 -0.318859E-08  0.329E-04    1.65      39.6  T
     SCC iter.                  ...        0 min,  0.063 sec
     gradient                   ...        0 min,  0.034 sec
 * total energy  :   -88.9733480 Eh     change       -0.1022952E-04 Eh
   gradient norm :     0.0014954 Eh/α   predicted    -0.4900675E-05 ( -52.09%)
   displ. norm   :     0.2157241 α      lambda       -0.1012858E-04
   maximum displ.:     0.1148850 α      in ANC's #2, #4, #1, ...

........................................................................
.............................. CYCLE   66 ..............................
........................................................................

 iter      E             dE          RMSdq      gap      omega  full diag
   1    -90.2035419 -0.902035E+02  0.306E-02    1.65       0.0  T
   2    -90.2035422 -0.218538E-06  0.180E-02    1.65       1.0  T
   3    -90.2035421  0.654590E-07  0.165E-03    1.65       7.9  T
   4    -90.2035422 -0.131187E-06  0.675E-04    1.65      19.3  T
   5    -90.2035422 -0.916999E-08  0.355E-04    1.65      36.7  T
     SCC iter.                  ...        0 min,  0.074 sec
     gradient                   ...        0 min,  0.039 sec
 * total energy  :   -88.9733584 Eh     change       -0.1040716E-04 Eh
   gradient norm :     0.0014270 Eh/α   predicted    -0.5173165E-05 ( -50.29%)
   displ. norm   :     0.2210668 α      lambda       -0.1217381E-04
   maximum displ.:     0.1250317 α      in ANC's #2, #4, #1, ...
 * RMSD in coord.:     0.3968574 α      energy gain  -0.2750057E-03 Eh

generating ANC from exact Hessian ...
Using Lindh-Hessian (1995)
 Shifting diagonal of input Hessian by    9.9491670953670182E-003
 Lowest  eigenvalues of input Hessian
    0.000000    0.000000    0.000000    0.000000    0.000000    0.000000
    0.010000    0.010087    0.010187    0.010380    0.010573    0.010785
    0.010980    0.011064    0.011179    0.011870    0.012310    0.013187
 Highest eigenvalues
    2.011685    2.159457    2.175147    2.244053    2.434319    2.646703


........................................................................
.............................. CYCLE   67 ..............................
........................................................................

 iter      E             dE          RMSdq      gap      omega  full diag
   1    -90.2043104 -0.902043E+02  0.314E-02    1.65       0.0  T
   2    -90.2043107 -0.261822E-06  0.185E-02    1.65       1.0  T
   3    -90.2043105  0.134717E-06  0.197E-03    1.65       6.6  T
   4    -90.2043107 -0.212894E-06  0.697E-04    1.65      18.7  T
   5    -90.2043107 -0.101929E-07  0.357E-04    1.65      36.5  T
     SCC iter.                  ...        0 min,  0.083 sec
     gradient                   ...        0 min,  0.042 sec
 * total energy  :   -88.9733704 Eh     change       -0.1201461E-04 Eh
   gradient norm :     0.0007811 Eh/α   predicted     0.0000000E+00 (-100.00%)
   displ. norm   :     0.0231918 α      lambda       -0.6762830E-06
   maximum displ.:     0.0128766 α      in ANC's #13, #10, #2, ...

........................................................................
.............................. CYCLE   68 ..............................
........................................................................

 iter      E             dE          RMSdq      gap      omega  full diag
   1    -90.2044684 -0.902045E+02  0.504E-03    1.65       0.0  T
   2    -90.2044684 -0.363524E-07  0.296E-03    1.65       4.4  T
   3    -90.2044683  0.461995E-07  0.105E-03    1.65      12.4  T
   4    -90.2044684 -0.571486E-07  0.246E-04    1.65      53.0  T
   5    -90.2044684 -0.169021E-08  0.107E-04    1.65     121.9  T
     SCC iter.                  ...        0 min,  0.081 sec
     gradient                   ...        0 min,  0.039 sec
 * total energy  :   -88.9733760 Eh     change       -0.5593343E-05 Eh
   gradient norm :     0.0004284 Eh/α   predicted    -0.2355529E-05 ( -57.89%)
   displ. norm   :     0.0770056 α      lambda       -0.1056331E-04
   maximum displ.:     0.0423236 α      in ANC's #13, #2, #10, ...

........................................................................
.............................. CYCLE   69 ..............................
........................................................................

 iter      E             dE          RMSdq      gap      omega  full diag
   1    -90.2046318 -0.902046E+02  0.147E-02    1.65       0.0  T
   2    -90.2046320 -0.212140E-06  0.865E-03    1.65       1.5  T
   3    -90.2046317  0.367811E-06  0.284E-03    1.65       4.6  T
   4    -90.2046321 -0.455903E-06  0.557E-04    1.65      23.4  T
   5    -90.2046321 -0.495032E-08  0.310E-04    1.65      42.0  T
     SCC iter.                  ...        0 min,  0.108 sec
     gradient                   ...        0 min,  0.048 sec
 * total energy  :   -88.9733852 Eh     change       -0.9256012E-05 Eh
   gradient norm :     0.0010434 Eh/α   predicted    -0.5303244E-05 ( -42.70%)
   displ. norm   :     0.0592634 α      lambda       -0.5840381E-05
   maximum displ.:     0.0301536 α      in ANC's #13, #2, #10, ...

........................................................................
.............................. CYCLE   70 ..............................
........................................................................

 iter      E             dE          RMSdq      gap      omega  full diag
   1    -90.2045718 -0.902046E+02  0.112E-02    1.65       0.0  T
   2    -90.2045719 -0.105816E-06  0.656E-03    1.65       2.0  T
   3    -90.2045717  0.158215E-06  0.197E-03    1.65       6.6  T
   4    -90.2045719 -0.203375E-06  0.392E-04    1.65      33.2  T
   5    -90.2045719 -0.180768E-08  0.224E-04    1.65      58.1  T
     SCC iter.                  ...        0 min,  0.074 sec
     gradient                   ...        0 min,  0.037 sec
 * total energy  :   -88.9733842 Eh     change        0.1075698E-05 Eh
   gradient norm :     0.0015274 Eh/α   predicted    -0.2927597E-05 (-372.16%)
   displ. norm   :     0.0108195 α      lambda       -0.6303300E-05
   maximum displ.:     0.0044442 α      in ANC's #13, #66, #2, ...

........................................................................
.............................. CYCLE   71 ..............................
........................................................................

 iter      E             dE          RMSdq      gap      omega  full diag
   1    -90.2045515 -0.902046E+02  0.413E-03    1.65       0.0  T
   2    -90.2045515 -0.105088E-07  0.242E-03    1.65       5.4  T
   3    -90.2045515  0.152975E-07  0.627E-04    1.65      20.8  T
   4    -90.2045515 -0.196754E-07  0.172E-04    1.65      75.7  T
     SCC iter.                  ...        0 min,  0.059 sec
     gradient                   ...        0 min,  0.041 sec
 * total energy  :   -88.9733891 Eh     change       -0.4917306E-05 Eh
   gradient norm :     0.0003162 Eh/α   predicted    -0.3153504E-05 ( -35.87%)
   displ. norm   :     0.0121812 α      lambda       -0.1097766E-05
   maximum displ.:     0.0057143 α      in ANC's #2, #13, #8, ...

........................................................................
.............................. CYCLE   72 ..............................
........................................................................

 iter      E             dE          RMSdq      gap      omega  full diag
   1    -90.2045485 -0.902045E+02  0.263E-03    1.65       0.0  T
   2    -90.2045485 -0.400371E-08  0.155E-03    1.65       8.4  T
   3    -90.2045485  0.240841E-07  0.776E-04    1.65      16.8  T
   4    -90.2045485 -0.280383E-07  0.749E-05    1.65     173.8  T
     SCC iter.                  ...        0 min,  0.056 sec
     gradient                   ...        0 min,  0.033 sec
 * total energy  :   -88.9733902 Eh     change       -0.1149880E-05 Eh
   gradient norm :     0.0002284 Eh/α   predicted    -0.5515660E-06 ( -52.03%)
   displ. norm   :     0.0287717 α      lambda       -0.1496970E-05
   maximum displ.:     0.0169968 α      in ANC's #2, #8, #1, ...

........................................................................
.............................. CYCLE   73 ..............................
........................................................................

 iter      E             dE          RMSdq      gap      omega  full diag
   1    -90.2045235 -0.902045E+02  0.402E-03    1.65       0.0  T
   2    -90.2045235 -0.574222E-08  0.238E-03    1.65       5.5  T
   3    -90.2045235  0.264384E-07  0.777E-04    1.65      16.8  T
   4    -90.2045235 -0.309469E-07  0.125E-04    1.65     104.3  T
     SCC iter.                  ...        0 min,  0.058 sec
     gradient                   ...        0 min,  0.031 sec
 * total energy  :   -88.9733921 Eh     change       -0.1924569E-05 Eh
   gradient norm :     0.0003109 Eh/α   predicted    -0.7491555E-06 ( -61.07%)
   displ. norm   :     0.0681153 α      lambda       -0.2926131E-05
   maximum displ.:     0.0405393 α      in ANC's #2, #8, #1, ...

........................................................................
.............................. CYCLE   74 ..............................
........................................................................

 iter      E             dE          RMSdq      gap      omega  full diag
   1    -90.2044792 -0.902045E+02  0.871E-03    1.65       0.0  T
   2    -90.2044792 -0.231933E-07  0.516E-03    1.65       2.5  T
   3    -90.2044791  0.713797E-07  0.132E-03    1.65       9.8  T
   4    -90.2044792 -0.885579E-07  0.271E-04    1.65      48.0  T
   5    -90.2044792 -0.224802E-09  0.146E-04    1.65      88.9  T
     SCC iter.                  ...        0 min,  0.063 sec
     gradient                   ...        0 min,  0.032 sec
 * total energy  :   -88.9733957 Eh     change       -0.3562784E-05 Eh
   gradient norm :     0.0003719 Eh/α   predicted    -0.1467064E-05 ( -58.82%)
   displ. norm   :     0.0981782 α      lambda       -0.3309349E-05
   maximum displ.:     0.0589678 α      in ANC's #2, #1, #8, ...

........................................................................
.............................. CYCLE   75 ..............................
........................................................................

 iter      E             dE          RMSdq      gap      omega  full diag
   1    -90.2044402 -0.902044E+02  0.125E-02    1.65       0.0  T
   2    -90.2044402 -0.546257E-07  0.739E-03    1.65       1.8  T
   3    -90.2044401  0.108269E-06  0.167E-03    1.65       7.8  T
   4    -90.2044403 -0.141303E-06  0.401E-04    1.65      32.5  T
   5    -90.2044403 -0.714564E-09  0.219E-04    1.65      59.5  T
     SCC iter.                  ...        0 min,  0.063 sec
     gradient                   ...        0 min,  0.031 sec
 * total energy  :   -88.9733996 Eh     change       -0.3867541E-05 Eh
   gradient norm :     0.0003866 Eh/α   predicted    -0.1662961E-05 ( -57.00%)
   displ. norm   :     0.0972189 α      lambda       -0.2789289E-05
   maximum displ.:     0.0591362 α      in ANC's #2, #1, #8, ...

........................................................................
.............................. CYCLE   76 ..............................
........................................................................

 iter      E             dE          RMSdq      gap      omega  full diag
   1    -90.2044908 -0.902045E+02  0.120E-02    1.65       0.0  T
   2    -90.2044908 -0.564197E-07  0.710E-03    1.65       1.8  T
   3    -90.2044907  0.721135E-07  0.143E-03    1.65       9.1  T
   4    -90.2044908 -0.102116E-06  0.396E-04    1.65      32.8  T
   5    -90.2044908 -0.681510E-09  0.216E-04    1.65      60.4  T
     SCC iter.                  ...        0 min,  0.074 sec
     gradient                   ...        0 min,  0.038 sec
 * total energy  :   -88.9734029 Eh     change       -0.3335076E-05 Eh
   gradient norm :     0.0003108 Eh/α   predicted    -0.1403221E-05 ( -57.93%)
   displ. norm   :     0.0873192 α      lambda       -0.2533601E-05
   maximum displ.:     0.0540802 α      in ANC's #2, #1, #8, ...

........................................................................
.............................. CYCLE   77 ..............................
........................................................................

 iter      E             dE          RMSdq      gap      omega  full diag
   1    -90.2045985 -0.902046E+02  0.107E-02    1.65       0.0  T
   2    -90.2045985 -0.495595E-07  0.630E-03    1.65       2.1  T
   3    -90.2045985  0.662667E-07  0.131E-03    1.65       9.9  T
   4    -90.2045985 -0.900747E-07  0.362E-04    1.65      36.0  T
   5    -90.2045985 -0.104924E-08  0.211E-04    1.65      61.8  T
     SCC iter.                  ...        0 min,  0.086 sec
     gradient                   ...        0 min,  0.040 sec
 * total energy  :   -88.9734061 Eh     change       -0.3179661E-05 Eh
   gradient norm :     0.0001846 Eh/α   predicted    -0.1273631E-05 ( -59.94%)
   displ. norm   :     0.0908947 α      lambda       -0.2657061E-05
   maximum displ.:     0.0570381 α      in ANC's #2, #1, #8, ...

........................................................................
.............................. CYCLE   78 ..............................
........................................................................

 iter      E             dE          RMSdq      gap      omega  full diag
   1    -90.2046754 -0.902047E+02  0.106E-02    1.65       0.0  T
   2    -90.2046754 -0.461083E-07  0.625E-03    1.65       2.1  T
   3    -90.2046754  0.523456E-07  0.119E-03    1.65      10.9  T
   4    -90.2046754 -0.732517E-07  0.349E-04    1.65      37.3  T
   5    -90.2046754 -0.104494E-08  0.205E-04    1.65      63.5  T
     SCC iter.                  ...        0 min,  0.071 sec
     gradient                   ...        0 min,  0.032 sec
 * total energy  :   -88.9734095 Eh     change       -0.3389915E-05 Eh
   gradient norm :     0.0001984 Eh/α   predicted    -0.1338102E-05 ( -60.53%)
   displ. norm   :     0.0919337 α      lambda       -0.2642599E-05
   maximum displ.:     0.0583735 α      in ANC's #2, #1, #8, ...

........................................................................
.............................. CYCLE   79 ..............................
........................................................................

 iter      E             dE          RMSdq      gap      omega  full diag
   1    -90.2047310 -0.902047E+02  0.102E-02    1.65       0.0  T
   2    -90.2047311 -0.348060E-07  0.604E-03    1.65       2.2  T
   3    -90.2047310  0.558305E-07  0.119E-03    1.65      10.9  T
   4    -90.2047311 -0.724063E-07  0.311E-04    1.65      41.9  T
   5    -90.2047311 -0.106355E-08  0.173E-04    1.65      75.3  T
     SCC iter.                  ...        0 min,  0.064 sec
     gradient                   ...        0 min,  0.033 sec
 * total energy  :   -88.9734128 Eh     change       -0.3323512E-05 Eh
   gradient norm :     0.0002582 Eh/α   predicted    -0.1329827E-05 ( -59.99%)
   displ. norm   :     0.0824891 α      lambda       -0.2381713E-05
   maximum displ.:     0.0528751 α      in ANC's #2, #1, #7, ...

........................................................................
.............................. CYCLE   80 ..............................
........................................................................

 iter      E             dE          RMSdq      gap      omega  full diag
   1    -90.2047379 -0.902047E+02  0.866E-03    1.65       0.0  T
   2    -90.2047379 -0.198445E-07  0.511E-03    1.65       2.5  T
   3    -90.2047379  0.550087E-07  0.113E-03    1.65      11.5  T
   4    -90.2047379 -0.661292E-07  0.232E-04    1.65      56.1  T
   5    -90.2047379 -0.590475E-09  0.123E-04    1.65     106.0  T
     SCC iter.                  ...        0 min,  0.063 sec
     gradient                   ...        0 min,  0.032 sec
 * total energy  :   -88.9734159 Eh     change       -0.3093141E-05 Eh
   gradient norm :     0.0002657 Eh/α   predicted    -0.1198385E-05 ( -61.26%)
   displ. norm   :     0.0877141 α      lambda       -0.2773086E-05
   maximum displ.:     0.0561708 α      in ANC's #2, #1, #7, ...

........................................................................
.............................. CYCLE   81 ..............................
........................................................................

 iter      E             dE          RMSdq      gap      omega  full diag
   1    -90.2047374 -0.902047E+02  0.868E-03    1.65       0.0  T
   2    -90.2047374 -0.177052E-07  0.513E-03    1.65       2.5  T
   3    -90.2047374  0.413742E-07  0.965E-04    1.65      13.5  T
   4    -90.2047374 -0.495640E-07  0.214E-04    1.65      61.0  T
     SCC iter.                  ...        0 min,  0.051 sec
     gradient                   ...        0 min,  0.033 sec
 * total energy  :   -88.9734196 Eh     change       -0.3665626E-05 Eh
   gradient norm :     0.0002335 Eh/α   predicted    -0.1394332E-05 ( -61.96%)
   displ. norm   :     0.1130243 α      lambda       -0.3734446E-05
   maximum displ.:     0.0721704 α      in ANC's #2, #1, #7, ...

........................................................................
.............................. CYCLE   82 ..............................
........................................................................

 iter      E             dE          RMSdq      gap      omega  full diag
   1    -90.2046521 -0.902047E+02  0.106E-02    1.65       0.0  T
   2    -90.2046522 -0.259408E-07  0.629E-03    1.65       2.1  T
   3    -90.2046521  0.105058E-06  0.151E-03    1.65       8.6  T
   4    -90.2046522 -0.120821E-06  0.255E-04    1.65      51.1  T
   5    -90.2046522 -0.104821E-08  0.136E-04    1.65      95.5  T
     SCC iter.                  ...        0 min,  0.063 sec
     gradient                   ...        0 min,  0.035 sec
 * total energy  :   -88.9734246 Eh     change       -0.4994275E-05 Eh
   gradient norm :     0.0002195 Eh/α   predicted    -0.1879283E-05 ( -62.37%)
   displ. norm   :     0.1447680 α      lambda       -0.4814331E-05
   maximum displ.:     0.0929679 α      in ANC's #2, #1, #7, ...

........................................................................
.............................. CYCLE   83 ..............................
........................................................................

 iter      E             dE          RMSdq      gap      omega  full diag
   1    -90.2045414 -0.902045E+02  0.129E-02    1.65       0.0  T
   2    -90.2045415 -0.414284E-07  0.764E-03    1.65       1.7  T
   3    -90.2045414  0.985266E-07  0.144E-03    1.65       9.0  T
   4    -90.2045415 -0.118600E-06  0.309E-04    1.65      42.2  T
   5    -90.2045415 -0.139433E-08  0.177E-04    1.65      73.5  T
     SCC iter.                  ...        0 min,  0.127 sec
     gradient                   ...        0 min,  0.042 sec
 * total energy  :   -88.9734310 Eh     change       -0.6446753E-05 Eh
   gradient norm :     0.0002724 Eh/α   predicted    -0.2431307E-05 ( -62.29%)
   displ. norm   :     0.1709180 α      lambda       -0.5729957E-05
   maximum displ.:     0.1104905 α      in ANC's #2, #1, #7, ...

........................................................................
.............................. CYCLE   84 ..............................
........................................................................

 iter      E             dE          RMSdq      gap      omega  full diag
   1    -90.2044522 -0.902045E+02  0.145E-02    1.65       0.0  T
   2    -90.2044523 -0.589288E-07  0.860E-03    1.65       1.5  T
   3    -90.2044522  0.125680E-06  0.160E-03    1.65       8.1  T
   4    -90.2044523 -0.154612E-06  0.346E-04    1.65      37.6  T
   5    -90.2044523 -0.144915E-08  0.209E-04    1.65      62.2  T
     SCC iter.                  ...        0 min,  0.076 sec
     gradient                   ...        0 min,  0.043 sec
 * total energy  :   -88.9734387 Eh     change       -0.7691145E-05 Eh
   gradient norm :     0.0003419 Eh/α   predicted    -0.2907184E-05 ( -62.20%)
   displ. norm   :     0.1943350 α      lambda       -0.6618159E-05
   maximum displ.:     0.1265509 α      in ANC's #2, #1, #7, ...

........................................................................
.............................. CYCLE   85 ..............................
........................................................................

 iter      E             dE          RMSdq      gap      omega  full diag
   1    -90.2043727 -0.902044E+02  0.160E-02    1.65       0.0  T
   2    -90.2043727 -0.760835E-07  0.946E-03    1.65       1.4  T
   3    -90.2043726  0.132984E-06  0.162E-03    1.65       8.0  T
   4    -90.2043728 -0.168773E-06  0.360E-04    1.65      36.1  T
   5    -90.2043728 -0.132701E-08  0.209E-04    1.65      62.4  T
     SCC iter.                  ...        0 min,  0.071 sec
     gradient                   ...        0 min,  0.037 sec
 * total energy  :   -88.9734476 Eh     change       -0.8896050E-05 Eh
   gradient norm :     0.0003879 Eh/α   predicted    -0.3366954E-05 ( -62.15%)
   displ. norm   :     0.2181484 α      lambda       -0.7531469E-05
   maximum displ.:     0.1429851 α      in ANC's #2, #1, #7, ...

........................................................................
.............................. CYCLE   86 ..............................
........................................................................

 iter      E             dE          RMSdq      gap      omega  full diag
   1    -90.2043429 -0.902043E+02  0.176E-02    1.65       0.0  T
   2    -90.2043430 -0.943238E-07  0.104E-02    1.65       1.2  T
   3    -90.2043429  0.149331E-06  0.171E-03    1.65       7.6  T
   4    -90.2043431 -0.193165E-06  0.400E-04    1.65      32.5  T
   5    -90.2043431 -0.196039E-08  0.213E-04    1.65      61.2  T
     SCC iter.                  ...        0 min,  0.158 sec
     gradient                   ...        0 min,  0.061 sec
 * total energy  :   -88.9734577 Eh     change       -0.1010796E-04 Eh
   gradient norm :     0.0003857 Eh/α   predicted    -0.3847624E-05 ( -61.93%)
   displ. norm   :     0.2442355 α      lambda       -0.8372643E-05
   maximum displ.:     0.1613616 α      in ANC's #2, #1, #9, ...

........................................................................
.............................. CYCLE   87 ..............................
........................................................................

 iter      E             dE          RMSdq      gap      omega  full diag
   1    -90.2043142 -0.902043E+02  0.198E-02    1.65       0.0  T
   2    -90.2043143 -0.115497E-06  0.117E-02    1.65       1.1  T
   3    -90.2043142  0.152223E-06  0.176E-03    1.65       7.4  T
   4    -90.2043144 -0.202578E-06  0.456E-04    1.65      28.5  T
   5    -90.2043144 -0.310145E-08  0.235E-04    1.65      55.4  T
     SCC iter.                  ...        0 min,  0.086 sec
     gradient                   ...        0 min,  0.049 sec
 * total energy  :   -88.9734689 Eh     change       -0.1116343E-04 Eh
   gradient norm :     0.0004308 Eh/α   predicted    -0.4300289E-05 ( -61.48%)
   displ. norm   :     0.2663089 α      lambda       -0.8983076E-05
   maximum displ.:     0.1773119 α      in ANC's #2, #1, #9, ...

........................................................................
.............................. CYCLE   88 ..............................
........................................................................

 iter      E             dE          RMSdq      gap      omega  full diag
   1    -90.2043323 -0.902043E+02  0.219E-02    1.65       0.0  T
   2    -90.2043324 -0.129157E-06  0.129E-02    1.66       1.0  T
   3    -90.2043323  0.145640E-06  0.177E-03    1.66       7.4  T
   4    -90.2043325 -0.201298E-06  0.502E-04    1.66      25.9  T
   5    -90.2043325 -0.379453E-08  0.251E-04    1.66      51.8  T
     SCC iter.                  ...        0 min,  0.072 sec
     gradient                   ...        0 min,  0.036 sec
 * total energy  :   -88.9734808 Eh     change       -0.1192607E-04 Eh
   gradient norm :     0.0004568 Eh/α   predicted    -0.4637980E-05 ( -61.11%)
   displ. norm   :     0.2924702 α      lambda       -0.9745392E-05
   maximum displ.:     0.1964991 α      in ANC's #2, #1, #9, ...

........................................................................
.............................. CYCLE   89 ..............................
........................................................................

 iter      E             dE          RMSdq      gap      omega  full diag
   1    -90.2043218 -0.902043E+02  0.246E-02    1.66       0.0  T
   2    -90.2043220 -0.152112E-06  0.145E-02    1.66       1.0  T
   3    -90.2043218  0.135038E-06  0.179E-03    1.66       7.3  T
   4    -90.2043220 -0.198094E-06  0.552E-04    1.66      23.6  T
   5    -90.2043220 -0.452847E-08  0.266E-04    1.66      48.9  T
     SCC iter.                  ...        0 min,  0.085 sec
     gradient                   ...        0 min,  0.051 sec
 * total energy  :   -88.9734936 Eh     change       -0.1284566E-04 Eh
   gradient norm :     0.0005814 Eh/α   predicted    -0.5060344E-05 ( -60.61%)
   displ. norm   :     0.3430053 α      lambda       -0.1150485E-04
   maximum displ.:     0.2319623 α      in ANC's #2, #1, #9, ...

........................................................................
.............................. CYCLE   90 ..............................
........................................................................

 iter      E             dE          RMSdq      gap      omega  full diag
   1    -90.2043835 -0.902044E+02  0.293E-02    1.66       0.0  T
   2    -90.2043837 -0.195957E-06  0.173E-02    1.66       1.0  T
   3    -90.2043835  0.142295E-06  0.197E-03    1.66       6.6  T
   4    -90.2043838 -0.223565E-06  0.641E-04    1.66      20.3  T
   5    -90.2043838 -0.518203E-08  0.315E-04    1.66      41.3  T
     SCC iter.                  ...        0 min,  0.243 sec
     gradient                   ...        0 min,  0.041 sec
 * total energy  :   -88.9735086 Eh     change       -0.1495696E-04 Eh
   gradient norm :     0.0006030 Eh/α   predicted    -0.6056633E-05 ( -59.51%)
   displ. norm   :     0.4268827 α      lambda       -0.1387673E-04
   maximum displ.:     0.2899650 α      in ANC's #2, #1, #9, ...

........................................................................
.............................. CYCLE   91 ..............................
........................................................................

 iter      E             dE          RMSdq      gap      omega  full diag
   1    -90.2040451 -0.902040E+02  0.371E-02    1.66       0.0  T
   2    -90.2040454 -0.320791E-06  0.219E-02    1.66       1.0  T
   3    -90.2040452  0.173954E-06  0.235E-03    1.66       5.5  T
   4    -90.2040455 -0.295203E-06  0.808E-04    1.66      16.1  T
   5    -90.2040455 -0.902236E-08  0.400E-04    1.66      32.6  T
     SCC iter.                  ...        0 min,  0.076 sec
     gradient                   ...        0 min,  0.042 sec
 * total energy  :   -88.9735257 Eh     change       -0.1712416E-04 Eh
   gradient norm :     0.0011292 Eh/α   predicted    -0.7501522E-05 ( -56.19%)
   displ. norm   :     0.5379821 α      lambda       -0.1956168E-04
   maximum displ.:     0.3661709 α      in ANC's #2, #1, #9, ...

........................................................................
.............................. CYCLE   92 ..............................
........................................................................

 iter      E             dE          RMSdq      gap      omega  full diag
   1    -90.2045197 -0.902045E+02  0.471E-02    1.66       0.0  T
   2    -90.2045202 -0.523442E-06  0.277E-02    1.66       1.0  T
   3    -90.2045200  0.244244E-06  0.297E-03    1.66       4.4  T
   4    -90.2045204 -0.436641E-06  0.103E-03    1.66      12.6  T
   5    -90.2045204 -0.145056E-07  0.530E-04    1.66      24.6  T
   6    -90.2045204 -0.347778E-08  0.217E-04    1.66      60.1  T
     SCC iter.                  ...        0 min,  0.074 sec
     gradient                   ...        0 min,  0.028 sec
 * total energy  :   -88.9735463 Eh     change       -0.2058913E-04 Eh
   gradient norm :     0.0008941 Eh/α   predicted    -0.1104196E-04 ( -46.37%)
   displ. norm   :     0.5566494 α      lambda       -0.1668489E-04
   maximum displ.:     0.3781872 α      in ANC's #2, #1, #9, ...
 * RMSD in coord.:     0.5208120 α      energy gain  -0.1879389E-03 Eh

generating ANC from exact Hessian ...
Using Lindh-Hessian (1995)
 Shifting diagonal of input Hessian by    9.9542495731471618E-003
 Lowest  eigenvalues of input Hessian
    0.000000    0.000000    0.000000    0.000000    0.000000    0.000000
    0.010000    0.010140    0.010197    0.010386    0.010610    0.010787
    0.010982    0.011056    0.011185    0.011852    0.012242    0.013233
 Highest eigenvalues
    2.012073    2.159986    2.175359    2.244358    2.437825    2.646685


........................................................................
.............................. CYCLE   93 ..............................
........................................................................

 iter      E             dE          RMSdq      gap      omega  full diag
   1    -90.2029482 -0.902029E+02  0.496E-02    1.66       0.0  T
   2    -90.2029491 -0.832632E-06  0.292E-02    1.67       1.0  T
   3    -90.2029487  0.334609E-06  0.346E-03    1.67       3.8  T
   4    -90.2029492 -0.527982E-06  0.127E-03    1.67      10.2  T
   5    -90.2029493 -0.428626E-07  0.658E-04    1.67      19.8  T
   6    -90.2029493 -0.307615E-08  0.315E-04    1.67      41.3  T
     SCC iter.                  ...        0 min,  0.235 sec
     gradient                   ...        0 min,  0.048 sec
 * total energy  :   -88.9735558 Eh     change       -0.9510502E-05 Eh
   gradient norm :     0.0027165 Eh/α   predicted     0.0000000E+00 (-100.00%)
   displ. norm   :     0.0191939 α      lambda       -0.2075887E-04
   maximum displ.:     0.0072300 α      in ANC's #20, #14, #11, ...

........................................................................
.............................. CYCLE   94 ..............................
........................................................................

 iter      E             dE          RMSdq      gap      omega  full diag
   1    -90.2045467 -0.902045E+02  0.596E-03    1.67       0.0  T
   2    -90.2045468 -0.166182E-06  0.330E-03    1.67       3.9  T
   3    -90.2045468  0.699767E-08  0.121E-03    1.67      10.8  T
   4    -90.2045468 -0.102613E-07  0.555E-04    1.67      23.5  T
   5    -90.2045468 -0.117764E-07  0.157E-04    1.67      82.9  T
     SCC iter.                  ...        0 min,  0.078 sec
     gradient                   ...        0 min,  0.036 sec
 * total energy  :   -88.9735698 Eh     change       -0.1394942E-04 Eh
   gradient norm :     0.0006849 Eh/α   predicted    -0.1050120E-04 ( -24.72%)
   displ. norm   :     0.0415097 α      lambda       -0.8125879E-05
   maximum displ.:     0.0173124 α      in ANC's #20, #5, #11, ...

........................................................................
.............................. CYCLE   95 ..............................
........................................................................

 iter      E             dE          RMSdq      gap      omega  full diag
   1    -90.2057190 -0.902057E+02  0.673E-03    1.67       0.0  T
   2    -90.2057191 -0.972707E-07  0.391E-03    1.67       3.3  T
   3    -90.2057190  0.412796E-07  0.130E-03    1.67      10.0  T
   4    -90.2057191 -0.500483E-07  0.468E-04    1.67      27.8  T
   5    -90.2057191 -0.780319E-08  0.149E-04    1.67      87.6  T
     SCC iter.                  ...        0 min,  0.066 sec
     gradient                   ...        0 min,  0.049 sec
 * total energy  :   -88.9735770 Eh     change       -0.7241850E-05 Eh
   gradient norm :     0.0011462 Eh/α   predicted    -0.4066666E-05 ( -43.84%)
   displ. norm   :     0.0557506 α      lambda       -0.7335319E-05
   maximum displ.:     0.0235083 α      in ANC's #20, #5, #11, ...

........................................................................
.............................. CYCLE   96 ..............................
........................................................................

 iter      E             dE          RMSdq      gap      omega  full diag
   1    -90.2057860 -0.902058E+02  0.810E-03    1.67       0.0  T
   2    -90.2057861 -0.310784E-07  0.482E-03    1.67       2.7  T
   3    -90.2057860  0.633012E-07  0.120E-03    1.67      10.9  T
   4    -90.2057861 -0.755046E-07  0.231E-04    1.67      56.4  T
   5    -90.2057861 -0.112806E-08  0.129E-04    1.67     100.9  T
     SCC iter.                  ...        0 min,  0.103 sec
     gradient                   ...        0 min,  0.043 sec
 * total energy  :   -88.9735833 Eh     change       -0.6253076E-05 Eh
   gradient norm :     0.0015867 Eh/α   predicted    -0.3676363E-05 ( -41.21%)
   displ. norm   :     0.1169191 α      lambda       -0.1431717E-04
   maximum displ.:     0.0487190 α      in ANC's #20, #5, #11, ...

........................................................................
.............................. CYCLE   97 ..............................
........................................................................

 iter      E             dE          RMSdq      gap      omega  full diag
   1    -90.2048270 -0.902048E+02  0.163E-02    1.67       0.0  T
   2    -90.2048272 -0.182216E-06  0.970E-03    1.67       1.3  T
   3    -90.2048270  0.239841E-06  0.236E-03    1.67       5.5  T
   4    -90.2048273 -0.286459E-06  0.578E-04    1.67      22.5  T
   5    -90.2048273 -0.964938E-08  0.295E-04    1.67      44.2  T
     SCC iter.                  ...        0 min,  0.154 sec
     gradient                   ...        0 min,  0.043 sec
 * total energy  :   -88.9735906 Eh     change       -0.7384796E-05 Eh
   gradient norm :     0.0010880 Eh/α   predicted    -0.7206164E-05 (  -2.42%)
   displ. norm   :     0.0196905 α      lambda       -0.3755691E-05
   maximum displ.:     0.0117627 α      in ANC's #14, #20, #16, ...

........................................................................
.............................. CYCLE   98 ..............................
........................................................................

 iter      E             dE          RMSdq      gap      omega  full diag
   1    -90.2048863 -0.902049E+02  0.410E-03    1.67       0.0  T
   2    -90.2048863 -0.260895E-07  0.238E-03    1.67       5.5  T
   3    -90.2048863  0.564494E-08  0.535E-04    1.67      24.3  T
   4    -90.2048863 -0.811772E-08  0.194E-04    1.67      67.2  T
     SCC iter.                  ...        0 min,  0.062 sec
     gradient                   ...        0 min,  0.048 sec
 * total energy  :   -88.9735943 Eh     change       -0.3673951E-05 Eh
   gradient norm :     0.0002737 Eh/α   predicted    -0.1885272E-05 ( -48.69%)
   displ. norm   :     0.0262124 α      lambda       -0.2031400E-05
   maximum displ.:     0.0121857 α      in ANC's #5, #14, #18, ...

........................................................................
.............................. CYCLE   99 ..............................
........................................................................

 iter      E             dE          RMSdq      gap      omega  full diag
   1    -90.2048263 -0.902048E+02  0.434E-03    1.67       0.0  T
   2    -90.2048263 -0.918148E-08  0.254E-03    1.67       5.1  T
   3    -90.2048263  0.261386E-07  0.789E-04    1.67      16.5  T
   4    -90.2048263 -0.306997E-07  0.129E-04    1.67     101.1  T
     SCC iter.                  ...        0 min,  0.076 sec
     gradient                   ...        0 min,  0.035 sec
 * total energy  :   -88.9735967 Eh     change       -0.2429749E-05 Eh
   gradient norm :     0.0004128 Eh/α   predicted    -0.1052927E-05 ( -56.67%)
   displ. norm   :     0.0557463 α      lambda       -0.2863046E-05
   maximum displ.:     0.0276087 α      in ANC's #5, #18, #1, ...

........................................................................
.............................. CYCLE  100 ..............................
........................................................................

 iter      E             dE          RMSdq      gap      omega  full diag
   1    -90.2048068 -0.902048E+02  0.854E-03    1.67       0.0  T
   2    -90.2048068 -0.206283E-07  0.502E-03    1.67       2.6  T
   3    -90.2048068  0.436490E-07  0.994E-04    1.67      13.1  T
   4    -90.2048068 -0.531525E-07  0.206E-04    1.67      63.2  T
     SCC iter.                  ...        0 min,  0.072 sec
     gradient                   ...        0 min,  0.041 sec
 * total energy  :   -88.9735999 Eh     change       -0.3105081E-05 Eh
   gradient norm :     0.0006000 Eh/α   predicted    -0.1440917E-05 ( -53.59%)
   displ. norm   :     0.0618331 α      lambda       -0.2238675E-05
   maximum displ.:     0.0315437 α      in ANC's #5, #1, #18, ...

........................................................................
.............................. CYCLE  101 ..............................
........................................................................

 iter      E             dE          RMSdq      gap      omega  full diag
   1    -90.2048409 -0.902048E+02  0.915E-03    1.67       0.0  T
   2    -90.2048409 -0.171551E-07  0.540E-03    1.67       2.4  T
   3    -90.2048409  0.317549E-07  0.864E-04    1.67      15.1  T
   4    -90.2048410 -0.404294E-07  0.198E-04    1.67      65.8  T
     SCC iter.                  ...        0 min,  0.070 sec
     gradient                   ...        0 min,  0.045 sec
 * total energy  :   -88.9736023 Eh     change       -0.2493183E-05 Eh
   gradient norm :     0.0004685 Eh/α   predicted    -0.1126821E-05 ( -54.80%)
   displ. norm   :     0.0695832 α      lambda       -0.2241476E-05
   maximum displ.:     0.0354245 α      in ANC's #5, #1, #18, ...

........................................................................
.............................. CYCLE  102 ..............................
........................................................................

 iter      E             dE          RMSdq      gap      omega  full diag
   1    -90.2048897 -0.902049E+02  0.104E-02    1.67       0.0  T
   2    -90.2048897 -0.206317E-07  0.616E-03    1.67       2.1  T
   3    -90.2048897  0.281813E-07  0.853E-04    1.67      15.3  T
   4    -90.2048897 -0.376724E-07  0.231E-04    1.67      56.4  T
     SCC iter.                  ...        0 min,  0.058 sec
     gradient                   ...        0 min,  0.034 sec
 * total energy  :   -88.9736049 Eh     change       -0.2525555E-05 Eh
   gradient norm :     0.0002705 Eh/α   predicted    -0.1124343E-05 ( -55.48%)
   displ. norm   :     0.0871146 α      lambda       -0.2655455E-05
   maximum displ.:     0.0431193 α      in ANC's #5, #1, #18, ...

........................................................................
.............................. CYCLE  103 ..............................
........................................................................

 iter      E             dE          RMSdq      gap      omega  full diag
   1    -90.2049729 -0.902050E+02  0.131E-02    1.67       0.0  T
   2    -90.2049730 -0.361643E-07  0.777E-03    1.67       1.7  T
   3    -90.2049729  0.555040E-07  0.120E-03    1.67      10.8  T
   4    -90.2049730 -0.729279E-07  0.301E-04    1.67      43.2  T
   5    -90.2049730 -0.755946E-09  0.179E-04    1.67      72.6  T
     SCC iter.                  ...        0 min,  0.102 sec
     gradient                   ...        0 min,  0.036 sec
 * total energy  :   -88.9736078 Eh     change       -0.2921253E-05 Eh
   gradient norm :     0.0003292 Eh/α   predicted    -0.1333617E-05 ( -54.35%)
   displ. norm   :     0.0821485 α      lambda       -0.2437286E-05
   maximum displ.:     0.0415886 α      in ANC's #1, #5, #18, ...

........................................................................
.............................. CYCLE  104 ..............................
........................................................................

 iter      E             dE          RMSdq      gap      omega  full diag
   1    -90.2050247 -0.902050E+02  0.124E-02    1.67       0.0  T
   2    -90.2050247 -0.365879E-07  0.733E-03    1.67       1.8  T
   3    -90.2050247  0.639589E-07  0.128E-03    1.67      10.1  T
   4    -90.2050248 -0.825352E-07  0.314E-04    1.67      41.5  T
   5    -90.2050248 -0.974325E-09  0.191E-04    1.67      68.1  T
     SCC iter.                  ...        0 min,  0.316 sec
     gradient                   ...        0 min,  0.044 sec
 * total energy  :   -88.9736105 Eh     change       -0.2666774E-05 Eh
   gradient norm :     0.0003527 Eh/α   predicted    -0.1229278E-05 ( -53.90%)
   displ. norm   :     0.0602283 α      lambda       -0.1795350E-05
   maximum displ.:     0.0327933 α      in ANC's #1, #18, #5, ...

........................................................................
.............................. CYCLE  105 ..............................
........................................................................

 iter      E             dE          RMSdq      gap      omega  full diag
   1    -90.2050585 -0.902051E+02  0.894E-03    1.67       0.0  T
   2    -90.2050586 -0.241633E-07  0.530E-03    1.67       2.5  T
   3    -90.2050585  0.662618E-07  0.128E-03    1.67      10.1  T
   4    -90.2050586 -0.810984E-07  0.262E-04    1.67      49.8  T
   5    -90.2050586 -0.879211E-09  0.154E-04    1.67      84.5  T
     SCC iter.                  ...        0 min,  0.094 sec
     gradient                   ...        0 min,  0.035 sec
 * total energy  :   -88.9736124 Eh     change       -0.1921980E-05 Eh
   gradient norm :     0.0002527 Eh/α   predicted    -0.8999376E-06 ( -53.18%)
   displ. norm   :     0.0440336 α      lambda       -0.1223803E-05
   maximum displ.:     0.0250378 α      in ANC's #1, #11, #18, ...

........................................................................
.............................. CYCLE  106 ..............................
........................................................................

 iter      E             dE          RMSdq      gap      omega  full diag
   1    -90.2050600 -0.902051E+02  0.589E-03    1.67       0.0  T
   2    -90.2050600 -0.136902E-07  0.350E-03    1.67       3.7  T
   3    -90.2050600  0.237193E-07  0.810E-04    1.67      16.1  T
   4    -90.2050600 -0.312507E-07  0.198E-04    1.67      65.7  T
     SCC iter.                  ...        0 min,  0.177 sec
     gradient                   ...        0 min,  0.038 sec
 * total energy  :   -88.9736138 Eh     change       -0.1370599E-05 Eh
   gradient norm :     0.0001468 Eh/α   predicted    -0.6143358E-06 ( -55.18%)
   displ. norm   :     0.0404076 α      lambda       -0.1196646E-05
   maximum displ.:     0.0229049 α      in ANC's #1, #7, #11, ...

........................................................................
.............................. CYCLE  107 ..............................
........................................................................

 iter      E             dE          RMSdq      gap      omega  full diag
   1    -90.2050022 -0.902050E+02  0.493E-03    1.67       0.0  T
   2    -90.2050022 -0.117072E-07  0.293E-03    1.67       4.4  T
   3    -90.2050022  0.149032E-07  0.671E-04    1.67      19.4  T
   4    -90.2050022 -0.214222E-07  0.193E-04    1.67      67.4  T
     SCC iter.                  ...        0 min,  0.055 sec
     gradient                   ...        0 min,  0.034 sec
 * total energy  :   -88.9736152 Eh     change       -0.1441881E-05 Eh
   gradient norm :     0.0002005 Eh/α   predicted    -0.6032542E-06 ( -58.16%)
   displ. norm   :     0.0481037 α      lambda       -0.1444289E-05
   maximum displ.:     0.0276819 α      in ANC's #1, #7, #2, ...

........................................................................
.............................. CYCLE  108 ..............................
........................................................................

 iter      E             dE          RMSdq      gap      omega  full diag
   1    -90.2049406 -0.902049E+02  0.544E-03    1.67       0.0  T
   2    -90.2049406 -0.164779E-07  0.322E-03    1.67       4.0  T
   3    -90.2049406  0.814958E-08  0.598E-04    1.67      21.8  T
   4    -90.2049407 -0.161473E-07  0.223E-04    1.67      58.4  T
     SCC iter.                  ...        0 min,  0.053 sec
     gradient                   ...        0 min,  0.032 sec
 * total energy  :   -88.9736170 Eh     change       -0.1793182E-05 Eh
   gradient norm :     0.0003116 Eh/α   predicted    -0.7273483E-06 ( -59.44%)
   displ. norm   :     0.0619220 α      lambda       -0.1772568E-05
   maximum displ.:     0.0361544 α      in ANC's #1, #7, #2, ...

........................................................................
.............................. CYCLE  109 ..............................
........................................................................

 iter      E             dE          RMSdq      gap      omega  full diag
   1    -90.2048980 -0.902049E+02  0.707E-03    1.67       0.0  T
   2    -90.2048981 -0.229082E-07  0.418E-03    1.67       3.1  T
   3    -90.2048980  0.396116E-07  0.107E-03    1.67      12.2  T
   4    -90.2048981 -0.550079E-07  0.276E-04    1.67      47.2  T
   5    -90.2048981 -0.336385E-09  0.151E-04    1.67      86.1  T
     SCC iter.                  ...        0 min,  0.077 sec
     gradient                   ...        0 min,  0.041 sec
 * total energy  :   -88.9736191 Eh     change       -0.2117898E-05 Eh
   gradient norm :     0.0003228 Eh/α   predicted    -0.8912820E-06 ( -57.92%)
   displ. norm   :     0.0670935 α      lambda       -0.1741659E-05
   maximum displ.:     0.0403913 α      in ANC's #1, #7, #2, ...

........................................................................
.............................. CYCLE  110 ..............................
........................................................................

 iter      E             dE          RMSdq      gap      omega  full diag
   1    -90.2049101 -0.902049E+02  0.773E-03    1.67       0.0  T
   2    -90.2049101 -0.253223E-07  0.456E-03    1.67       2.9  T
   3    -90.2049101  0.581799E-07  0.124E-03    1.67      10.5  T
   4    -90.2049101 -0.759090E-07  0.287E-04    1.67      45.4  T
   5    -90.2049101 -0.371358E-09  0.156E-04    1.67      83.7  T
     SCC iter.                  ...        0 min,  0.072 sec
     gradient                   ...        0 min,  0.033 sec
 * total energy  :   -88.9736211 Eh     change       -0.2017627E-05 Eh
   gradient norm :     0.0002738 Eh/α   predicted    -0.8769223E-06 ( -56.54%)
   displ. norm   :     0.0715523 α      lambda       -0.1726092E-05
   maximum displ.:     0.0445665 α      in ANC's #1, #7, #2, ...

........................................................................
.............................. CYCLE  111 ..............................
........................................................................

 iter      E             dE          RMSdq      gap      omega  full diag
   1    -90.2049122 -0.902049E+02  0.863E-03    1.67       0.0  T
   2    -90.2049123 -0.297535E-07  0.509E-03    1.67       2.6  T
   3    -90.2049122  0.690438E-07  0.136E-03    1.67       9.6  T
   4    -90.2049123 -0.889274E-07  0.294E-04    1.67      44.2  T
   5    -90.2049123 -0.305150E-09  0.161E-04    1.67      80.9  T
     SCC iter.                  ...        0 min,  0.068 sec
     gradient                   ...        0 min,  0.031 sec
 * total energy  :   -88.9736232 Eh     change       -0.2026541E-05 Eh
   gradient norm :     0.0002399 Eh/α   predicted    -0.8667824E-06 ( -57.23%)
   displ. norm   :     0.0794774 α      lambda       -0.1836144E-05
   maximum displ.:     0.0505047 α      in ANC's #1, #7, #2, ...

........................................................................
.............................. CYCLE  112 ..............................
........................................................................

 iter      E             dE          RMSdq      gap      omega  full diag
   1    -90.2049787 -0.902050E+02  0.958E-03    1.67       0.0  T
   2    -90.2049788 -0.357241E-07  0.564E-03    1.67       2.3  T
   3    -90.2049787  0.666478E-07  0.132E-03    1.67       9.9  T
   4    -90.2049788 -0.874726E-07  0.310E-04    1.67      42.0  T
   5    -90.2049788 -0.397051E-09  0.174E-04    1.67      74.8  T
     SCC iter.                  ...        0 min,  0.062 sec
     gradient                   ...        0 min,  0.023 sec
 * total energy  :   -88.9736254 Eh     change       -0.2237678E-05 Eh
   gradient norm :     0.0002158 Eh/α   predicted    -0.9248412E-06 ( -58.67%)
   displ. norm   :     0.0903667 α      lambda       -0.1995629E-05
   maximum displ.:     0.0576813 α      in ANC's #1, #2, #18, ...

........................................................................
.............................. CYCLE  113 ..............................
........................................................................

 iter      E             dE          RMSdq      gap      omega  full diag
   1    -90.2049703 -0.902050E+02  0.109E-02    1.67       0.0  T
   2    -90.2049703 -0.433753E-07  0.646E-03    1.67       2.0  T
   3    -90.2049702  0.698097E-07  0.132E-03    1.67       9.9  T
   4    -90.2049703 -0.926951E-07  0.327E-04    1.67      39.9  T
   5    -90.2049703 -0.507995E-09  0.191E-04    1.67      68.2  T
     SCC iter.                  ...        0 min,  0.055 sec
     gradient                   ...        0 min,  0.023 sec
 * total energy  :   -88.9736278 Eh     change       -0.2403254E-05 Eh
   gradient norm :     0.0002449 Eh/α   predicted    -0.1002344E-05 ( -58.29%)
   displ. norm   :     0.0950184 α      lambda       -0.1933369E-05
   maximum displ.:     0.0612068 α      in ANC's #1, #2, #18, ...

........................................................................
.............................. CYCLE  114 ..............................
........................................................................

 iter      E             dE          RMSdq      gap      omega  full diag
   1    -90.2050018 -0.902050E+02  0.106E-02    1.67       0.0  T
   2    -90.2050019 -0.399437E-07  0.625E-03    1.67       2.1  T
   3    -90.2050018  0.400192E-07  0.103E-03    1.67      12.6  T
   4    -90.2050019 -0.583660E-07  0.292E-04    1.67      44.6  T
   5    -90.2050019 -0.220211E-09  0.175E-04    1.67      74.2  T
     SCC iter.                  ...        0 min,  0.055 sec
     gradient                   ...        0 min,  0.023 sec
 * total energy  :   -88.9736301 Eh     change       -0.2287270E-05 Eh
   gradient norm :     0.0002107 Eh/α   predicted    -0.9752277E-06 ( -57.36%)
   displ. norm   :     0.0878008 α      lambda       -0.1539359E-05
   maximum displ.:     0.0562747 α      in ANC's #1, #2, #18, ...

........................................................................
.............................. CYCLE  115 ..............................
........................................................................

 iter      E             dE          RMSdq      gap      omega  full diag
   1    -90.2049598 -0.902050E+02  0.911E-03    1.67       0.0  T
   2    -90.2049598 -0.266373E-07  0.539E-03    1.67       2.4  T
   3    -90.2049598  0.275575E-07  0.857E-04    1.67      15.2  T
   4    -90.2049598 -0.400494E-07  0.239E-04    1.67      54.6  T
     SCC iter.                  ...        0 min,  0.044 sec
     gradient                   ...        0 min,  0.023 sec
 * total energy  :   -88.9736320 Eh     change       -0.1912909E-05 Eh
   gradient norm :     0.0001962 Eh/α   predicted    -0.7767928E-06 ( -59.39%)
   displ. norm   :     0.0790355 α      lambda       -0.1564375E-05
   maximum displ.:     0.0511085 α      in ANC's #1, #2, #6, ...

........................................................................
.............................. CYCLE  116 ..............................
........................................................................

 iter      E             dE          RMSdq      gap      omega  full diag
   1    -90.2049868 -0.902050E+02  0.745E-03    1.67       0.0  T
   2    -90.2049868 -0.164932E-07  0.441E-03    1.67       3.0  T
   3    -90.2049868  0.245872E-07  0.795E-04    1.67      16.4  T
   4    -90.2049868 -0.329225E-07  0.206E-04    1.67      63.3  T
     SCC iter.                  ...        0 min,  0.045 sec
     gradient                   ...        0 min,  0.024 sec
 * total energy  :   -88.9736340 Eh     change       -0.2017852E-05 Eh
   gradient norm :     0.0001812 Eh/α   predicted    -0.7864263E-06 ( -61.03%)
   displ. norm   :     0.0876583 α      lambda       -0.1819733E-05
   maximum displ.:     0.0563840 α      in ANC's #1, #2, #6, ...

........................................................................
.............................. CYCLE  117 ..............................
........................................................................

 iter      E             dE          RMSdq      gap      omega  full diag
   1    -90.2049471 -0.902049E+02  0.804E-03    1.67       0.0  T
   2    -90.2049471 -0.222978E-07  0.475E-03    1.67       2.7  T
   3    -90.2049471  0.249734E-07  0.852E-04    1.67      15.3  T
   4    -90.2049471 -0.345241E-07  0.254E-04    1.67      51.3  T
     SCC iter.                  ...        0 min,  0.044 sec
     gradient                   ...        0 min,  0.023 sec
 * total energy  :   -88.9736364 Eh     change       -0.2364597E-05 Eh
   gradient norm :     0.0002171 Eh/α   predicted    -0.9161415E-06 ( -61.26%)
   displ. norm   :     0.1014076 α      lambda       -0.2126191E-05
   maximum displ.:     0.0655776 α      in ANC's #1, #2, #6, ...

........................................................................
.............................. CYCLE  118 ..............................
........................................................................

 iter      E             dE          RMSdq      gap      omega  full diag
   1    -90.2049947 -0.902050E+02  0.926E-03    1.67       0.0  T
   2    -90.2049947 -0.332488E-07  0.546E-03    1.67       2.4  T
   3    -90.2049946  0.608185E-07  0.125E-03    1.67      10.4  T
   4    -90.2049947 -0.770643E-07  0.303E-04    1.67      43.0  T
   5    -90.2049947 -0.115844E-08  0.167E-04    1.67      78.0  T
     SCC iter.                  ...        0 min,  0.060 sec
     gradient                   ...        0 min,  0.023 sec
 * total energy  :   -88.9736390 Eh     change       -0.2647919E-05 Eh
   gradient norm :     0.0002271 Eh/α   predicted    -0.1070911E-05 ( -59.56%)
   displ. norm   :     0.1115484 α      lambda       -0.2034678E-05
   maximum displ.:     0.0722645 α      in ANC's #1, #2, #6, ...

........................................................................
.............................. CYCLE  119 ..............................
........................................................................

 iter      E             dE          RMSdq      gap      omega  full diag
   1    -90.2049158 -0.902049E+02  0.101E-02    1.68       0.0  T
   2    -90.2049159 -0.369194E-07  0.596E-03    1.68       2.2  T
   3    -90.2049158  0.479404E-07  0.115E-03    1.68      11.3  T
   4    -90.2049159 -0.642940E-07  0.322E-04    1.68      40.4  T
   5    -90.2049159 -0.130721E-08  0.171E-04    1.68      76.0  T
     SCC iter.                  ...        0 min,  0.055 sec
     gradient                   ...        0 min,  0.023 sec
 * total energy  :   -88.9736414 Eh     change       -0.2417306E-05 Eh
   gradient norm :     0.0002708 Eh/α   predicted    -0.1023518E-05 ( -57.66%)
   displ. norm   :     0.1039368 α      lambda       -0.1866245E-05
   maximum displ.:     0.0677291 α      in ANC's #1, #2, #9, ...

........................................................................
.............................. CYCLE  120 ..............................
........................................................................

 iter      E             dE          RMSdq      gap      omega  full diag
   1    -90.2050739 -0.902051E+02  0.945E-03    1.68       0.0  T
   2    -90.2050739 -0.357792E-07  0.557E-03    1.68       2.3  T
   3    -90.2050738  0.924661E-07  0.147E-03    1.68       8.9  T
   4    -90.2050739 -0.111214E-06  0.292E-04    1.68      44.6  T
   5    -90.2050739 -0.112323E-08  0.163E-04    1.68      80.1  T
     SCC iter.                  ...        0 min,  0.064 sec
     gradient                   ...        0 min,  0.023 sec
 * total energy  :   -88.9736436 Eh     change       -0.2209223E-05 Eh
   gradient norm :     0.0002511 Eh/α   predicted    -0.9407871E-06 ( -57.42%)
   displ. norm   :     0.0971199 α      lambda       -0.1620041E-05
   maximum displ.:     0.0632699 α      in ANC's #1, #2, #9, ...
 * RMSD in coord.:     0.1937011 α      energy gain  -0.9734291E-04 Eh

generating ANC from exact Hessian ...
Using Lindh-Hessian (1995)
 Shifting diagonal of input Hessian by    9.9546760942312001E-003
 Lowest  eigenvalues of input Hessian
    0.000000    0.000000    0.000000    0.000000    0.000000    0.000000
    0.010000    0.010140    0.010204    0.010381    0.010610    0.010784
    0.010989    0.011054    0.011187    0.011858    0.012203    0.013206
 Highest eigenvalues
    2.012064    2.160716    2.176437    2.245284    2.437866    2.646901


........................................................................
.............................. CYCLE  121 ..............................
........................................................................

 iter      E             dE          RMSdq      gap      omega  full diag
   1    -90.2050790 -0.902051E+02  0.888E-03    1.68       0.0  T
   2    -90.2050790 -0.216357E-07  0.524E-03    1.68       2.5  T
   3    -90.2050790  0.582707E-07  0.117E-03    1.68      11.1  T
   4    -90.2050791 -0.712671E-07  0.246E-04    1.68      52.9  T
   5    -90.2050791 -0.576975E-09  0.139E-04    1.68      93.3  T
     SCC iter.                  ...        0 min,  0.046 sec
     gradient                   ...        0 min,  0.020 sec
 * total energy  :   -88.9736458 Eh     change       -0.2117537E-05 Eh
   gradient norm :     0.0001898 Eh/α   predicted     0.0000000E+00 (-100.00%)
   displ. norm   :     0.0089632 α      lambda       -0.4310755E-07
   maximum displ.:     0.0049808 α      in ANC's #12, #1, #10, ...

........................................................................
.............................. CYCLE  122 ..............................
........................................................................

 iter      E             dE          RMSdq      gap      omega  full diag
   1    -90.2050632 -0.902051E+02  0.161E-03    1.68       0.0  T
   2    -90.2050632 -0.266654E-08  0.934E-04    1.68      13.9  T
   3    -90.2050632  0.243649E-08  0.276E-04    1.68      47.2  T
     SCC iter.                  ...        0 min,  0.045 sec
     gradient                   ...        0 min,  0.039 sec
 * total energy  :   -88.9736465 Eh     change       -0.6987224E-06 Eh
   gradient norm :     0.0001168 Eh/α   predicted    -0.2722864E-06 ( -61.03%)
   displ. norm   :     0.0481211 α      lambda       -0.2323944E-05
   maximum displ.:     0.0261594 α      in ANC's #12, #1, #10, ...

   *** GEOMETRY OPTIMIZATION CONVERGED AFTER 122 ITERATIONS ***

------------------------------------------------------------------------
 total energy gain   :        -0.0183247 Eh      -11.4989 kcal/mol
 total RMSD          :         1.5007226 a0        0.7941 Å
 total power (kW/mol):        -0.3943568 (step)   -2.5237 (real)
------------------------------------------------------------------------

 ANCopt (total)                0 d,  0 h,  0 min, 19.064 sec
 optimizer setup                ...        0 min,  0.001 sec (  0.004%)
 model hessian                  ...        0 min,  0.187 sec (  0.979%)
 ANC generation                 ...        0 min,  0.029 sec (  0.151%)
 coordinate transformation      ...        0 min,  0.005 sec (  0.027%)
 single point calculation       ...        0 min, 18.443 sec ( 96.743%)
 optimization log               ...        0 min,  0.028 sec (  0.146%)
 hessian update                 ...        0 min,  0.283 sec (  1.484%)
 rational function              ...        0 min,  0.028 sec (  0.148%)

================
 final structure:
================
59
 xtb: 6.7.1 (edcfbbe)
C            3.16484102404363       -2.24343832656290        0.44787233149822
C            3.94996882377562       -1.96579373538292       -0.80124088308996
C            5.41056340360277       -1.72383815915978       -0.56269711017104
C            3.36170945489729       -1.93612524430083       -1.99090119123089
C            4.01028555309365       -1.62837126321870       -3.30724717067482
C            4.07176926780014       -0.10670485807962       -3.55572575522669
C            2.69104355602982        0.49056918451974       -3.52042780940701
C            1.95364133039800        0.46308083598028       -4.82310944546955
C            2.21452441469031        0.97766245119052       -2.38053749325433
C            0.85401558991334        1.53270339721467       -2.11752163074953
O            0.37429584808080        0.90787011547872       -0.91948180797376
C           -0.79463932373282        1.33595470193965       -0.44533873357946
O           -1.46511643061669        2.19566673930183       -0.96772152328961
C           -1.10701665078443        0.64968282019018        0.81446741273353
C           -0.22450473800927       -0.01176240251767        1.65030391969453
C           -0.96096389174230       -0.31056093919990        2.80916324326135
C           -0.50212494741738       -1.05207243205989        4.02288358641634
C           -1.06230644297733       -2.47691911538683        3.98672428338694
C           -0.94988367553460       -0.32924401055043        5.29221408169180
N           -2.19653496091012        0.14183701750629        2.68712815191768
N           -2.29454631330733        0.71495637447005        1.49017871720520
C           -3.52709228915166        1.23524363453010        1.09124385180482
C           -4.33316663945584        1.82705323870804        2.06448906744515
C           -5.56530238167926        2.33760462835965        1.72040476166386
C           -5.99266117338423        2.24995287836480        0.39950278342686
N           -7.27648626527082        2.78777320934603        0.03361856480377
O           -7.93372480092725        3.31872360848830        0.90427081085172
O           -7.62652050997379        2.67640470729877       -1.12238171283578
C           -5.20593061162326        1.63766448520719       -0.56999084396292
C           -3.97603355555958        1.12047056362836       -0.22292340953650
H            2.10132762215082       -2.31702127499223        0.23549827079077
H            3.32588895241814       -1.44843426189719        1.17604392119222
H            3.49439033265867       -3.17725414205833        0.90388907317749
H            5.81363966888335       -2.49015673273866        0.09841164224639
H            5.98277148565286       -1.72269646422230       -1.48489596844384
H            5.55166832904250       -0.75981616165953       -0.07271293516562
H            2.29411684409610       -2.10398200559112       -2.03914977833116
H            5.02508805096542       -2.02803184873858       -3.34763369819827
H            3.43579787534453       -2.09965992023041       -4.10682319082454
H            4.53519018499779        0.07796006980693       -4.52685471920816
H            4.69334676795447        0.34480078408454       -2.78203051316477
H            2.29710018463963        1.28260850468783       -5.45507539353038
H            2.15718937401275       -0.46763634066154       -5.34903247095008
H            0.88011305408858        0.56350221056410       -4.69508883300739
H            2.83773410535332        0.95423066655276       -1.49752293120300
H            0.14361568419584        1.33890284244881       -2.92662013030964
H            0.88644456912661        2.61836876029635       -1.95316050498268
H            0.80366557453455       -0.22786379987546        1.44798788871441
H            0.59197372808750       -1.10125154837197        3.99699572435682
H           -0.72159535251741       -3.03694586878833        4.85410939401385
H           -2.14882429339237       -2.44517619572218        3.99299560748755
H           -0.73421727745220       -2.99477112297663        3.08798478632229
H           -0.62261311088780       -0.87625566229972        6.17301062167716
H           -2.03326065934754       -0.25104972423083        5.30548015507786
H           -0.52949986934696        0.67311753795422        5.32932442086774
H           -3.97315439873499        1.87302471535901        3.07966960086290
H           -6.20379329596007        2.80860519898578        2.45181858267802
H           -5.57535886832987        1.56900108810204       -1.58148597923439
H           -3.37084792645770        0.62783659099834       -0.96503105831915

 Bond Distances (Angstroems)
 ---------------------------
C1-C2=1.5013         C1-H31=1.0870        C1-H32=1.0900        C1-H33=1.0902        C2-C1=1.5013         C2-C3=1.4996         
C2-C4=1.3275         C3-C2=1.4996         C3-H34=1.0894        C3-H35=1.0853        C3-H36=1.0906        C4-C2=1.3275         
C4-C5=1.4994         C4-H37=1.0818        C5-C4=1.4994         C5-C6=1.5430         C5-H38=1.0914        C5-H39=1.0915        
C6-C5=1.5430         C6-C7=1.5048         C6-H40=1.0918        C6-H41=1.0903        C7-C6=1.5048         C7-C8=1.4972         
C7-C9=1.3280         C8-C7=1.4972         C8-H42=1.0904        C8-H43=1.0882        C8-H44=1.0858        C9-C7=1.3280         
C9-C10=1.4927        C9-H45=1.0810        C10-C9=1.4927        C10-O11=1.4338       C10-H46=1.0940       C10-H47=1.0985       
O11-C10=1.4338       O11-C12=1.3321       C12-O11=1.3321       C12-O13=1.2089       C12-C14=1.4682       O13-C12=1.2089       
C14-C12=1.4682       C14-C15=1.3838       C14-N21=1.3679       C15-C14=1.3838       C15-C16=1.4052       C15-H48=1.0699       
C16-C15=1.4052       C16-C17=1.4945       C16-N20=1.3214       C17-C16=1.4945       C17-C18=1.5314       C17-C19=1.5278       
C17-H49=1.0955       C18-C17=1.5314       C18-H50=1.0872       C18-H51=1.0870       C18-H52=1.0879       C19-C17=1.5278       
C19-H53=1.0873       C19-H54=1.0863       C19-H55=1.0876       N20-C16=1.3214       N20-N21=1.3307       N21-C14=1.3679       
N21-N20=1.3307       N21-C22=1.3961       C22-N21=1.3961       C22-C23=1.3954       C22-C30=1.3935       C23-C22=1.3954       
C23-C24=1.3774       C23-H56=1.0781       C24-C23=1.3774       C24-C25=1.3911       C24-H57=1.0791       C25-C24=1.3911       
C25-N26=1.4392       C25-C29=1.3906       N26-C25=1.4392       N26-O27=1.2132       N26-O28=1.2130       O27-N26=1.2132       
O28-N26=1.2130       C29-C25=1.3906       C29-C30=1.3786       C29-H58=1.0790       C30-C22=1.3935       C30-C29=1.3786       
C30-H59=1.0769       H31-C1=1.0870        H32-C1=1.0900        H33-C1=1.0902        H34-C3=1.0894        H35-C3=1.0853        
H36-C3=1.0906        H37-C4=1.0818        H38-C5=1.0914        H39-C5=1.0915        H40-C6=1.0918        H41-C6=1.0903        
H42-C8=1.0904        H43-C8=1.0882        H44-C8=1.0858        H45-C9=1.0810        H46-C10=1.0940       H47-C10=1.0985       
H48-C15=1.0699       H49-C17=1.0955       H50-C18=1.0872       H51-C18=1.0870       H52-C18=1.0879       H53-C19=1.0873       
H54-C19=1.0863       H55-C19=1.0876       H56-C23=1.0781       H57-C24=1.0791       H58-C29=1.0790       H59-C30=1.0769       
 C  H  Rav=1.0869 sigma=0.0060  Rmin=1.0699  Rmax=1.0985    29
 C  C  Rav=1.4443 sigma=0.0681  Rmin=1.3275  Rmax=1.5430    21
 N  C  Rav=1.3811 sigma=0.0428  Rmin=1.3214  Rmax=1.4392     4
 N  N  Rav=1.3307 sigma=0.0000  Rmin=1.3307  Rmax=1.3307     1
 O  C  Rav=1.3250 sigma=0.0919  Rmin=1.2089  Rmax=1.4338     3
 O  N  Rav=1.2131 sigma=0.0001  Rmin=1.2130  Rmax=1.2132     2

 selected bond angles (degree)
 --------------------
H31-C1-C2=111.20               H32-C1-C2=110.10               H32-C1-H31=108.93              H33-C1-C2=110.39               
H33-C1-H31=108.63              H33-C1-H32=107.50              C3-C2-C1=114.01                C4-C2-C1=121.20                
C4-C2-C3=124.79                H34-C3-C2=110.09               H35-C3-C2=112.24               H35-C3-H34=108.74              
H36-C3-C2=109.88               H36-C3-H34=107.53              H36-C3-H35=108.22              C5-C4-C2=126.85                
H37-C4-C2=118.28               H37-C4-C5=114.81               C6-C5-C4=111.16                H38-C5-C4=111.07               
H38-C5-C6=108.55               H39-C5-C4=109.08               H39-C5-C6=109.20               H39-C5-H38=107.71              
C7-C6-C5=110.55                H40-C6-C5=109.08               H40-C6-C7=110.07               H41-C6-C5=108.47               
H41-C6-C7=110.00               H41-C6-H40=108.61              C8-C7-C6=115.10                C9-C7-C6=119.67                
C9-C7-C8=125.23                H42-C8-C7=109.59               H43-C8-C7=110.13               H43-C8-H42=107.68              
H44-C8-C7=112.50               H44-C8-H42=108.07              H44-C8-H43=108.72              C10-C9-C7=127.93               
H45-C9-C7=119.10               H45-C9-C10=112.93              O11-C10-C9=106.87              H46-C10-C9=113.31              
H46-C10-O11=108.87             H47-C10-C9=111.53              H47-C10-O11=108.39             H47-C10-H46=107.75             

 selected dihedral angles (degree)
 ---------------------------------
C3-C2-C1-H31=174.55           C3-C2-C1-H32= 53.72           C3-C2-C1-H33=295.19           C4-C2-C1-H31=355.04           
C4-C2-C1-H32=234.21           C4-C2-C1-H33=115.68           H34-C3-C2-C1= 47.35           H34-C3-C2-C4=226.84           
H35-C3-C2-C1=168.63           H35-C3-C2-C4=348.12           H36-C3-C2-C1=289.10           H36-C3-C2-C4=108.59           
C5-C4-C2-C1=177.82            C5-C4-C2-C3=358.37            H37-C4-C2-C1=  0.84           H37-C4-C2-C3=181.39           
C6-C5-C4-C2=275.21            C6-C5-C4-H37= 92.28           H38-C5-C4-C2= 36.19           H38-C5-C4-H37=213.26          
H39-C5-C4-C2=154.75           H39-C5-C4-H37=331.82          C7-C6-C5-C4=302.00            C7-C6-C5-H38=179.56           
C7-C6-C5-H39= 62.39           H40-C6-C5-C4=180.83           H40-C6-C5-H38= 58.39          H40-C6-C5-H39=301.22          
H41-C6-C5-C4= 62.69           H41-C6-C5-H38=300.25          H41-C6-C5-H39=183.08          C8-C7-C6-C5=273.15            
C8-C7-C6-H40= 33.73           C8-C7-C6-H41=153.37           C9-C7-C6-C5= 92.49            C9-C7-C6-H40=213.08           
C9-C7-C6-H41=332.72           H42-C8-C7-C6=279.89           H42-C8-C7-C9=100.59           H43-C8-C7-C6= 38.18           
H43-C8-C7-C9=218.87           H44-C8-C7-C6=159.63           H44-C8-C7-C9=340.33           C10-C9-C7-C6=183.95           
C10-C9-C7-C8=  3.22           H45-C9-C7-C6=  1.21           H45-C9-C7-C8=180.48           O11-C10-C9-C7=131.39          
O11-C10-C9-H45=313.98         H46-C10-C9-C7= 11.47          H46-C10-C9-H45=194.07         H47-C10-C9-C7=249.68          
H47-C10-C9-H45= 72.28         
           -------------------------------------------------
          |                Final Singlepoint                |
           -------------------------------------------------

          ...................................................
          :                      SETUP                      :
          :.................................................:
          :  # basis functions                 149          :
          :  # atomic orbitals                 149          :
          :  # shells                           89          :
          :  # electrons                       160          :
          :  max. iterations                   250          :
          :  Hamiltonian                  GFN2-xTB          :
          :  restarted?                      false          :
          :  GBSA solvation                  false          :
          :  PC potential                    false          :
          :  electronic temp.          300.0000000     K    :
          :  accuracy                    1.0000000          :
          :  -> integral cutoff          0.2500000E+02      :
          :  -> integral neglect         0.1000000E-07      :
          :  -> SCF convergence          0.1000000E-05 Eh   :
          :  -> wf. convergence          0.1000000E-03 e    :
          :  Broyden damping             0.4000000          :
          :  net charge                          0          :
          :  unpaired electrons                  0          :
          ...................................................

 iter      E             dE          RMSdq      gap      omega  full diag
   1    -90.2050632 -0.902051E+02  0.772E-05    1.68       0.0  T
   2    -90.2050632 -0.225100E-10  0.641E-05    1.68     203.2  T
   3    -90.2050632 -0.168910E-09  0.242E-05    1.68     538.4  T

   *** convergence criteria satisfied after 3 iterations ***

         #    Occupation            Energy/Eh            Energy/eV
      -------------------------------------------------------------
         1        2.0000           -0.7675416             -20.8859
       ...           ...                  ...                  ...
        74        2.0000           -0.4295518             -11.6887
        75        2.0000           -0.4253294             -11.5738
        76        2.0000           -0.4233298             -11.5194
        77        2.0000           -0.4115106             -11.1978
        78        2.0000           -0.4096734             -11.1478
        79        2.0000           -0.3958079             -10.7705
        80        2.0000           -0.3821344             -10.3984 (HOMO)
        81                         -0.3205517              -8.7227 (LUMO)
        82                         -0.2824879              -7.6869
        83                         -0.2592839              -7.0555
        84                         -0.2369117              -6.4467
        85                         -0.2134744              -5.8089
       ...                                ...                  ...
       149                          0.6661388              18.1266
      -------------------------------------------------------------
                  HL-Gap            0.0615827 Eh            1.6758 eV
             Fermi-level           -0.3513430 Eh           -9.5605 eV

 SCC (total)                   0 d,  0 h,  0 min,  0.093 sec
 SCC setup                      ...        0 min,  0.003 sec (  3.110%)
 Dispersion                     ...        0 min,  0.005 sec (  5.700%)
 classical contributions        ...        0 min,  0.002 sec (  2.485%)
 integral evaluation            ...        0 min,  0.010 sec ( 10.347%)
 iterations                     ...        0 min,  0.040 sec ( 43.220%)
 molecular gradient             ...        0 min,  0.032 sec ( 34.592%)
 printout                       ...        0 min,  0.000 sec (  0.511%)

         :::::::::::::::::::::::::::::::::::::::::::::::::::::
         ::                     SUMMARY                     ::
         :::::::::::::::::::::::::::::::::::::::::::::::::::::
         :: total energy             -88.973646468718 Eh    ::
         :: gradient norm              0.000118009113 Eh/a0 ::
         :: HOMO-LUMO gap              1.675750798119 eV    ::
         ::.................................................::
         :: SCC energy               -90.204789884897 Eh    ::
         :: -> isotropic ES            0.107589134445 Eh    ::
         :: -> anisotropic ES          0.014889201594 Eh    ::
         :: -> anisotropic XC          0.035039627709 Eh    ::
         :: -> dispersion             -0.059951663499 Eh    ::
         :: repulsion energy           1.231143416179 Eh    ::
         :: add. restraining           0.000000000000 Eh    ::
         :: total charge              -0.000000000000 e     ::
         :::::::::::::::::::::::::::::::::::::::::::::::::::::

           -------------------------------------------------
          |                Property Printout                |
           -------------------------------------------------

    * Orbital Energies and Occupations

         #    Occupation            Energy/Eh            Energy/eV
      -------------------------------------------------------------
         1        2.0000           -0.7675416             -20.8859
       ...           ...                  ...                  ...
        68        2.0000           -0.4452286             -12.1153
        69        2.0000           -0.4434854             -12.0679
        70        2.0000           -0.4408857             -11.9971
        71        2.0000           -0.4404830             -11.9862
        72        2.0000           -0.4355226             -11.8512
        73        2.0000           -0.4311713             -11.7328
        74        2.0000           -0.4295518             -11.6887
        75        2.0000           -0.4253294             -11.5738
        76        2.0000           -0.4233298             -11.5194
        77        2.0000           -0.4115106             -11.1978
        78        2.0000           -0.4096734             -11.1478
        79        2.0000           -0.3958079             -10.7705
        80        2.0000           -0.3821344             -10.3984 (HOMO)
        81                         -0.3205517              -8.7227 (LUMO)
        82                         -0.2824879              -7.6869
        83                         -0.2592839              -7.0555
        84                         -0.2369117              -6.4467
        85                         -0.2134744              -5.8089
        86                         -0.2014938              -5.4829
        87                         -0.1922835              -5.2323
        88                         -0.1577759              -4.2933
        89                         -0.1204656              -3.2780
        90                         -0.0276099              -0.7513
        91                         -0.0044604              -0.1214
       ...                                ...                  ...
       149                          0.6661388              18.1266
      -------------------------------------------------------------
                  HL-Gap            0.0615827 Eh            1.6758 eV
             Fermi-level           -0.3513430 Eh           -9.5605 eV

     #   Z          covCN         q      C6AA      α(0)
     1   6 C        3.760    -0.106    22.580     6.774
     2   6 C        2.937     0.008    27.851     8.655
     3   6 C        3.758    -0.107    22.599     6.778
     4   6 C        2.897    -0.058    29.445     8.897
     5   6 C        3.805    -0.051    21.492     6.600
     6   6 C        3.813    -0.064    21.714     6.633
     7   6 C        2.940     0.016    27.647     8.624
     8   6 C        3.757    -0.111    22.676     6.789
     9   6 C        2.897    -0.068    29.686     8.933
    10   6 C        3.703     0.086    19.299     6.281
    11   8 O        1.707    -0.260    18.314     5.778
    12   6 C        2.719     0.351    21.040     7.509
    13   8 O        0.856    -0.430    22.280     6.328
    14   6 C        3.056    -0.008    28.163     8.703
    15   6 C        3.019    -0.066    29.627     8.929
    16   6 C        3.135     0.073    26.147     8.370
    17   6 C        3.853    -0.010    20.727     6.475
    18   6 C        3.758    -0.106    22.571     6.773
    19   6 C        3.758    -0.109    22.628     6.782
    20   7 N        2.018    -0.220    26.580     7.647
    21   7 N        3.022     0.101    19.496     6.558
    22   6 C        2.920     0.074    26.340     8.416
    23   6 C        2.925    -0.030    28.745     8.792
    24   6 C        2.918    -0.019    28.480     8.751
    25   6 C        2.917     0.003    27.969     8.672
    26   7 N        2.760     0.546    13.523     5.462
    27   8 O        0.930    -0.387    21.394     6.203
    28   8 O        0.930    -0.386    21.377     6.201
    29   6 C        2.919    -0.016    28.422     8.743
    30   6 C        2.921    -0.024    28.608     8.771
    31   1 H        0.925     0.036     2.501     2.473
    32   1 H        0.925     0.039     2.459     2.452
    33   1 H        0.924     0.041     2.433     2.439
    34   1 H        0.925     0.041     2.435     2.440
    35   1 H        0.925     0.041     2.439     2.442
    36   1 H        0.924     0.041     2.435     2.440
    37   1 H        0.925     0.026     2.648     2.545
    38   1 H        0.924     0.036     2.506     2.476
    39   1 H        0.924     0.033     2.544     2.494
    40   1 H        0.924     0.040     2.444     2.445
    41   1 H        0.924     0.042     2.426     2.436
    42   1 H        0.924     0.050     2.318     2.381
    43   1 H        0.925     0.052     2.290     2.366
    44   1 H        0.925     0.041     2.431     2.438
    45   1 H        0.926     0.049     2.334     2.389
    46   1 H        0.924     0.051     2.305     2.374
    47   1 H        0.923     0.055     2.265     2.353
    48   1 H        0.927     0.051     2.310     2.377
    49   1 H        0.924     0.035     2.519     2.482
    50   1 H        0.925     0.043     2.411     2.428
    51   1 H        0.925     0.049     2.336     2.390
    52   1 H        0.925     0.035     2.514     2.479
    53   1 H        0.925     0.041     2.432     2.439
    54   1 H        0.925     0.054     2.270     2.356
    55   1 H        0.925     0.036     2.499     2.472
    56   1 H        0.926     0.079     1.990     2.206
    57   1 H        0.926     0.087     1.907     2.159
    58   1 H        0.926     0.088     1.895     2.153
    59   1 H        0.926     0.067     2.115     2.274

 Mol. C6AA /au·bohr⁶  :      36582.254402
 Mol. C8AA /au·bohr⁸  :     844810.856906
 Mol. α(0) /au        :        294.427041


Wiberg/Mayer (AO) data.
largest (>0.10) Wiberg bond orders for each atom

 ---------------------------------------------------------------------------
     #   Z sym  total        # sym  WBO       # sym  WBO       # sym  WBO
 ---------------------------------------------------------------------------
     1   6 C    3.997 --     2 C    1.022    31 H    0.985    32 H    0.975
                            33 H    0.973
     2   6 C    3.988 --     4 C    1.885     3 C    1.024     1 C    1.022
     3   6 C    3.997 --     2 C    1.024    35 H    0.980    34 H    0.977
                            36 H    0.969
     4   6 C    3.987 --     2 C    1.885     5 C    1.023    37 H    0.966
     5   6 C    3.996 --     4 C    1.023    39 H    0.975     6 C    0.968
                            38 H    0.967
     6   6 C    3.996 --     7 C    1.011    41 H    0.974    40 H    0.972
                             5 C    0.968
     7   6 C    3.986 --     9 C    1.877     8 C    1.029     6 C    1.011
     8   6 C    3.996 --     7 C    1.029    44 H    0.977    43 H    0.975
                            42 H    0.965
     9   6 C    3.978 --     7 C    1.877    10 C    1.018    45 H    0.961
    10   6 C    3.919 --     9 C    1.018    46 H    0.959    47 H    0.954
                            11 O    0.924
    11   8 O    2.314 --    12 C    1.139    10 C    0.924    13 O    0.175
    12   6 C    3.929 --    13 O    1.696    11 O    1.139    14 C    1.017
    13   8 O    2.019 --    12 C    1.696    11 O    0.175
    14   6 C    3.950 --    15 C    1.457    21 N    1.196    12 C    1.017
                            20 N    0.139
    15   6 C    3.972 --    14 C    1.457    16 C    1.333    48 H    0.970
    16   6 C    3.964 --    20 N    1.479    15 C    1.333    17 C    1.003
    17   6 C    3.994 --    16 C    1.003    19 C    1.000    18 C    0.990
                            49 H    0.967
    18   6 C    3.993 --    17 C    0.990    52 H    0.988    51 H    0.986
                            50 H    0.985
    19   6 C    3.994 --    17 C    1.000    55 H    0.987    53 H    0.986
                            54 H    0.985
    20   7 N    2.975 --    16 C    1.479    21 N    1.196    14 C    0.139
    21   7 N    3.691 --    14 C    1.196    20 N    1.196    22 C    1.053
    22   6 C    3.967 --    30 C    1.368    23 C    1.363    21 N    1.053
    23   6 C    3.986 --    24 C    1.472    22 C    1.363    56 H    0.963
    24   6 C    3.983 --    23 C    1.472    25 C    1.371    57 H    0.959
    25   6 C    3.953 --    29 C    1.373    24 C    1.371    26 N    0.971
    26   7 N    3.910 --    28 O    1.448    27 O    1.447    25 C    0.971
    27   8 O    1.926 --    26 N    1.447    28 O    0.359
    28   8 O    1.927 --    26 N    1.448    27 O    0.359
    29   6 C    3.983 --    30 C    1.467    25 C    1.373    58 H    0.959
    30   6 C    3.988 --    29 C    1.467    22 C    1.368    59 H    0.965
    31   1 H    0.999 --     1 C    0.985
    32   1 H    0.998 --     1 C    0.975
    33   1 H    0.997 --     1 C    0.973
    34   1 H    0.998 --     3 C    0.977
    35   1 H    0.998 --     3 C    0.980
    36   1 H    0.998 --     3 C    0.969
    37   1 H    0.999 --     4 C    0.966
    38   1 H    0.998 --     5 C    0.967
    39   1 H    0.999 --     5 C    0.975
    40   1 H    0.998 --     6 C    0.972
    41   1 H    0.998 --     6 C    0.974
    42   1 H    0.997 --     8 C    0.965
    43   1 H    0.997 --     8 C    0.975
    44   1 H    0.998 --     8 C    0.977
    45   1 H    0.998 --     9 C    0.961
    46   1 H    0.997 --    10 C    0.959
    47   1 H    0.996 --    10 C    0.954
    48   1 H    0.997 --    15 C    0.970
    49   1 H    0.998 --    17 C    0.967
    50   1 H    0.998 --    18 C    0.985
    51   1 H    0.998 --    18 C    0.986
    52   1 H    0.999 --    18 C    0.988
    53   1 H    0.998 --    19 C    0.986
    54   1 H    0.997 --    19 C    0.985
    55   1 H    0.999 --    19 C    0.987
    56   1 H    0.993 --    23 C    0.963
    57   1 H    0.992 --    24 C    0.959
    58   1 H    0.992 --    29 C    0.959
    59   1 H    0.995 --    30 C    0.965
 ---------------------------------------------------------------------------

Topologies differ in total number of bonds
Writing topology from bond orders to xtbtopo.mol

molecular dipole:
                 x           y           z       tot (Debye)
 q only:        2.816      -1.505       0.472
   full:        3.225      -1.474       0.241       9.034
molecular quadrupole (traceless):
                xx          xy          yy          xz          yz          zz
 q only:      -38.076      28.824       2.901     -15.612       1.894      35.175
  q+dip:      -40.385      30.121       3.276      -9.776       3.292      37.108
   full:      -42.255      32.724       7.519     -10.413       2.786      34.736

           -------------------------------------------------
          |                Geometry Summary                 |
           -------------------------------------------------

      molecular mass/u    :      411.4949368
   center of mass at/Å    :       -1.0457156       0.5020327       0.0599319
  moments of inertia/u·Å² :        0.2424747E+04   0.7168267E+04   0.9190473E+04
rotational constants/cm⁻¹ :        0.6952325E-02   0.2351702E-02   0.1834251E-02

 * 51 selected distances

     #   Z          #   Z                                           value/Å
     2   6 C        4   6 C                                       1.3274868
     7   6 C        9   6 C                                       1.3280364
    10   6 C       11   8 O                                       1.4338227
    11   8 O       12   6 C                                       1.3320953
    12   6 C       13   8 O                                       1.2089369
    14   6 C       15   6 C                                       1.3838208
    15   6 C       16   6 C                                       1.4052074
    16   6 C       17   6 C                                       1.4944865
    17   6 C       18   6 C                                       1.5314370 (max)
    17   6 C       19   6 C                                       1.5277988
    16   6 C       20   7 N                                       1.3214358
    14   6 C       21   7 N                                       1.3678719
    20   7 N       21   7 N                                       1.3306992
    21   7 N       22   6 C                                       1.3960723
    22   6 C       23   6 C                                       1.3954215
    23   6 C       24   6 C                                       1.3773945
    24   6 C       25   6 C                                       1.3910790
    26   7 N       27   8 O                                       1.2132215
    26   7 N       28   8 O                                       1.2129566
    25   6 C       29   6 C                                       1.3905971
    22   6 C       30   6 C                                       1.3934694
    29   6 C       30   6 C                                       1.3786198
     1   6 C       31   1 H                                       1.0870042
     1   6 C       32   1 H                                       1.0900468
     1   6 C       33   1 H                                       1.0902138
     3   6 C       34   1 H                                       1.0893942
     3   6 C       35   1 H                                       1.0852992
     3   6 C       36   1 H                                       1.0905658
     4   6 C       37   1 H                                       1.0817846
     5   6 C       38   1 H                                       1.0914138
     5   6 C       39   1 H                                       1.0915453
     6   6 C       40   1 H                                       1.0917654
     6   6 C       41   1 H                                       1.0903304
     8   6 C       42   1 H                                       1.0903994
     8   6 C       43   1 H                                       1.0882378
     8   6 C       44   1 H                                       1.0857886
     9   6 C       45   1 H                                       1.0810432
    10   6 C       46   1 H                                       1.0940143
    10   6 C       47   1 H                                       1.0985152
    15   6 C       48   1 H                                       1.0699374 (min)
    17   6 C       49   1 H                                       1.0955094
    18   6 C       50   1 H                                       1.0872310
    18   6 C       51   1 H                                       1.0869996
    18   6 C       52   1 H                                       1.0879091
    19   6 C       53   1 H                                       1.0872583
    19   6 C       54   1 H                                       1.0862763
    19   6 C       55   1 H                                       1.0875792
    23   6 C       56   1 H                                       1.0781066
    24   6 C       57   1 H                                       1.0791101
    29   6 C       58   1 H                                       1.0790341
    30   6 C       59   1 H                                       1.0768760

 * 6 distinct bonds (by element types)

   Z      Z             #   av. dist./Å        max./Å        min./Å
   1 H    6 C          29     1.0868686     1.0985152     1.0699374
   6 C    6 C          13     1.4096042     1.5314370     1.3274868
   6 C    7 N           3     1.3617933     1.3960723     1.3214358
   7 N    7 N           1     1.3306992     1.3306992     1.3306992
   6 C    8 O           3     1.3249516     1.4338227     1.2089369
   7 N    8 O           2     1.2130891     1.2132215     1.2129566


optimized geometry written to: xtbopt.xyz


           -------------------------------------------------
          | TOTAL ENERGY              -88.973646468718 Eh   |
          | GRADIENT NORM               0.000118009113 Eh/α |
          | HOMO-LUMO GAP               1.675750798119 eV   |
           -------------------------------------------------

------------------------------------------------------------------------
 * finished run on 2026/07/06 at 17:26:20.911     
------------------------------------------------------------------------
 total:
 * wall-time:     0 d,  0 h,  0 min, 19.548 sec
 *  cpu-time:     0 d,  0 h,  5 min, 10.601 sec
 * ratio c/w:    15.889 speedup
 SCF:
 * wall-time:     0 d,  0 h,  0 min,  0.325 sec
 *  cpu-time:     0 d,  0 h,  0 min,  5.195 sec
 * ratio c/w:    15.979 speedup
 ANC optimizer:
 * wall-time:     0 d,  0 h,  0 min, 19.163 sec
 *  cpu-time:     0 d,  0 h,  5 min,  4.678 sec
 * ratio c/w:    15.900 speedup

