23
 energy: -30.279883676471 gnorm: 0.000135858592 xtb: 6.7.1 (edcfbbe)
C           -4.11204999020519       -0.55687881496767        0.24994275003374
C           -2.89365966312993        0.19156228223904       -0.27581952436895
C           -1.59277263848572       -0.42493443226113        0.23059248135623
C           -0.37009276529326        0.32105985428880       -0.29318445779701
C            0.92133190543331       -0.28552212562873        0.20544594075046
O            1.01637330002965       -1.24086090238503        0.92906033514543
O            1.97446937022335        0.38921995363931       -0.26998069462703
C            3.26563308670839       -0.08049739410985        0.12540725403263
C            4.31510540656470        0.80960555007344       -0.51257937334158
H           -4.08751188713088       -1.59614517879260       -0.06964802012860
H           -5.02918851790226       -0.10467919075468       -0.12032978874733
H           -4.13227970184730       -0.53505394196264        1.33710851340893
H           -2.90138036510705        0.17476781650857       -1.36826495844947
H           -2.94617291654945        1.23643178253051        0.03924998887975
H           -1.57793786163504       -0.41139089013249        1.32177245311993
H           -1.53330344635176       -1.46926414528246       -0.08072099910860
H           -0.39097048052270        1.36795275297456        0.01811234609743
H           -0.34630945934078        0.30942005103839       -1.38525828040953
H            3.33045419756739       -0.05517300291750        1.21901958939822
H            3.37548202229455       -1.12239276575205       -0.19586877107989
H            4.22689883287195        0.77512360340857       -1.59504678802733
H            4.18207159491043        1.83755665593837       -0.18650629886645
H            5.30580997689863        0.47009248230422       -0.22496218239599
