      -----------------------------------------------------------      
     |                   =====================                   |     
     |                           x T B                           |     
     |                   =====================                   |     
     |                         S. Grimme                         |     
     |          Mulliken Center for Theoretical Chemistry        |     
     |                    University of Bonn                     |     
      -----------------------------------------------------------      

   * xtb version 6.7.1 (edcfbbe) compiled by 'conda@5dfe00f5fb80' on 2026-06-10

   xtb is free software: you can redistribute it and/or modify it under
   the terms of the GNU Lesser General Public License as published by
   the Free Software Foundation, either version 3 of the License, or
   (at your option) any later version.
   
   xtb is distributed in the hope that it will be useful,
   but WITHOUT ANY WARRANTY; without even the implied warranty of
   MERCHANTABILITY or FITNESS FOR A PARTICULAR PURPOSE.  See the
   GNU Lesser General Public License for more details.
   
   Cite this work as:
   * C. Bannwarth, E. Caldeweyher, S. Ehlert, A. Hansen, P. Pracht,
     J. Seibert, S. Spicher, S. Grimme, WIREs Comput. Mol. Sci., 2020, 11,
     e01493. DOI: 10.1002/wcms.1493
   
   for GFN2-xTB:
   * C. Bannwarth, S. Ehlert and S. Grimme., J. Chem. Theory Comput., 2019,
     15, 1652-1671. DOI: 10.1021/acs.jctc.8b01176
   for GFN1-xTB:
   * S. Grimme, C. Bannwarth, P. Shushkov, J. Chem. Theory Comput., 2017,
     13, 1989-2009. DOI: 10.1021/acs.jctc.7b00118
   for GFN0-xTB:
   * P. Pracht, E. Caldeweyher, S. Ehlert, S. Grimme, ChemRxiv, 2019, preprint.
     DOI: 10.26434/chemrxiv.8326202.v1
   for GFN-FF:
   * S. Spicher and S. Grimme, Angew. Chem. Int. Ed., 2020, 59, 15665-15673.
     DOI: 10.1002/anie.202004239
   
   for ALPB and GBSA implicit solvation:
   * S. Ehlert, M. Stahn, S. Spicher, S. Grimme, J. Chem. Theory Comput.,
     2021, 17, 4250-4261. DOI: 10.1021/acs.jctc.1c00471
   
   for ddCOSMO and CPCM-X implicit solvation:
   * M. Stahn, S. Ehlert, S. Grimme, J. Phys. Chem. A,
     2023, XX, XXXX-XXXX. DOI: 10.1021/acs.jpca.3c04382
   
   for DFT-D4:
   * E. Caldeweyher, C. Bannwarth and S. Grimme, J. Chem. Phys., 2017,
     147, 034112. DOI: 10.1063/1.4993215
   * E. Caldeweyher, S. Ehlert, A. Hansen, H. Neugebauer, S. Spicher,
     C. Bannwarth and S. Grimme, J. Chem. Phys., 2019, 150, 154122.
     DOI: 10.1063/1.5090222
   * E. Caldeweyher, J.-M. Mewes, S. Ehlert and S. Grimme, Phys. Chem. Chem. Phys.
     2020, 22, 8499-8512. DOI: 10.1039/D0CP00502A
   
   for sTDA-xTB:
   * S. Grimme and C. Bannwarth, J. Chem. Phys., 2016, 145, 054103.
     DOI: 10.1063/1.4959605
   
   in the mass-spec context:
   * V. Asgeirsson, C. Bauer and S. Grimme, Chem. Sci., 2017, 8, 4879.
     DOI: 10.1039/c7sc00601b
   * J. Koopman and S. Grimme, ACS Omega 2019, 4, 12, 15120-15133.
     DOI: 10.1021/acsomega.9b02011
   
   for metadynamics refer to:
   * S. Grimme, J. Chem. Theory Comput., 2019, 155, 2847-2862
     DOI: 10.1021/acs.jctc.9b00143
   
   for SPH calculations refer to:
   * S. Spicher and S. Grimme, J. Chem. Theory Comput., 2021, 17, 1701-1714
     DOI: 10.1021/acs.jctc.0c01306
   
   for ONIOM refer to:
   * C. Plett, A. Katbashev, S. Ehlert, S. Grimme, M. Bursch,
     Phys. Chem. Chem. Phys., 2023, 25, 17860-17868. DOI: 10.1039/D3CP02178E
   
   for DIPRO refer to:
   * J. Kohn, N. Gildemeister, S. Grimme, D. Fazzi, A. Hansen,
     J. Chem. Phys., 2023, just accepted.
   
   for PTB refer to:
   * S. Grimme, M. Mueller, A. Hansen, J. Chem. Phys., 2023, 158, 124111.
     DOI: 10.1063/5.0137838
   
   with help from (in alphabetical order)
   P. Atkinson, C. Bannwarth, F. Bohle, G. Brandenburg, E. Caldeweyher
   M. Checinski, S. Dohm, S. Ehlert, S. Ehrlich, I. Gerasimov, C. Hölzer
   A. Katbashev, J. Kohn, J. Koopman, C. Lavigne, S. Lehtola, F. März, M. Müller,
   F. Musil, H. Neugebauer, J. Pisarek, C. Plett, P. Pracht, F. Pultar,
   J. Seibert, P. Shushkov, S. Spicher, M. Stahn, M. Steiner, T. Strunk,
   J. Stückrath, T. Rose, and J. Unsleber
   
 * started run on 2026/07/08 at 10:03:20.616     
   ID    Z sym.   atoms
    1    6 C      1, 2, 4-11
    2    8 O      3
    3    1 H      12-23

           -------------------------------------------------
          |                Calculation Setup                |
           -------------------------------------------------

          program call               : /home/ws/xd2484/miniforge3/envs/p3z_dft/bin/xtb xtb_input.xyz --gfn 2 --opt tight --cycles 500 --chrg 0 --uhf 0
          hostname                   : gpu10
          coordinate file            : xtb_input.xyz
          omp threads                :                    16


           -------------------------------------------------
          |                 G F N 2 - x T B                 |
           -------------------------------------------------

        Reference                      10.1021/acs.jctc.8b01176
      * Hamiltonian:
        H0-scaling (s, p, d)           1.850000    2.230000    2.230000
        zeta-weighting                 0.500000
      * Dispersion:
        s8                             2.700000
        a1                             0.520000
        a2                             5.000000
        s9                             5.000000
      * Repulsion:
        kExp                           1.500000    1.000000
        rExp                           1.000000
      * Coulomb:
        alpha                          2.000000
        third order                    shell-resolved
        anisotropic                    true
        a3                             3.000000
        a5                             4.000000
        cn-shift                       1.200000
        cn-exp                         4.000000
        max-rad                        5.000000


          ...................................................
          :                      SETUP                      :
          :.................................................:
          :  # basis functions                  56          :
          :  # atomic orbitals                  56          :
          :  # shells                           34          :
          :  # electrons                        58          :
          :  max. iterations                   250          :
          :  Hamiltonian                  GFN2-xTB          :
          :  restarted?                      false          :
          :  GBSA solvation                  false          :
          :  PC potential                    false          :
          :  electronic temp.          300.0000000     K    :
          :  accuracy                    1.0000000          :
          :  -> integral cutoff          0.2500000E+02      :
          :  -> integral neglect         0.1000000E-07      :
          :  -> SCF convergence          0.1000000E-05 Eh   :
          :  -> wf. convergence          0.1000000E-03 e    :
          :  Broyden damping             0.4000000          :
          :  net charge                          0          :
          :  unpaired electrons                  0          :
          ...................................................

 iter      E             dE          RMSdq      gap      omega  full diag
   1    -31.9888668 -0.319889E+02  0.385E+00    4.42       0.0  T
   2    -32.0433500 -0.544832E-01  0.209E+00    3.44       1.0  T
   3    -32.0479837 -0.463366E-02  0.133E+00    4.05       1.0  T
   4    -32.0570060 -0.902233E-02  0.194E-01    3.71       1.0  T
   5    -32.0571722 -0.166201E-03  0.856E-02    3.73       1.0  T
   6    -32.0572824 -0.110229E-03  0.416E-02    3.73       1.0  T
   7    -32.0572926 -0.101934E-04  0.158E-02    3.73       1.3  T
   8    -32.0572933 -0.637282E-06  0.354E-03    3.73       5.9  T
   9    -32.0572933 -0.595304E-07  0.159E-03    3.73      13.1  T
  10    -32.0572933 -0.206089E-07  0.853E-04    3.73      24.5  T
  11    -32.0572934 -0.375596E-08  0.258E-04    3.73      80.8  T

   *** convergence criteria satisfied after 11 iterations ***

         #    Occupation            Energy/Eh            Energy/eV
      -------------------------------------------------------------
         1        2.0000           -0.7025202             -19.1165
       ...           ...                  ...                  ...
        23        2.0000           -0.4586724             -12.4811
        24        2.0000           -0.4500938             -12.2477
        25        2.0000           -0.4240629             -11.5393
        26        2.0000           -0.4225041             -11.4969
        27        2.0000           -0.4037464             -10.9865
        28        2.0000           -0.4000608             -10.8862
        29        2.0000           -0.3934420             -10.7061 (HOMO)
        30                         -0.2563438              -6.9755 (LUMO)
        31                         -0.2268234              -6.1722
        32                         -0.2254583              -6.1350
        33                         -0.1016533              -2.7661
        34                          0.0684262               1.8620
       ...                                ...                  ...
        56                          0.6299358              17.1414
      -------------------------------------------------------------
                  HL-Gap            0.1370983 Eh            3.7306 eV
             Fermi-level           -0.3248929 Eh           -8.8408 eV

 SCC (total)                   0 d,  0 h,  0 min,  0.234 sec
 SCC setup                      ...        0 min,  0.005 sec (  2.003%)
 Dispersion                     ...        0 min,  0.010 sec (  4.448%)
 classical contributions        ...        0 min,  0.005 sec (  2.200%)
 integral evaluation            ...        0 min,  0.014 sec (  6.006%)
 iterations                     ...        0 min,  0.162 sec ( 69.341%)
 molecular gradient             ...        0 min,  0.037 sec ( 15.910%)
 printout                       ...        0 min,  0.000 sec (  0.077%)

         :::::::::::::::::::::::::::::::::::::::::::::::::::::
         ::                     SUMMARY                     ::
         :::::::::::::::::::::::::::::::::::::::::::::::::::::
         :: total energy             -31.574400523985 Eh    ::
         :: gradient norm              0.060225965154 Eh/a0 ::
         :: HOMO-LUMO gap              3.730633750806 eV    ::
         ::.................................................::
         :: SCC energy               -32.057090395491 Eh    ::
         :: -> isotropic ES            0.028831596541 Eh    ::
         :: -> anisotropic ES          0.003955542422 Eh    ::
         :: -> anisotropic XC          0.018092329448 Eh    ::
         :: -> dispersion             -0.019219844466 Eh    ::
         :: repulsion energy           0.482689871506 Eh    ::
         :: add. restraining           0.000000000000 Eh    ::
         :: total charge               0.000000000000 e     ::
         :::::::::::::::::::::::::::::::::::::::::::::::::::::

      ----------------------------------------------------------- 
     |                   =====================                   |
     |                        A N C O P T                        |
     |                   =====================                   |
     |               Approximate Normal Coordinate               |
     |                Rational Function Optimizer                |
      ----------------------------------------------------------- 
      ----------------------------------------------------------- 
     |                   =====================                   |
     |                        A N C O P T                        |
     |                   =====================                   |
     |               Approximate Normal Coordinate               |
     |                Rational Function Optimizer                |
      ----------------------------------------------------------- 

          ...................................................
          :                      SETUP                      :
          :.................................................:
          :   optimization level             tight          :
          :   max. optcycles                   500          :
          :   ANC micro-cycles                  20          :
          :   degrees of freedom                63          :
          :.................................................:
          :   RF solver                   davidson          :
          :   write xtbopt.log                true          :
          :   linear?                        false          :
          :   energy convergence         0.1000000E-05 Eh   :
          :   grad. convergence          0.8000000E-03 Eh/α :
          :   maxmium RF displ.          1.0000000          :
          :   Hlow (freq-cutoff)         0.1000000E-01      :
          :   Hmax (freq-cutoff)         5.0000000          :
          :   S6 in model hess.         20.0000000          :
          ...................................................

generating ANC from exact Hessian ...
Using Lindh-Hessian (1995)
 Shifting diagonal of input Hessian by    9.1184233066450363E-003
 Lowest  eigenvalues of input Hessian
    0.000000    0.000000    0.000000    0.000000    0.000000    0.000000
    0.010000    0.010300    0.011871    0.013282    0.016982    0.019776
    0.022956    0.025041    0.027986    0.030017    0.031702    0.034587
 Highest eigenvalues
    1.528987    1.556736    1.832951    1.931036    1.945270    2.039827


........................................................................
.............................. CYCLE    1 ..............................
........................................................................

 iter      E             dE          RMSdq      gap      omega  full diag
   1    -32.0572934 -0.320573E+02  0.918E-05    3.73       0.0  T
   2    -32.0572934 -0.552376E-10  0.576E-05    3.73     361.7  T
   3    -32.0572934 -0.317613E-10  0.312E-05    3.73     668.4  T
     SCC iter.                  ...        0 min,  0.035 sec
     gradient                   ...        0 min,  0.028 sec
 * total energy  :   -31.5744005 Eh     change       -0.7717986E-09 Eh
   gradient norm :     0.0602275 Eh/α   predicted     0.0000000E+00 (-100.00%)
   displ. norm   :     0.1515484 α      lambda       -0.4245886E-02
   maximum displ.:     0.0514767 α      in ANC's #37, #33, #15, ...

........................................................................
.............................. CYCLE    2 ..............................
........................................................................

 iter      E             dE          RMSdq      gap      omega  full diag
   1    -32.0835128 -0.320835E+02  0.133E-01    3.90       0.0  T
   2    -32.0835829 -0.701616E-04  0.781E-02    3.88       1.0  T
   3    -32.0835843 -0.133216E-05  0.341E-02    3.88       1.0  T
   4    -32.0835860 -0.173616E-05  0.719E-03    3.87       2.9  T
   5    -32.0835869 -0.934963E-06  0.320E-03    3.88       6.5  T
   6    -32.0835871 -0.121496E-06  0.961E-04    3.88      21.7  T
   7    -32.0835871 -0.520913E-08  0.506E-04    3.88      41.2  T
     SCC iter.                  ...        0 min,  0.099 sec
     gradient                   ...        0 min,  0.040 sec
 * total energy  :   -31.5770471 Eh     change       -0.2646598E-02 Eh
   gradient norm :     0.0169409 Eh/α   predicted    -0.2171980E-02 ( -17.93%)
   displ. norm   :     0.1018585 α      lambda       -0.5104736E-03
   maximum displ.:     0.0560002 α      in ANC's #1, #10, #6, ...

........................................................................
.............................. CYCLE    3 ..............................
........................................................................

 iter      E             dE          RMSdq      gap      omega  full diag
   1    -32.0909532 -0.320910E+02  0.587E-02    3.93       0.0  T
   2    -32.0909656 -0.124715E-04  0.343E-02    3.92       1.0  T
   3    -32.0909659 -0.224225E-06  0.140E-02    3.92       1.5  T
   4    -32.0909661 -0.215538E-06  0.300E-03    3.92       7.0  T
   5    -32.0909663 -0.180181E-06  0.119E-03    3.92      17.6  T
   6    -32.0909663 -0.220069E-07  0.303E-04    3.92      68.7  T
   7    -32.0909663 -0.308248E-09  0.154E-04    3.92     135.1  T
     SCC iter.                  ...        0 min,  0.107 sec
     gradient                   ...        0 min,  0.031 sec
 * total energy  :   -31.5773441 Eh     change       -0.2970149E-03 Eh
   gradient norm :     0.0040721 Eh/α   predicted    -0.2588904E-03 ( -12.84%)
   displ. norm   :     0.0749521 α      lambda       -0.8145656E-04
   maximum displ.:     0.0554705 α      in ANC's #1, #2, #6, ...

........................................................................
.............................. CYCLE    4 ..............................
........................................................................

 iter      E             dE          RMSdq      gap      omega  full diag
   1    -32.0911428 -0.320911E+02  0.321E-02    3.92       0.0  T
   2    -32.0911433 -0.438093E-06  0.190E-02    3.92       1.1  T
   3    -32.0911431  0.146192E-06  0.332E-03    3.92       6.3  T
   4    -32.0911433 -0.193349E-06  0.966E-04    3.92      21.6  T
   5    -32.0911433 -0.176087E-07  0.391E-04    3.92      53.4  T
     SCC iter.                  ...        0 min,  0.045 sec
     gradient                   ...        0 min,  0.026 sec
 * total energy  :   -31.5774054 Eh     change       -0.6121409E-04 Eh
   gradient norm :     0.0022657 Eh/α   predicted    -0.4095804E-04 ( -33.09%)
   displ. norm   :     0.0978358 α      lambda       -0.6115133E-04
   maximum displ.:     0.0750942 α      in ANC's #1, #2, #6, ...

........................................................................
.............................. CYCLE    5 ..............................
........................................................................

 iter      E             dE          RMSdq      gap      omega  full diag
   1    -32.0903676 -0.320904E+02  0.404E-02    3.91       0.0  T
   2    -32.0903677 -0.145833E-06  0.237E-02    3.91       1.0  T
   3    -32.0903676  0.124182E-06  0.262E-03    3.91       7.9  T
   4    -32.0903678 -0.176170E-06  0.766E-04    3.91      27.2  T
   5    -32.0903678 -0.399893E-08  0.356E-04    3.91      58.6  T
     SCC iter.                  ...        0 min,  0.059 sec
     gradient                   ...        0 min,  0.033 sec
 * total energy  :   -31.5774498 Eh     change       -0.4445673E-04 Eh
   gradient norm :     0.0019932 Eh/α   predicted    -0.3088274E-04 ( -30.53%)
   displ. norm   :     0.1244112 α      lambda       -0.3342638E-04
   maximum displ.:     0.0970851 α      in ANC's #1, #2, #3, ...

........................................................................
.............................. CYCLE    6 ..............................
........................................................................

 iter      E             dE          RMSdq      gap      omega  full diag
   1    -32.0896885 -0.320897E+02  0.471E-02    3.91       0.0  T
   2    -32.0896887 -0.188768E-06  0.276E-02    3.91       1.0  T
   3    -32.0896885  0.254347E-06  0.351E-03    3.91       5.9  T
   4    -32.0896888 -0.326855E-06  0.786E-04    3.91      26.5  T
   5    -32.0896888 -0.455804E-08  0.389E-04    3.91      53.6  T
     SCC iter.                  ...        0 min,  0.058 sec
     gradient                   ...        0 min,  0.048 sec
 * total energy  :   -31.5774896 Eh     change       -0.3975654E-04 Eh
   gradient norm :     0.0025286 Eh/α   predicted    -0.1683001E-04 ( -57.67%)
   displ. norm   :     0.0799445 α      lambda       -0.3313490E-04
   maximum displ.:     0.0595453 α      in ANC's #1, #2, #5, ...

........................................................................
.............................. CYCLE    7 ..............................
........................................................................

 iter      E             dE          RMSdq      gap      omega  full diag
   1    -32.0897617 -0.320898E+02  0.285E-02    3.91       0.0  T
   2    -32.0897617 -0.812595E-07  0.167E-02    3.91       1.2  T
   3    -32.0897616  0.115272E-06  0.245E-03    3.91       8.5  T
   4    -32.0897618 -0.143986E-06  0.389E-04    3.91      53.6  T
   5    -32.0897618 -0.122218E-08  0.217E-04    3.91      96.2  T
     SCC iter.                  ...        0 min,  0.067 sec
     gradient                   ...        0 min,  0.038 sec
 * total energy  :   -31.5775199 Eh     change       -0.3032072E-04 Eh
   gradient norm :     0.0018026 Eh/α   predicted    -0.1667608E-04 ( -45.00%)
   displ. norm   :     0.2269240 α      lambda       -0.5815533E-04
   maximum displ.:     0.1618921 α      in ANC's #1, #2, #5, ...

........................................................................
.............................. CYCLE    8 ..............................
........................................................................

 iter      E             dE          RMSdq      gap      omega  full diag
   1    -32.0899706 -0.320900E+02  0.807E-02    3.92       0.0  T
   2    -32.0899712 -0.561575E-06  0.474E-02    3.92       1.0  T
   3    -32.0899704  0.762430E-06  0.590E-03    3.92       3.5  T
   4    -32.0899714 -0.938999E-06  0.106E-03    3.92      19.6  T
   5    -32.0899714 -0.149450E-07  0.538E-04    3.92      38.8  T
   6    -32.0899714 -0.730743E-09  0.204E-04    3.92     102.2  T
     SCC iter.                  ...        0 min,  0.084 sec
     gradient                   ...        0 min,  0.023 sec
 * total energy  :   -31.5775839 Eh     change       -0.6396992E-04 Eh
   gradient norm :     0.0014747 Eh/α   predicted    -0.2974354E-04 ( -53.50%)
   displ. norm   :     0.1952996 α      lambda       -0.3088748E-04
   maximum displ.:     0.1383484 α      in ANC's #1, #2, #5, ...

........................................................................
.............................. CYCLE    9 ..............................
........................................................................

 iter      E             dE          RMSdq      gap      omega  full diag
   1    -32.0902801 -0.320903E+02  0.683E-02    3.92       0.0  T
   2    -32.0902803 -0.226033E-06  0.402E-02    3.92       1.0  T
   3    -32.0902801  0.204536E-06  0.347E-03    3.92       6.0  T
   4    -32.0902804 -0.291879E-06  0.787E-04    3.92      26.5  T
   5    -32.0902804 -0.130548E-08  0.376E-04    3.92      55.5  T
     SCC iter.                  ...        0 min,  0.050 sec
     gradient                   ...        0 min,  0.027 sec
 * total energy  :   -31.5776156 Eh     change       -0.3178255E-04 Eh
   gradient norm :     0.0016975 Eh/α   predicted    -0.1570660E-04 ( -50.58%)
   displ. norm   :     0.1440658 α      lambda       -0.1935428E-04
   maximum displ.:     0.1031427 α      in ANC's #1, #2, #5, ...

........................................................................
.............................. CYCLE   10 ..............................
........................................................................

 iter      E             dE          RMSdq      gap      omega  full diag
   1    -32.0904741 -0.320905E+02  0.485E-02    3.92       0.0  T
   2    -32.0904742 -0.846626E-07  0.285E-02    3.92       1.0  T
   3    -32.0904741  0.586385E-07  0.185E-03    3.92      11.3  T
   4    -32.0904742 -0.944464E-07  0.607E-04    3.92      34.3  T
   5    -32.0904742 -0.194623E-08  0.305E-04    3.92      68.4  T
     SCC iter.                  ...        0 min,  0.051 sec
     gradient                   ...        0 min,  0.027 sec
 * total energy  :   -31.5776344 Eh     change       -0.1879712E-04 Eh
   gradient norm :     0.0013163 Eh/α   predicted    -0.9767570E-05 ( -48.04%)
   displ. norm   :     0.1076743 α      lambda       -0.1309509E-04
   maximum displ.:     0.0757573 α      in ANC's #1, #2, #5, ...

........................................................................
.............................. CYCLE   11 ..............................
........................................................................

 iter      E             dE          RMSdq      gap      omega  full diag
   1    -32.0906055 -0.320906E+02  0.367E-02    3.92       0.0  T
   2    -32.0906056 -0.579380E-07  0.216E-02    3.92       1.0  T
   3    -32.0906056  0.205847E-07  0.144E-03    3.92      14.5  T
   4    -32.0906056 -0.461749E-07  0.506E-04    3.92      41.2  T
   5    -32.0906056 -0.616325E-09  0.223E-04    3.92      93.4  T
     SCC iter.                  ...        0 min,  0.056 sec
     gradient                   ...        0 min,  0.028 sec
 * total energy  :   -31.5776508 Eh     change       -0.1632252E-04 Eh
   gradient norm :     0.0007982 Eh/α   predicted    -0.6583531E-05 ( -59.67%)
   displ. norm   :     0.2112628 α      lambda       -0.2686773E-04
   maximum displ.:     0.1403332 α      in ANC's #1, #2, #4, ...

........................................................................
.............................. CYCLE   12 ..............................
........................................................................

 iter      E             dE          RMSdq      gap      omega  full diag
   1    -32.0904079 -0.320904E+02  0.773E-02    3.91       0.0  T
   2    -32.0904082 -0.325091E-06  0.455E-02    3.91       1.0  T
   3    -32.0904080  0.226096E-06  0.389E-03    3.91       5.4  T
   4    -32.0904084 -0.396487E-06  0.133E-03    3.91      15.7  T
   5    -32.0904084 -0.469994E-08  0.423E-04    3.91      49.3  T
   6    -32.0904084 -0.837233E-09  0.203E-04    3.91     102.6  T
     SCC iter.                  ...        0 min,  0.059 sec
     gradient                   ...        0 min,  0.025 sec
 * total energy  :   -31.5776814 Eh     change       -0.3064093E-04 Eh
   gradient norm :     0.0014000 Eh/α   predicted    -0.1370271E-04 ( -55.28%)
   displ. norm   :     0.2586227 α      lambda       -0.3083409E-04
   maximum displ.:     0.1575768 α      in ANC's #1, #4, #2, ...

........................................................................
.............................. CYCLE   13 ..............................
........................................................................

 iter      E             dE          RMSdq      gap      omega  full diag
   1    -32.0899713 -0.320900E+02  0.106E-01    3.90       0.0  T
   2    -32.0899720 -0.759871E-06  0.625E-02    3.90       1.0  T
   3    -32.0899713  0.684020E-06  0.641E-03    3.90       3.3  T
   4    -32.0899724 -0.109220E-05  0.203E-03    3.91      10.3  T
   5    -32.0899724 -0.100935E-07  0.653E-04    3.91      31.9  T
   6    -32.0899724 -0.132522E-08  0.334E-04    3.91      62.5  T
     SCC iter.                  ...        0 min,  0.061 sec
     gradient                   ...        0 min,  0.027 sec
 * total energy  :   -31.5777093 Eh     change       -0.2787602E-04 Eh
   gradient norm :     0.0029506 Eh/α   predicted    -0.1587657E-04 ( -43.05%)
   displ. norm   :     0.0711094 α      lambda       -0.2168337E-04
   maximum displ.:     0.0505057 α      in ANC's #4, #1, #3, ...

........................................................................
.............................. CYCLE   14 ..............................
........................................................................

 iter      E             dE          RMSdq      gap      omega  full diag
   1    -32.0903145 -0.320903E+02  0.370E-02    3.91       0.0  T
   2    -32.0903146 -0.110886E-06  0.218E-02    3.91       1.0  T
   3    -32.0903145  0.814559E-07  0.231E-03    3.91       9.0  T
   4    -32.0903147 -0.133944E-06  0.755E-04    3.91      27.6  T
   5    -32.0903147 -0.203259E-08  0.343E-04    3.91      60.7  T
     SCC iter.                  ...        0 min,  0.054 sec
     gradient                   ...        0 min,  0.029 sec
 * total energy  :   -31.5777275 Eh     change       -0.1818995E-04 Eh
   gradient norm :     0.0023200 Eh/α   predicted    -0.1089976E-04 ( -40.08%)
   displ. norm   :     0.1547452 α      lambda       -0.4307646E-04
   maximum displ.:     0.1032671 α      in ANC's #4, #3, #5, ...

........................................................................
.............................. CYCLE   15 ..............................
........................................................................

 iter      E             dE          RMSdq      gap      omega  full diag
   1    -32.0904934 -0.320905E+02  0.832E-02    3.91       0.0  T
   2    -32.0904939 -0.480525E-06  0.489E-02    3.91       1.0  T
   3    -32.0904935  0.351220E-06  0.482E-03    3.91       4.3  T
   4    -32.0904941 -0.599373E-06  0.161E-03    3.91      12.9  T
   5    -32.0904941 -0.789212E-08  0.635E-04    3.91      32.8  T
   6    -32.0904941 -0.241556E-08  0.312E-04    3.91      66.8  T
     SCC iter.                  ...        0 min,  0.061 sec
     gradient                   ...        0 min,  0.027 sec
 * total energy  :   -31.5777570 Eh     change       -0.2955733E-04 Eh
   gradient norm :     0.0012412 Eh/α   predicted    -0.2205616E-04 ( -25.38%)
   displ. norm   :     0.1695578 α      lambda       -0.1711339E-04
   maximum displ.:     0.0971732 α      in ANC's #4, #3, #5, ...

........................................................................
.............................. CYCLE   16 ..............................
........................................................................

 iter      E             dE          RMSdq      gap      omega  full diag
   1    -32.0900218 -0.320900E+02  0.918E-02    3.91       0.0  T
   2    -32.0900224 -0.587153E-06  0.540E-02    3.91       1.0  T
   3    -32.0900220  0.401526E-06  0.533E-03    3.91       3.9  T
   4    -32.0900227 -0.703007E-06  0.178E-03    3.91      11.7  T
   5    -32.0900227 -0.855333E-08  0.700E-04    3.91      29.8  T
   6    -32.0900227 -0.267747E-08  0.332E-04    3.91      62.9  T
     SCC iter.                  ...        0 min,  0.061 sec
     gradient                   ...        0 min,  0.031 sec
 * total energy  :   -31.5777707 Eh     change       -0.1369706E-04 Eh
   gradient norm :     0.0014804 Eh/α   predicted    -0.8667744E-05 ( -36.72%)
   displ. norm   :     0.0634965 α      lambda       -0.8099017E-05
   maximum displ.:     0.0360220 α      in ANC's #5, #2, #4, ...

........................................................................
.............................. CYCLE   17 ..............................
........................................................................

 iter      E             dE          RMSdq      gap      omega  full diag
   1    -32.0907923 -0.320908E+02  0.229E-02    3.92       0.0  T
   2    -32.0907925 -0.198409E-06  0.135E-02    3.92       1.5  T
   3    -32.0907924  0.653619E-07  0.247E-03    3.92       8.4  T
   4    -32.0907925 -0.899369E-07  0.480E-04    3.92      43.4  T
   5    -32.0907925 -0.278873E-08  0.264E-04    3.92      79.0  T
     SCC iter.                  ...        0 min,  0.059 sec
     gradient                   ...        0 min,  0.035 sec
 * total energy  :   -31.5777753 Eh     change       -0.4571677E-05 Eh
   gradient norm :     0.0021244 Eh/α   predicted    -0.4060430E-05 ( -11.18%)
   displ. norm   :     0.0354767 α      lambda       -0.7658940E-05
   maximum displ.:     0.0242452 α      in ANC's #3, #1, #5, ...

........................................................................
.............................. CYCLE   18 ..............................
........................................................................

 iter      E             dE          RMSdq      gap      omega  full diag
   1    -32.0907355 -0.320907E+02  0.213E-02    3.91       0.0  T
   2    -32.0907355 -0.458783E-07  0.125E-02    3.91       1.7  T
   3    -32.0907355  0.337073E-07  0.153E-03    3.91      13.6  T
   4    -32.0907355 -0.496255E-07  0.368E-04    3.91      56.6  T
   5    -32.0907355 -0.494985E-09  0.196E-04    3.91     106.6  T
     SCC iter.                  ...        0 min,  0.046 sec
     gradient                   ...        0 min,  0.030 sec
 * total energy  :   -31.5777815 Eh     change       -0.6204306E-05 Eh
   gradient norm :     0.0011452 Eh/α   predicted    -0.3843651E-05 ( -38.05%)
   displ. norm   :     0.0596105 α      lambda       -0.6367549E-05
   maximum displ.:     0.0379914 α      in ANC's #3, #1, #5, ...

........................................................................
.............................. CYCLE   19 ..............................
........................................................................

 iter      E             dE          RMSdq      gap      omega  full diag
   1    -32.0903855 -0.320904E+02  0.341E-02    3.91       0.0  T
   2    -32.0903856 -0.107478E-06  0.200E-02    3.91       1.0  T
   3    -32.0903855  0.562973E-07  0.214E-03    3.91       9.8  T
   4    -32.0903856 -0.884776E-07  0.526E-04    3.91      39.6  T
   5    -32.0903856 -0.117848E-08  0.293E-04    3.91      71.2  T
     SCC iter.                  ...        0 min,  0.050 sec
     gradient                   ...        0 min,  0.028 sec
 * total energy  :   -31.5777869 Eh     change       -0.5383388E-05 Eh
   gradient norm :     0.0007052 Eh/α   predicted    -0.3191960E-05 ( -40.71%)
   displ. norm   :     0.0199512 α      lambda       -0.1426032E-05
   maximum displ.:     0.0142325 α      in ANC's #1, #3, #4, ...

........................................................................
.............................. CYCLE   20 ..............................
........................................................................

 iter      E             dE          RMSdq      gap      omega  full diag
   1    -32.0904026 -0.320904E+02  0.983E-03    3.91       0.0  T
   2    -32.0904026 -0.483144E-08  0.578E-03    3.91       3.6  T
   3    -32.0904026  0.517754E-08  0.495E-04    3.91      42.1  T
   4    -32.0904026 -0.698432E-08  0.117E-04    3.91     178.9  T
     SCC iter.                  ...        0 min,  0.050 sec
     gradient                   ...        0 min,  0.027 sec
 * total energy  :   -31.5777887 Eh     change       -0.1775168E-05 Eh
   gradient norm :     0.0004116 Eh/α   predicted    -0.7153830E-06 ( -59.70%)
   displ. norm   :     0.0258813 α      lambda       -0.1836216E-05
   maximum displ.:     0.0193532 α      in ANC's #1, #3, #4, ...
 * RMSD in coord.:     0.3371785 α      energy gain  -0.3388130E-02 Eh

generating ANC from exact Hessian ...
Using Lindh-Hessian (1995)
 Shifting diagonal of input Hessian by    8.9942760630325417E-003
 Lowest  eigenvalues of input Hessian
    0.000000    0.000000    0.000000    0.000000    0.000000    0.000000
    0.010000    0.010377    0.011838    0.013543    0.016976    0.020230
    0.024336    0.025923    0.028932    0.030565    0.033060    0.036742
 Highest eigenvalues
    1.583694    1.611228    1.897544    2.001945    2.025851    2.164887


........................................................................
.............................. CYCLE   21 ..............................
........................................................................

 iter      E             dE          RMSdq      gap      omega  full diag
   1    -32.0905584 -0.320906E+02  0.121E-02    3.91       0.0  T
   2    -32.0905585 -0.155328E-07  0.713E-03    3.91       2.9  T
   3    -32.0905584  0.283707E-07  0.116E-03    3.91      17.9  T
   4    -32.0905585 -0.343147E-07  0.167E-04    3.91     124.6  T
   5    -32.0905585 -0.190120E-09  0.906E-05    3.91     230.1  T
     SCC iter.                  ...        0 min,  0.060 sec
     gradient                   ...        0 min,  0.034 sec
 * total energy  :   -31.5777906 Eh     change       -0.1964845E-05 Eh
   gradient norm :     0.0003493 Eh/α   predicted     0.0000000E+00 (-100.00%)
   displ. norm   :     0.0122714 α      lambda       -0.8123922E-06
   maximum displ.:     0.0112318 α      in ANC's #1, #4, #2, ...

........................................................................
.............................. CYCLE   22 ..............................
........................................................................

 iter      E             dE          RMSdq      gap      omega  full diag
   1    -32.0904629 -0.320905E+02  0.518E-03    3.91       0.0  T
   2    -32.0904629 -0.363337E-08  0.305E-03    3.91       6.8  T
   3    -32.0904629  0.209619E-08  0.346E-04    3.91      60.3  T
   4    -32.0904629 -0.272019E-08  0.767E-05    3.91     271.9  T
     SCC iter.                  ...        0 min,  0.053 sec
     gradient                   ...        0 min,  0.040 sec
 * total energy  :   -31.5777917 Eh     change       -0.1127525E-05 Eh
   gradient norm :     0.0001531 Eh/α   predicted    -0.4539563E-06 ( -59.74%)
   displ. norm   :     0.0187617 α      lambda       -0.1058116E-05
   maximum displ.:     0.0156482 α      in ANC's #1, #2, #4, ...

........................................................................
.............................. CYCLE   23 ..............................
........................................................................

 iter      E             dE          RMSdq      gap      omega  full diag
   1    -32.0904157 -0.320904E+02  0.745E-03    3.91       0.0  T
   2    -32.0904157 -0.271457E-08  0.438E-03    3.91       4.8  T
   3    -32.0904157  0.274957E-08  0.364E-04    3.91      57.2  T
   4    -32.0904157 -0.386068E-08  0.968E-05    3.91     215.4  T
     SCC iter.                  ...        0 min,  0.059 sec
     gradient                   ...        0 min,  0.036 sec
 * total energy  :   -31.5777932 Eh     change       -0.1468486E-05 Eh
   gradient norm :     0.0003024 Eh/α   predicted    -0.5299124E-06 ( -63.91%)
   displ. norm   :     0.0281499 α      lambda       -0.1437508E-05
   maximum displ.:     0.0220334 α      in ANC's #1, #2, #5, ...

........................................................................
.............................. CYCLE   24 ..............................
........................................................................

 iter      E             dE          RMSdq      gap      omega  full diag
   1    -32.0904440 -0.320904E+02  0.116E-02    3.91       0.0  T
   2    -32.0904440 -0.523617E-08  0.679E-03    3.91       3.1  T
   3    -32.0904440  0.630929E-08  0.559E-04    3.91      37.3  T
   4    -32.0904440 -0.882103E-08  0.132E-04    3.91     158.1  T
     SCC iter.                  ...        0 min,  0.058 sec
     gradient                   ...        0 min,  0.043 sec
 * total energy  :   -31.5777952 Eh     change       -0.1997522E-05 Eh
   gradient norm :     0.0002310 Eh/α   predicted    -0.7197914E-06 ( -63.97%)
   displ. norm   :     0.0379589 α      lambda       -0.1726608E-05
   maximum displ.:     0.0289365 α      in ANC's #1, #2, #5, ...

........................................................................
.............................. CYCLE   25 ..............................
........................................................................

 iter      E             dE          RMSdq      gap      omega  full diag
   1    -32.0904494 -0.320904E+02  0.160E-02    3.91       0.0  T
   2    -32.0904494 -0.801116E-08  0.941E-03    3.91       2.2  T
   3    -32.0904494  0.682333E-08  0.617E-04    3.91      33.8  T
   4    -32.0904494 -0.108178E-07  0.175E-04    3.91     118.9  T
     SCC iter.                  ...        0 min,  0.062 sec
     gradient                   ...        0 min,  0.040 sec
 * total energy  :   -31.5777976 Eh     change       -0.2347824E-05 Eh
   gradient norm :     0.0001754 Eh/α   predicted    -0.8649596E-06 ( -63.16%)
   displ. norm   :     0.0430130 α      lambda       -0.1702986E-05
   maximum displ.:     0.0326636 α      in ANC's #1, #2, #5, ...

........................................................................
.............................. CYCLE   26 ..............................
........................................................................

 iter      E             dE          RMSdq      gap      omega  full diag
   1    -32.0904756 -0.320905E+02  0.190E-02    3.91       0.0  T
   2    -32.0904756 -0.106380E-07  0.112E-02    3.91       1.9  T
   3    -32.0904756  0.104941E-07  0.730E-04    3.91      28.6  T
   4    -32.0904756 -0.157963E-07  0.189E-04    3.91     110.1  T
     SCC iter.                  ...        0 min,  0.058 sec
     gradient                   ...        0 min,  0.039 sec
 * total energy  :   -31.5777998 Eh     change       -0.2281684E-05 Eh
   gradient norm :     0.0001182 Eh/α   predicted    -0.8527470E-06 ( -62.63%)
   displ. norm   :     0.0417943 α      lambda       -0.1464747E-05
   maximum displ.:     0.0315556 α      in ANC's #1, #2, #3, ...

........................................................................
.............................. CYCLE   27 ..............................
........................................................................

 iter      E             dE          RMSdq      gap      omega  full diag
   1    -32.0904865 -0.320905E+02  0.192E-02    3.91       0.0  T
   2    -32.0904865 -0.915621E-08  0.113E-02    3.91       1.8  T
   3    -32.0904865  0.503505E-08  0.586E-04    3.91      35.6  T
   4    -32.0904865 -0.960546E-08  0.182E-04    3.91     114.6  T
     SCC iter.                  ...        0 min,  0.059 sec
     gradient                   ...        0 min,  0.037 sec
 * total energy  :   -31.5778018 Eh     change       -0.1934721E-05 Eh
   gradient norm :     0.0001539 Eh/α   predicted    -0.7334875E-06 ( -62.09%)
   displ. norm   :     0.0379674 α      lambda       -0.1255502E-05
   maximum displ.:     0.0287612 α      in ANC's #1, #2, #3, ...

........................................................................
.............................. CYCLE   28 ..............................
........................................................................

 iter      E             dE          RMSdq      gap      omega  full diag
   1    -32.0904928 -0.320905E+02  0.182E-02    3.91       0.0  T
   2    -32.0904928 -0.858307E-08  0.107E-02    3.91       2.0  T
   3    -32.0904928  0.878889E-08  0.677E-04    3.91      30.8  T
   4    -32.0904928 -0.134263E-07  0.168E-04    3.91     124.3  T
     SCC iter.                  ...        0 min,  0.043 sec
     gradient                   ...        0 min,  0.031 sec
 * total energy  :   -31.5778035 Eh     change       -0.1693545E-05 Eh
   gradient norm :     0.0001083 Eh/α   predicted    -0.6296106E-06 ( -62.82%)
   displ. norm   :     0.0355616 α      lambda       -0.1118243E-05
   maximum displ.:     0.0267143 α      in ANC's #1, #2, #3, ...

........................................................................
.............................. CYCLE   29 ..............................
........................................................................

 iter      E             dE          RMSdq      gap      omega  full diag
   1    -32.0905108 -0.320905E+02  0.176E-02    3.91       0.0  T
   2    -32.0905108 -0.705560E-08  0.103E-02    3.91       2.0  T
   3    -32.0905108  0.770820E-08  0.620E-04    3.91      33.6  T
   4    -32.0905108 -0.116721E-07  0.142E-04    3.91     146.4  T
     SCC iter.                  ...        0 min,  0.049 sec
     gradient                   ...        0 min,  0.035 sec
 * total energy  :   -31.5778050 Eh     change       -0.1553185E-05 Eh
   gradient norm :     0.0001103 Eh/α   predicted    -0.5601407E-06 ( -63.94%)
   displ. norm   :     0.0387523 α      lambda       -0.1182160E-05
   maximum displ.:     0.0287870 α      in ANC's #1, #2, #3, ...

........................................................................
.............................. CYCLE   30 ..............................
........................................................................

 iter      E             dE          RMSdq      gap      omega  full diag
   1    -32.0905140 -0.320905E+02  0.193E-02    3.91       0.0  T
   2    -32.0905140 -0.817620E-08  0.113E-02    3.91       1.8  T
   3    -32.0905140  0.775658E-08  0.646E-04    3.91      32.3  T
   4    -32.0905140 -0.124114E-07  0.158E-04    3.91     132.2  T
     SCC iter.                  ...        0 min,  0.052 sec
     gradient                   ...        0 min,  0.043 sec
 * total energy  :   -31.5778066 Eh     change       -0.1626355E-05 Eh
   gradient norm :     0.0000882 Eh/α   predicted    -0.5959876E-06 ( -63.35%)
   displ. norm   :     0.0437878 α      lambda       -0.1219854E-05
   maximum displ.:     0.0322865 α      in ANC's #1, #2, #3, ...

........................................................................
.............................. CYCLE   31 ..............................
........................................................................

 iter      E             dE          RMSdq      gap      omega  full diag
   1    -32.0905153 -0.320905E+02  0.219E-02    3.91       0.0  T
   2    -32.0905153 -0.103145E-07  0.128E-02    3.91       1.6  T
   3    -32.0905153  0.109749E-07  0.748E-04    3.91      27.9  T
   4    -32.0905153 -0.169658E-07  0.172E-04    3.91     120.9  T
     SCC iter.                  ...        0 min,  0.063 sec
     gradient                   ...        0 min,  0.036 sec
 * total energy  :   -31.5778083 Eh     change       -0.1622551E-05 Eh
   gradient norm :     0.0000760 Eh/α   predicted    -0.6137704E-06 ( -62.17%)
   displ. norm   :     0.0446338 α      lambda       -0.1046571E-05
   maximum displ.:     0.0329789 α      in ANC's #1, #2, #3, ...

........................................................................
.............................. CYCLE   32 ..............................
........................................................................

 iter      E             dE          RMSdq      gap      omega  full diag
   1    -32.0905183 -0.320905E+02  0.221E-02    3.91       0.0  T
   2    -32.0905183 -0.107747E-07  0.130E-02    3.91       1.6  T
   3    -32.0905183  0.116220E-07  0.774E-04    3.91      26.9  T
   4    -32.0905183 -0.178594E-07  0.177E-04    3.91     118.1  T
     SCC iter.                  ...        0 min,  0.056 sec
     gradient                   ...        0 min,  0.041 sec
 * total energy  :   -31.5778096 Eh     change       -0.1358106E-05 Eh
   gradient norm :     0.0000764 Eh/α   predicted    -0.5274438E-06 ( -61.16%)
   displ. norm   :     0.0382425 α      lambda       -0.7487184E-06
   maximum displ.:     0.0284715 α      in ANC's #1, #2, #3, ...

........................................................................
.............................. CYCLE   33 ..............................
........................................................................

 iter      E             dE          RMSdq      gap      omega  full diag
   1    -32.0905237 -0.320905E+02  0.188E-02    3.91       0.0  T
   2    -32.0905237 -0.778206E-08  0.110E-02    3.91       1.9  T
   3    -32.0905237  0.679664E-08  0.614E-04    3.91      33.9  T
   4    -32.0905237 -0.112435E-07  0.157E-04    3.91     133.2  T
     SCC iter.                  ...        0 min,  0.056 sec
     gradient                   ...        0 min,  0.034 sec
 * total energy  :   -31.5778106 Eh     change       -0.9690375E-06 Eh
   gradient norm :     0.0000863 Eh/α   predicted    -0.3755355E-06 ( -61.25%)
   displ. norm   :     0.0309243 α      lambda       -0.5389397E-06
   maximum displ.:     0.0233355 α      in ANC's #1, #2, #3, ...

   *** GEOMETRY OPTIMIZATION CONVERGED AFTER 33 ITERATIONS ***

------------------------------------------------------------------------
 total energy gain   :        -0.0034101 Eh       -2.1399 kcal/mol
 total RMSD          :         0.3600560 a0        0.1905 Å
 total power (kW/mol):        -0.2713076 (step)   -2.2032 (real)
------------------------------------------------------------------------

 ANCopt (total)                0 d,  0 h,  0 min,  4.064 sec
 optimizer setup                ...        0 min,  0.001 sec (  0.016%)
 model hessian                  ...        0 min,  0.024 sec (  0.590%)
 ANC generation                 ...        0 min,  0.002 sec (  0.043%)
 coordinate transformation      ...        0 min,  0.000 sec (  0.008%)
 single point calculation       ...        0 min,  3.909 sec ( 96.201%)
 optimization log               ...        0 min,  0.003 sec (  0.081%)
 hessian update                 ...        0 min,  0.117 sec (  2.873%)
 rational function              ...        0 min,  0.003 sec (  0.070%)

================
 final structure:
================
23
 xtb: 6.7.1 (edcfbbe)
C           -2.05351873840448        1.08894632184299        0.68772565070137
C           -2.27518343560503       -0.03705121210404       -0.28645197498230
O           -2.88680873414971        0.09567325429746       -1.31588349276646
C           -1.64367013114479       -1.35789381286383        0.10811814824618
C           -0.42071006920209       -1.63133941571828       -0.78946335700469
C            0.65982808256582       -0.61694963792264       -0.54510419436893
C            1.53464659410175       -0.76607047938964        0.52429314779460
C            2.50559830793610        0.18578826111775        0.78000579880985
C            2.61285374339501        1.30243674756471       -0.03159349065692
C            1.74582594471949        1.46037982175869       -1.09949897525287
C            0.77536165651693        0.50707133828488       -1.35341763689966
H           -2.50512346986987        0.83506064684598        1.64485197164420
H           -2.49185533020859        2.00956659304909        0.31188318418315
H           -0.98468093211961        1.22547801282365        0.84258633965269
H           -1.34057923577390       -1.34616745524184        1.15488269337326
H           -2.37459067520141       -2.15296942323096       -0.05092605446586
H           -0.74103699958002       -1.59622589649062       -1.83191921328327
H           -0.04581038629159       -2.63387151732258       -0.57293948020110
H            1.45605752315076       -1.63793344272316        1.15893722005131
H            3.18081489022736        0.05549625009282        1.61325458024908
H            3.37094369613492        2.04566641680624        0.16652283679522
H            1.82532377109082        2.32879024115969       -1.73684569302742
H            0.09631392770876        0.63611838736262       -2.18393499002008

 Bond Distances (Angstroems)
 ---------------------------
C1-C2=1.5053         C1-H12=1.0883        C1-H13=1.0867        C1-H14=1.0886        C2-C1=1.5053         C2-O3=1.2048         
C2-C4=1.5163         O3-C2=1.2048         C4-C2=1.5163         C4-C5=1.5414         C4-H15=1.0898        C4-H16=1.0916        
C5-C4=1.5414         C5-C6=1.5021         C5-H17=1.0911        C5-H18=1.0920        C6-C5=1.5021         C6-C7=1.3897         
C6-C11=1.3893        C7-C6=1.3897         C7-C8=1.3835         C7-H19=1.0812        C8-C7=1.3835         C8-C9=1.3846         
C8-H20=1.0804        C9-C8=1.3846         C9-C10=1.3846        C9-H21=1.0800        C10-C9=1.3846        C10-C11=1.3839       
C10-H22=1.0801       C11-C6=1.3893        C11-C10=1.3839       C11-H23=1.0805       H12-C1=1.0883        H13-C1=1.0867        
H14-C1=1.0886        H15-C4=1.0898        H16-C4=1.0916        H17-C5=1.0911        H18-C5=1.0920        H19-C7=1.0812        
H20-C8=1.0804        H21-C9=1.0800        H22-C10=1.0801       H23-C11=1.0805       
 C  H  Rav=1.0859 sigma=0.0048  Rmin=1.0800  Rmax=1.0920    12
 C  C  Rav=1.4381 sigma=0.0646  Rmin=1.3835  Rmax=1.5414    10
 O  C  Rav=1.2048 sigma=0.0000  Rmin=1.2048  Rmax=1.2048     1

 selected bond angles (degree)
 --------------------
H12-C1-C2=109.48               H13-C1-C2=110.52               H13-C1-H12=109.54              H14-C1-C2=109.30               
H14-C1-H12=108.15              H14-C1-H13=109.82              O3-C2-C1=123.05                C4-C2-C1=114.95                
C4-C2-O3=121.99                C5-C4-C2=109.48                H15-C4-C2=110.88               H15-C4-C5=109.91               
H16-C4-C2=108.52               H16-C4-C5=108.49               H16-C4-H15=109.51              C6-C5-C4=110.87                
H17-C5-C4=108.52               H17-C5-C6=110.17               H18-C5-C4=108.65               H18-C5-C6=109.92               
H18-C5-H17=108.65              C7-C6-C5=120.37                C11-C6-C5=120.77               C11-C6-C7=118.83               
C8-C7-C6=120.68                H19-C7-C6=119.50               H19-C7-C8=119.82               C9-C8-C7=120.06                
H20-C8-C7=119.88               H20-C8-C9=120.06               C10-C9-C8=119.71               H21-C9-C8=120.12               
H21-C9-C10=120.17              C11-C10-C9=120.14              H22-C10-C9=120.05              H22-C10-C11=119.81             

 selected dihedral angles (degree)
 ---------------------------------
O3-C2-C1-H12=119.12           O3-C2-C1-H13=358.39           O3-C2-C1-H14=237.42           C4-C2-C1-H12=297.90           
C4-C2-C1-H13=177.16           C4-C2-C1-H14= 56.19           C5-C4-C2-C1=252.85            C5-C4-C2-O3= 71.64            
H15-C4-C2-C1= 14.29           H15-C4-C2-O3=193.07           H16-C4-C2-C1=134.60           H16-C4-C2-O3=313.39           
C6-C5-C4-C2= 65.51            C6-C5-C4-H15=303.50           C6-C5-C4-H16=183.78           H17-C5-C4-C2=304.39           
H17-C5-C4-H15=182.37          H17-C5-C4-H16= 62.65          H18-C5-C4-C2=186.42           H18-C5-C4-H15= 64.40          
H18-C5-C4-H16=304.68          C7-C6-C5-C4= 82.18            C7-C6-C5-H17=202.33           C7-C6-C5-H18=322.04           
C11-C6-C5-C4=264.35           C11-C6-C5-H17= 24.50          C11-C6-C5-H18=144.21          C8-C7-C6-C5=182.03            
C8-C7-C6-C11=359.90           H19-C7-C6-C5=  2.28           H19-C7-C6-C11=180.15          C9-C8-C7-C6=  0.09            
C9-C8-C7-H19=179.83           H20-C8-C7-C6=180.17           H20-C8-C7-H19=359.92          C10-C9-C8-C7=359.92           
C10-C9-C8-H20=179.84          H21-C9-C8-C7=180.05           H21-C9-C8-H20=359.97          C11-C10-C9-C8=  0.08          
C11-C10-C9-H21=179.95         H22-C10-C9-C8=180.07          H22-C10-C9-H21=359.94         
           -------------------------------------------------
          |                Final Singlepoint                |
           -------------------------------------------------

          ...................................................
          :                      SETUP                      :
          :.................................................:
          :  # basis functions                  56          :
          :  # atomic orbitals                  56          :
          :  # shells                           34          :
          :  # electrons                        58          :
          :  max. iterations                   250          :
          :  Hamiltonian                  GFN2-xTB          :
          :  restarted?                      false          :
          :  GBSA solvation                  false          :
          :  PC potential                    false          :
          :  electronic temp.          300.0000000     K    :
          :  accuracy                    1.0000000          :
          :  -> integral cutoff          0.2500000E+02      :
          :  -> integral neglect         0.1000000E-07      :
          :  -> SCF convergence          0.1000000E-05 Eh   :
          :  -> wf. convergence          0.1000000E-03 e    :
          :  Broyden damping             0.4000000          :
          :  net charge                          0          :
          :  unpaired electrons                  0          :
          ...................................................

 iter      E             dE          RMSdq      gap      omega  full diag
   1    -32.0905237 -0.320905E+02  0.343E-05    3.91       0.0  T
   2    -32.0905237 -0.816414E-11  0.210E-05    3.91     994.0  T
   3    -32.0905237 -0.422062E-11  0.119E-05    3.91    1751.2  T

   *** convergence criteria satisfied after 3 iterations ***

         #    Occupation            Energy/Eh            Energy/eV
      -------------------------------------------------------------
         1        2.0000           -0.7091473             -19.2969
       ...           ...                  ...                  ...
        23        2.0000           -0.4611586             -12.5488
        24        2.0000           -0.4521260             -12.3030
        25        2.0000           -0.4255751             -11.5805
        26        2.0000           -0.4232397             -11.5169
        27        2.0000           -0.4070647             -11.0768
        28        2.0000           -0.4016422             -10.9292
        29        2.0000           -0.3930022             -10.6941 (HOMO)
        30                         -0.2492782              -6.7832 (LUMO)
        31                         -0.2256939              -6.1414
        32                         -0.2241482              -6.0994
        33                         -0.0969187              -2.6373
        34                          0.0785018               2.1361
       ...                                ...                  ...
        56                          0.6608818              17.9835
      -------------------------------------------------------------
                  HL-Gap            0.1437241 Eh            3.9109 eV
             Fermi-level           -0.3211402 Eh           -8.7387 eV

 SCC (total)                   0 d,  0 h,  0 min,  0.099 sec
 SCC setup                      ...        0 min,  0.004 sec (  3.836%)
 Dispersion                     ...        0 min,  0.007 sec (  6.800%)
 classical contributions        ...        0 min,  0.004 sec (  3.726%)
 integral evaluation            ...        0 min,  0.012 sec ( 12.216%)
 iterations                     ...        0 min,  0.036 sec ( 36.937%)
 molecular gradient             ...        0 min,  0.036 sec ( 36.334%)
 printout                       ...        0 min,  0.000 sec (  0.123%)

         :::::::::::::::::::::::::::::::::::::::::::::::::::::
         ::                     SUMMARY                     ::
         :::::::::::::::::::::::::::::::::::::::::::::::::::::
         :: total energy             -31.577810598972 Eh    ::
         :: gradient norm              0.000086492206 Eh/a0 ::
         :: HOMO-LUMO gap              3.910930775217 eV    ::
         ::.................................................::
         :: SCC energy               -32.090323440772 Eh    ::
         :: -> isotropic ES            0.027545200662 Eh    ::
         :: -> anisotropic ES          0.003669584871 Eh    ::
         :: -> anisotropic XC          0.017315372046 Eh    ::
         :: -> dispersion             -0.019962018866 Eh    ::
         :: repulsion energy           0.512512841800 Eh    ::
         :: add. restraining           0.000000000000 Eh    ::
         :: total charge              -0.000000000000 e     ::
         :::::::::::::::::::::::::::::::::::::::::::::::::::::

           -------------------------------------------------
          |                Property Printout                |
           -------------------------------------------------

    * Orbital Energies and Occupations

         #    Occupation            Energy/Eh            Energy/eV
      -------------------------------------------------------------
         1        2.0000           -0.7091473             -19.2969
       ...           ...                  ...                  ...
        17        2.0000           -0.4918858             -13.3849
        18        2.0000           -0.4841619             -13.1747
        19        2.0000           -0.4817126             -13.1081
        20        2.0000           -0.4792611             -13.0414
        21        2.0000           -0.4770494             -12.9812
        22        2.0000           -0.4663991             -12.6914
        23        2.0000           -0.4611586             -12.5488
        24        2.0000           -0.4521260             -12.3030
        25        2.0000           -0.4255751             -11.5805
        26        2.0000           -0.4232397             -11.5169
        27        2.0000           -0.4070647             -11.0768
        28        2.0000           -0.4016422             -10.9292
        29        2.0000           -0.3930022             -10.6941 (HOMO)
        30                         -0.2492782              -6.7832 (LUMO)
        31                         -0.2256939              -6.1414
        32                         -0.2241482              -6.0994
        33                         -0.0969187              -2.6373
        34                          0.0785018               2.1361
        35                          0.0919559               2.5022
        36                          0.1155090               3.1432
        37                          0.1225872               3.3358
        38                          0.1403461               3.8190
        39                          0.1459578               3.9717
        40                          0.1569333               4.2704
       ...                                ...                  ...
        56                          0.6608818              17.9835
      -------------------------------------------------------------
                  HL-Gap            0.1437241 Eh            3.9109 eV
             Fermi-level           -0.3211402 Eh           -8.7387 eV

     #   Z          covCN         q      C6AA      α(0)
     1   6 C        3.753    -0.139    23.236     6.874
     2   6 C        2.812     0.244    22.909     7.842
     3   8 O        0.857    -0.358    20.855     6.123
     4   6 C        3.804    -0.084    22.098     6.692
     5   6 C        3.810    -0.056    21.580     6.613
     6   6 C        2.970     0.010    27.797     8.648
     7   6 C        2.925    -0.039    28.972     8.827
     8   6 C        2.919    -0.032    28.787     8.798
     9   6 C        2.920    -0.033    28.831     8.805
    10   6 C        2.919    -0.030    28.753     8.793
    11   6 C        2.924    -0.038    28.939     8.822
    12   1 H        0.925     0.064     2.155     2.295
    13   1 H        0.925     0.066     2.134     2.284
    14   1 H        0.925     0.067     2.114     2.274
    15   1 H        0.925     0.044     2.394     2.420
    16   1 H        0.924     0.062     2.178     2.308
    17   1 H        0.924     0.053     2.286     2.365
    18   1 H        0.924     0.044     2.391     2.418
    19   1 H        0.925     0.029     2.607     2.525
    20   1 H        0.926     0.029     2.596     2.520
    21   1 H        0.926     0.030     2.591     2.517
    22   1 H        0.926     0.032     2.562     2.503
    23   1 H        0.926     0.036     2.508     2.477

 Mol. C6AA /au·bohr⁶  :       5476.568180
 Mol. C8AA /au·bohr⁸  :     128803.769857
 Mol. α(0) /au        :        115.742761


Wiberg/Mayer (AO) data.
largest (>0.10) Wiberg bond orders for each atom

 ---------------------------------------------------------------------------
     #   Z sym  total        # sym  WBO       # sym  WBO       # sym  WBO
 ---------------------------------------------------------------------------
     1   6 C    3.995 --     2 C    1.008    13 H    0.983    12 H    0.960
                            14 H    0.959
     2   6 C    3.917 --     3 O    1.869     1 C    1.008     4 C    0.984
     3   8 O    2.073 --     2 C    1.869
     4   6 C    3.996 --     2 C    0.984    15 H    0.978     5 C    0.964
                            16 H    0.961
     5   6 C    3.994 --     6 C    1.013    17 H    0.974    18 H    0.970
                             4 C    0.964
     6   6 C    3.989 --    11 C    1.412     7 C    1.412     5 C    1.013
                             9 C    0.110
     7   6 C    3.992 --     8 C    1.446     6 C    1.412    19 H    0.970
                            10 C    0.111
     8   6 C    3.993 --     7 C    1.446     9 C    1.438    20 H    0.971
                            11 C    0.111
     9   6 C    3.992 --    10 C    1.439     8 C    1.438    21 H    0.972
                             6 C    0.110
    10   6 C    3.993 --    11 C    1.445     9 C    1.439    22 H    0.971
                             7 C    0.111
    11   6 C    3.992 --    10 C    1.445     6 C    1.412    23 H    0.969
                             8 C    0.111
    12   1 H    0.996 --     1 C    0.960
    13   1 H    0.996 --     1 C    0.983
    14   1 H    0.995 --     1 C    0.959
    15   1 H    0.998 --     4 C    0.978
    16   1 H    0.996 --     4 C    0.961
    17   1 H    0.997 --     5 C    0.974
    18   1 H    0.998 --     5 C    0.970
    19   1 H    0.999 --     7 C    0.970
    20   1 H    0.999 --     8 C    0.971
    21   1 H    0.999 --     9 C    0.972
    22   1 H    0.999 --    10 C    0.971
    23   1 H    0.999 --    11 C    0.969
 ---------------------------------------------------------------------------

Topologies differ in total number of bonds
Writing topology from bond orders to xtbtopo.mol

molecular dipole:
                 x           y           z       tot (Debye)
 q only:        0.531      -0.172       0.824
   full:        0.623      -0.201       1.006       3.052
molecular quadrupole (traceless):
                xx          xy          yy          xz          yz          zz
 q only:       -5.501       1.202       5.319      -6.720       0.598       0.183
  q+dip:       -7.051       3.157       6.784      -5.762      -1.387       0.267
   full:       -6.122       2.245       6.113      -7.958      -0.214       0.009

           -------------------------------------------------
          |                Geometry Summary                 |
           -------------------------------------------------

      molecular mass/u    :      148.2020529
   center of mass at/Å    :       -0.0365482       0.0197241      -0.3010692
  moments of inertia/u·Å² :        0.2468366E+03   0.6746739E+03   0.7354666E+03
rotational constants/cm⁻¹ :        0.6829471E-01   0.2498634E-01   0.2292100E-01

 * 19 selected distances

     #   Z          #   Z                                           value/Å
     2   6 C        3   8 O                                       1.2047534
     6   6 C        7   6 C                                       1.3896602 (max)
     7   6 C        8   6 C                                       1.3835359
     8   6 C        9   6 C                                       1.3845943
     9   6 C       10   6 C                                       1.3845959
     6   6 C       11   6 C                                       1.3892956
    10   6 C       11   6 C                                       1.3838616
     1   6 C       12   1 H                                       1.0883454
     1   6 C       13   1 H                                       1.0867099
     1   6 C       14   1 H                                       1.0885941
     4   6 C       15   1 H                                       1.0898247
     4   6 C       16   1 H                                       1.0916434
     5   6 C       17   1 H                                       1.0911264
     5   6 C       18   1 H                                       1.0920179
     7   6 C       19   1 H                                       1.0812468
     8   6 C       20   1 H                                       1.0803690
     9   6 C       21   1 H                                       1.0799727 (min)
    10   6 C       22   1 H                                       1.0801239
    11   6 C       23   1 H                                       1.0805176

 * 3 distinct bonds (by element types)

   Z      Z             #   av. dist./Å        max./Å        min./Å
   1 H    6 C          12     1.0858743     1.0920179     1.0799727
   6 C    6 C           6     1.3859239     1.3896602     1.3835359
   6 C    8 O           1     1.2047534     1.2047534     1.2047534


optimized geometry written to: xtbopt.xyz


           -------------------------------------------------
          | TOTAL ENERGY              -31.577810598972 Eh   |
          | GRADIENT NORM               0.000086492206 Eh/α |
          | HOMO-LUMO GAP               3.910930775217 eV   |
           -------------------------------------------------

------------------------------------------------------------------------
 * finished run on 2026/07/08 at 10:03:25.080     
------------------------------------------------------------------------
 total:
 * wall-time:     0 d,  0 h,  0 min,  4.463 sec
 *  cpu-time:     0 d,  0 h,  1 min, 11.214 sec
 * ratio c/w:    15.956 speedup
 SCF:
 * wall-time:     0 d,  0 h,  0 min,  0.234 sec
 *  cpu-time:     0 d,  0 h,  0 min,  3.739 sec
 * ratio c/w:    15.966 speedup
 ANC optimizer:
 * wall-time:     0 d,  0 h,  0 min,  4.168 sec
 *  cpu-time:     0 d,  0 h,  1 min,  6.519 sec
 * ratio c/w:    15.961 speedup

