26
DEC_00173 MMFF geometry for GFN2-xTB preoptimization
C  -4.475454360772 -0.049098657635 -0.832337172111
C  -3.292628430770 -0.559810907965 -0.025137474422
C  -2.005286243776  0.177927998569 -0.390110740098
C  -0.819228977899 -0.337786151047  0.422762932517
C   0.461931543769  0.382265513704  0.071938974422
O   0.570522964090  1.276524294063 -0.754090106439
O   1.480992118500 -0.124423907849  0.823400658175
C   2.779675951613  0.457965462049  0.605260070430
C   3.448474096646 -0.217639931889 -0.586516188149
C   3.590774199145  0.235667154559  1.876038516357
H  -5.385453859600 -0.590438372011 -0.555275702903
H  -4.309005284639 -0.190991005130 -1.904951098015
H  -4.644919891193  1.016675651360 -0.648636978184
H  -3.170554410004 -1.634004898165 -0.206538781436
H  -3.504609923692 -0.432959278812  1.042885696703
H  -1.799915986351  0.055788416142 -1.461037534463
H  -2.133103642315  1.253559490021 -0.215045306360
H  -0.674428875672 -1.406390166764  0.228241665058
H  -1.011424787944 -0.191451162785  1.491552951819
H   2.692451422513  1.537820795561  0.434105620352
H   4.458777776557  0.171230699580 -0.746538785307
H   3.508049209547 -1.301699481653 -0.439211422616
H   2.869512203666 -0.057591078627 -1.501830959165
H   4.597330185951  0.654985192831  1.784469537025
H   3.093587512986  0.705693620967  2.731542691871
H   3.673935489644 -0.831819289073  2.108722794226
