20
 energy: -31.437135763466 gnorm: 0.000158946138 xtb: 6.7.1 (edcfbbe)
C            3.03062085609046       -0.07129902707281        0.03187889555054
C            1.70654425379200       -0.47103819559737       -0.60709841554965
O            1.55934122180994        0.02768406292778       -1.92336068035691
C            0.53369489392135       -0.05306798384563        0.30201684582891
O            0.57418175083287       -0.16587750408978        1.50867275226858
N           -0.51964310933314        0.43400337430280       -0.38002726208973
C           -1.76475573889779        0.80676305179067        0.24861314745390
C           -2.80970886914454       -0.31608623160994        0.16144963286846
O           -3.19083251136747       -0.60169575645351       -1.16268517148694
H            3.11443951923188        1.01453278568871        0.06958478753870
H            3.06351499148953       -0.45271146920564        1.04801186985251
H            3.86618307298568       -0.47416104802754       -0.53508532088679
H            1.65641860393552       -1.56349326657180       -0.70160115773970
H            1.91310992553490        0.92480201877132       -1.94809004163906
H           -0.45639643133405        0.43880106261469       -1.38895466512556
H           -1.54850226021109        1.01013821339536        1.29939381783508
H           -2.15203640963568        1.70712359097645       -0.23435738319615
H           -2.41725039222911       -1.21249406833567        0.65873672421097
H           -3.72112095279451        0.00029720324341        0.67228230179120
H           -2.43780241467531       -0.98222081290105       -1.62845073409413
