23
DEC_00214 MMFF geometry for GFN2-xTB preoptimization
C  -3.725964015371 -0.377006524413 -0.917923770480
C  -2.756471453900 -0.445436419243  0.248776956886
C  -1.448447436732  0.240141565780 -0.061786688396
O  -1.180389116841  0.833184148974 -1.096702740886
O  -0.604225161150  0.113245349724  1.002077841284
C   0.709656714885  0.646145271333  0.778007439061
C   1.407493683719  0.696784402290  2.130548892173
C   1.520270345808 -0.228619458500 -0.182806366680
O   1.201835712531 -1.354248055223 -0.547169361109
O   2.658930408991  0.421830550312 -0.563626094140
C   3.465969657789 -0.315450340206 -1.482541635212
H  -3.304251247624 -0.855654067652 -1.808038051728
H  -3.958976438013  0.661598612634 -1.175264748481
H  -4.661801916484 -0.885408311155 -0.666449096262
H  -3.203111735988  0.039620779840  1.122973873563
H  -2.550150004644 -1.494418446175  0.486222590171
H   0.629187076417  1.660890831682  0.368938426268
H   1.501060014617 -0.307513747930  2.559524320464
H   0.825307048561  1.293508969152  2.840884948031
H   2.410569749825  1.127390172851  2.051630459809
H   3.818226197134 -1.244049280046 -1.022668615645
H   4.335827382559  0.296796591504 -1.735993972059
H   2.909454533912 -0.523332595534 -2.401837250395
