34
REP_00214 MMFF geometry for GFN2-xTB preoptimization
C   4.350558606042  1.419858762894 -0.342471740194
C   3.004452982642  1.378750481837  0.364123704349
C   2.053408990556  0.376292097539 -0.300396429057
C   0.682159554669  0.342733072960  0.392875985070
O   0.854996436874 -0.185550559778  1.707185960938
C  -0.388697872517 -0.468167474421 -0.395974864254
C   0.008255142905 -1.965776852149 -0.490582625768
C  -0.918933728828 -2.801785059452 -1.364573186593
C  -1.806912045455 -0.299768582073  0.222703390618
O  -1.780347576848 -0.746913410988  1.580830891164
C  -2.319104176817  1.148371647327  0.174234254800
C  -3.801074537386  1.251509679466  0.517295176669
H   4.235160837510  1.718004732857 -1.389420259160
H   5.012626868566  2.142117189485  0.145303554146
H   4.837891715968  0.440021838621 -0.315478365388
H   3.161461183217  1.111580190556  1.415317307291
H   2.560199468858  2.380714915190  0.346110523383
H   1.927337866028  0.643459845882 -1.356213166961
H   2.525335411517 -0.611879815627 -0.255312845322
H   0.343129947384  1.377620895875  0.503134549173
H  -0.040718281908 -0.431512229555  2.025636359132
H  -0.426364109312 -0.068543503112 -1.418644556995
H   1.010907220461 -2.049763446249 -0.922974956156
H   0.057816545582 -2.417512070804  0.506935427815
H  -0.486659237347 -3.795534804633 -1.522154289188
H  -1.896623475147 -2.945690075359 -0.896556417934
H  -1.062950582667 -2.336837137459 -2.344744275185
H  -2.516357203854 -0.930621239024 -0.322521634896
H  -2.703665189373 -0.869868347026  1.866007319387
H  -1.774553763146  1.773590550942  0.890142781402
H  -2.164000665517  1.564398139313 -0.827666831449
H  -4.135678059479  2.290025971733  0.427734869968
H  -4.404800753448  0.642042347987 -0.162531897874
H  -3.998257519727  0.924632247244  1.542646287071
