      -----------------------------------------------------------      
     |                   =====================                   |     
     |                           x T B                           |     
     |                   =====================                   |     
     |                         S. Grimme                         |     
     |          Mulliken Center for Theoretical Chemistry        |     
     |                    University of Bonn                     |     
      -----------------------------------------------------------      

   * xtb version 6.7.1 (edcfbbe) compiled by 'conda@5dfe00f5fb80' on 2026-06-10

   xtb is free software: you can redistribute it and/or modify it under
   the terms of the GNU Lesser General Public License as published by
   the Free Software Foundation, either version 3 of the License, or
   (at your option) any later version.
   
   xtb is distributed in the hope that it will be useful,
   but WITHOUT ANY WARRANTY; without even the implied warranty of
   MERCHANTABILITY or FITNESS FOR A PARTICULAR PURPOSE.  See the
   GNU Lesser General Public License for more details.
   
   Cite this work as:
   * C. Bannwarth, E. Caldeweyher, S. Ehlert, A. Hansen, P. Pracht,
     J. Seibert, S. Spicher, S. Grimme, WIREs Comput. Mol. Sci., 2020, 11,
     e01493. DOI: 10.1002/wcms.1493
   
   for GFN2-xTB:
   * C. Bannwarth, S. Ehlert and S. Grimme., J. Chem. Theory Comput., 2019,
     15, 1652-1671. DOI: 10.1021/acs.jctc.8b01176
   for GFN1-xTB:
   * S. Grimme, C. Bannwarth, P. Shushkov, J. Chem. Theory Comput., 2017,
     13, 1989-2009. DOI: 10.1021/acs.jctc.7b00118
   for GFN0-xTB:
   * P. Pracht, E. Caldeweyher, S. Ehlert, S. Grimme, ChemRxiv, 2019, preprint.
     DOI: 10.26434/chemrxiv.8326202.v1
   for GFN-FF:
   * S. Spicher and S. Grimme, Angew. Chem. Int. Ed., 2020, 59, 15665-15673.
     DOI: 10.1002/anie.202004239
   
   for ALPB and GBSA implicit solvation:
   * S. Ehlert, M. Stahn, S. Spicher, S. Grimme, J. Chem. Theory Comput.,
     2021, 17, 4250-4261. DOI: 10.1021/acs.jctc.1c00471
   
   for ddCOSMO and CPCM-X implicit solvation:
   * M. Stahn, S. Ehlert, S. Grimme, J. Phys. Chem. A,
     2023, XX, XXXX-XXXX. DOI: 10.1021/acs.jpca.3c04382
   
   for DFT-D4:
   * E. Caldeweyher, C. Bannwarth and S. Grimme, J. Chem. Phys., 2017,
     147, 034112. DOI: 10.1063/1.4993215
   * E. Caldeweyher, S. Ehlert, A. Hansen, H. Neugebauer, S. Spicher,
     C. Bannwarth and S. Grimme, J. Chem. Phys., 2019, 150, 154122.
     DOI: 10.1063/1.5090222
   * E. Caldeweyher, J.-M. Mewes, S. Ehlert and S. Grimme, Phys. Chem. Chem. Phys.
     2020, 22, 8499-8512. DOI: 10.1039/D0CP00502A
   
   for sTDA-xTB:
   * S. Grimme and C. Bannwarth, J. Chem. Phys., 2016, 145, 054103.
     DOI: 10.1063/1.4959605
   
   in the mass-spec context:
   * V. Asgeirsson, C. Bauer and S. Grimme, Chem. Sci., 2017, 8, 4879.
     DOI: 10.1039/c7sc00601b
   * J. Koopman and S. Grimme, ACS Omega 2019, 4, 12, 15120-15133.
     DOI: 10.1021/acsomega.9b02011
   
   for metadynamics refer to:
   * S. Grimme, J. Chem. Theory Comput., 2019, 155, 2847-2862
     DOI: 10.1021/acs.jctc.9b00143
   
   for SPH calculations refer to:
   * S. Spicher and S. Grimme, J. Chem. Theory Comput., 2021, 17, 1701-1714
     DOI: 10.1021/acs.jctc.0c01306
   
   for ONIOM refer to:
   * C. Plett, A. Katbashev, S. Ehlert, S. Grimme, M. Bursch,
     Phys. Chem. Chem. Phys., 2023, 25, 17860-17868. DOI: 10.1039/D3CP02178E
   
   for DIPRO refer to:
   * J. Kohn, N. Gildemeister, S. Grimme, D. Fazzi, A. Hansen,
     J. Chem. Phys., 2023, just accepted.
   
   for PTB refer to:
   * S. Grimme, M. Mueller, A. Hansen, J. Chem. Phys., 2023, 158, 124111.
     DOI: 10.1063/5.0137838
   
   with help from (in alphabetical order)
   P. Atkinson, C. Bannwarth, F. Bohle, G. Brandenburg, E. Caldeweyher
   M. Checinski, S. Dohm, S. Ehlert, S. Ehrlich, I. Gerasimov, C. Hölzer
   A. Katbashev, J. Kohn, J. Koopman, C. Lavigne, S. Lehtola, F. März, M. Müller,
   F. Musil, H. Neugebauer, J. Pisarek, C. Plett, P. Pracht, F. Pultar,
   J. Seibert, P. Shushkov, S. Spicher, M. Stahn, M. Steiner, T. Strunk,
   J. Stückrath, T. Rose, and J. Unsleber
   
 * started run on 2026/07/08 at 17:59:17.195     
   ID    Z sym.   atoms
    1    6 C      1, 2, 4-6
    2    8 O      3, 7
    3    1 H      8-19

           -------------------------------------------------
          |                Calculation Setup                |
           -------------------------------------------------

          program call               : /home/ws/xd2484/miniforge3/envs/p3z_dft/bin/xtb xtb_input.xyz --gfn 2 --opt tight --cycles 500 --chrg 0 --uhf 0
          hostname                   : gpu10
          coordinate file            : xtb_input.xyz
          omp threads                :                    16


           -------------------------------------------------
          |                 G F N 2 - x T B                 |
           -------------------------------------------------

        Reference                      10.1021/acs.jctc.8b01176
      * Hamiltonian:
        H0-scaling (s, p, d)           1.850000    2.230000    2.230000
        zeta-weighting                 0.500000
      * Dispersion:
        s8                             2.700000
        a1                             0.520000
        a2                             5.000000
        s9                             5.000000
      * Repulsion:
        kExp                           1.500000    1.000000
        rExp                           1.000000
      * Coulomb:
        alpha                          2.000000
        third order                    shell-resolved
        anisotropic                    true
        a3                             3.000000
        a5                             4.000000
        cn-shift                       1.200000
        cn-exp                         4.000000
        max-rad                        5.000000


          ...................................................
          :                      SETUP                      :
          :.................................................:
          :  # basis functions                  40          :
          :  # atomic orbitals                  40          :
          :  # shells                           26          :
          :  # electrons                        44          :
          :  max. iterations                   250          :
          :  Hamiltonian                  GFN2-xTB          :
          :  restarted?                      false          :
          :  GBSA solvation                  false          :
          :  PC potential                    false          :
          :  electronic temp.          300.0000000     K    :
          :  accuracy                    1.0000000          :
          :  -> integral cutoff          0.2500000E+02      :
          :  -> integral neglect         0.1000000E-07      :
          :  -> SCF convergence          0.1000000E-05 Eh   :
          :  -> wf. convergence          0.1000000E-03 e    :
          :  Broyden damping             0.4000000          :
          :  net charge                          0          :
          :  unpaired electrons                  0          :
          ...................................................

 iter      E             dE          RMSdq      gap      omega  full diag
   1    -25.1592203 -0.251592E+02  0.345E+00   11.72       0.0  T
   2    -25.2002407 -0.410204E-01  0.187E+00   10.99       1.0  T
   3    -25.2012636 -0.102297E-02  0.769E-01   10.69       1.0  T
   4    -25.2017021 -0.438417E-03  0.144E-01   10.54       1.0  T
   5    -25.2017925 -0.904275E-04  0.693E-02   10.58       1.0  T
   6    -25.2017962 -0.372327E-05  0.158E-02   10.62       1.5  T
   7    -25.2017967 -0.470674E-06  0.580E-03   10.61       4.0  T
   8    -25.2017967 -0.628940E-07  0.217E-03   10.61      10.6  T
   9    -25.2017967 -0.445466E-08  0.635E-04   10.61      36.1  T
  10    -25.2017967 -0.102495E-08  0.149E-04   10.61     153.6  T

   *** convergence criteria satisfied after 10 iterations ***

         #    Occupation            Energy/Eh            Energy/eV
      -------------------------------------------------------------
         1        2.0000           -0.7063165             -19.2198
       ...           ...                  ...                  ...
        16        2.0000           -0.4556269             -12.3982
        17        2.0000           -0.4465324             -12.1508
        18        2.0000           -0.4442759             -12.0894
        19        2.0000           -0.4355041             -11.8507
        20        2.0000           -0.4259457             -11.5906
        21        2.0000           -0.4144245             -11.2771
        22        2.0000           -0.3806035             -10.3567 (HOMO)
        23                          0.0094273               0.2565 (LUMO)
        24                          0.0635572               1.7295
        25                          0.0686866               1.8691
        26                          0.0945225               2.5721
        27                          0.1120070               3.0479
       ...                                ...                  ...
        40                          0.3205263               8.7220
      -------------------------------------------------------------
                  HL-Gap            0.3900308 Eh           10.6133 eV
             Fermi-level           -0.1855881 Eh           -5.0501 eV

 SCC (total)                   0 d,  0 h,  0 min,  0.230 sec
 SCC setup                      ...        0 min,  0.005 sec (  2.127%)
 Dispersion                     ...        0 min,  0.010 sec (  4.467%)
 classical contributions        ...        0 min,  0.005 sec (  2.216%)
 integral evaluation            ...        0 min,  0.016 sec (  6.856%)
 iterations                     ...        0 min,  0.154 sec ( 66.638%)
 molecular gradient             ...        0 min,  0.041 sec ( 17.619%)
 printout                       ...        0 min,  0.000 sec (  0.064%)

         :::::::::::::::::::::::::::::::::::::::::::::::::::::
         ::                     SUMMARY                     ::
         :::::::::::::::::::::::::::::::::::::::::::::::::::::
         :: total energy             -24.945641386572 Eh    ::
         :: gradient norm              0.037053663381 Eh/a0 ::
         :: HOMO-LUMO gap             10.613278282546 eV    ::
         ::.................................................::
         :: SCC energy               -25.201765275189 Eh    ::
         :: -> isotropic ES            0.053196958648 Eh    ::
         :: -> anisotropic ES          0.002961539103 Eh    ::
         :: -> anisotropic XC          0.004764066019 Eh    ::
         :: -> dispersion             -0.011217660310 Eh    ::
         :: repulsion energy           0.256123888617 Eh    ::
         :: add. restraining           0.000000000000 Eh    ::
         :: total charge              -0.000000000000 e     ::
         :::::::::::::::::::::::::::::::::::::::::::::::::::::

      ----------------------------------------------------------- 
     |                   =====================                   |
     |                        A N C O P T                        |
     |                   =====================                   |
     |               Approximate Normal Coordinate               |
     |                Rational Function Optimizer                |
      ----------------------------------------------------------- 
      ----------------------------------------------------------- 
     |                   =====================                   |
     |                        A N C O P T                        |
     |                   =====================                   |
     |               Approximate Normal Coordinate               |
     |                Rational Function Optimizer                |
      ----------------------------------------------------------- 

          ...................................................
          :                      SETUP                      :
          :.................................................:
          :   optimization level             tight          :
          :   max. optcycles                   500          :
          :   ANC micro-cycles                  20          :
          :   degrees of freedom                51          :
          :.................................................:
          :   RF solver                   davidson          :
          :   write xtbopt.log                true          :
          :   linear?                        false          :
          :   energy convergence         0.1000000E-05 Eh   :
          :   grad. convergence          0.8000000E-03 Eh/α :
          :   maxmium RF displ.          1.0000000          :
          :   Hlow (freq-cutoff)         0.1000000E-01      :
          :   Hmax (freq-cutoff)         5.0000000          :
          :   S6 in model hess.         20.0000000          :
          ...................................................

generating ANC from exact Hessian ...
Using Lindh-Hessian (1995)
 Shifting diagonal of input Hessian by    7.8123970775502791E-003
 Lowest  eigenvalues of input Hessian
    0.000000    0.000000    0.000000    0.000000    0.000000    0.000000
    0.010000    0.012155    0.016730    0.018172    0.021116    0.021643
    0.027578    0.032929    0.035733    0.046132    0.056757    0.059761
 Highest eigenvalues
    1.199910    1.206427    1.271265    1.307250    1.433136    1.444148


........................................................................
.............................. CYCLE    1 ..............................
........................................................................

 iter      E             dE          RMSdq      gap      omega  full diag
   1    -25.2017967 -0.252018E+02  0.428E-05   10.61       0.0  T
   2    -25.2017967 -0.252953E-11  0.252E-05   10.61     911.3  T
   3    -25.2017967 -0.408562E-12  0.760E-06   10.61    3019.9  T
     SCC iter.                  ...        0 min,  0.048 sec
     gradient                   ...        0 min,  0.041 sec
 * total energy  :   -24.9456414 Eh     change       -0.2964740E-10 Eh
   gradient norm :     0.0370547 Eh/α   predicted     0.0000000E+00 (-100.00%)
   displ. norm   :     0.2071861 α      lambda       -0.3676308E-02
   maximum displ.:     0.0903428 α      in ANC's #14, #11, #19, ...

........................................................................
.............................. CYCLE    2 ..............................
........................................................................

 iter      E             dE          RMSdq      gap      omega  full diag
   1    -25.2085257 -0.252085E+02  0.167E-01   10.71       0.0  T
   2    -25.2085533 -0.276565E-04  0.968E-02   10.75       1.0  T
   3    -25.2085553 -0.193212E-05  0.196E-02   10.79       1.2  T
   4    -25.2085561 -0.808957E-06  0.512E-03   10.78       4.5  T
   5    -25.2085562 -0.132792E-06  0.172E-03   10.78      13.4  T
   6    -25.2085562 -0.400657E-08  0.891E-04   10.78      25.8  T
   7    -25.2085562 -0.122519E-08  0.205E-04   10.78     111.8  T
     SCC iter.                  ...        0 min,  0.102 sec
     gradient                   ...        0 min,  0.041 sec
 * total energy  :   -24.9480008 Eh     change       -0.2359390E-02 Eh
   gradient norm :     0.0167796 Eh/α   predicted    -0.1917089E-02 ( -18.75%)
   displ. norm   :     0.1379501 α      lambda       -0.8945158E-03
   maximum displ.:     0.0664401 α      in ANC's #6, #3, #11, ...

........................................................................
.............................. CYCLE    3 ..............................
........................................................................

 iter      E             dE          RMSdq      gap      omega  full diag
   1    -25.2117320 -0.252117E+02  0.806E-02   10.87       0.0  T
   2    -25.2117410 -0.901185E-05  0.472E-02   10.90       1.0  T
   3    -25.2117415 -0.538661E-06  0.131E-02   10.92       1.7  T
   4    -25.2117419 -0.413537E-06  0.352E-03   10.92       6.5  T
   5    -25.2117420 -0.665991E-07  0.945E-04   10.92      24.3  T
   6    -25.2117420 -0.941125E-09  0.446E-04   10.92      51.4  T
     SCC iter.                  ...        0 min,  0.081 sec
     gradient                   ...        0 min,  0.036 sec
 * total energy  :   -24.9485619 Eh     change       -0.5611354E-03 Eh
   gradient norm :     0.0066627 Eh/α   predicted    -0.4559855E-03 ( -18.74%)
   displ. norm   :     0.0814123 α      lambda       -0.1931524E-03
   maximum displ.:     0.0499827 α      in ANC's #6, #3, #11, ...

........................................................................
.............................. CYCLE    4 ..............................
........................................................................

 iter      E             dE          RMSdq      gap      omega  full diag
   1    -25.2125084 -0.252125E+02  0.455E-02   10.99       0.0  T
   2    -25.2125099 -0.148891E-05  0.275E-02   11.00       1.0  T
   3    -25.2125100 -0.751779E-07  0.536E-03   11.01       4.3  T
   4    -25.2125101 -0.135020E-06  0.161E-03   11.01      14.3  T
   5    -25.2125101 -0.123446E-07  0.469E-04   11.00      48.9  T
   6    -25.2125101 -0.165137E-09  0.181E-04   11.00     127.0  T
     SCC iter.                  ...        0 min,  0.069 sec
     gradient                   ...        0 min,  0.040 sec
 * total energy  :   -24.9486915 Eh     change       -0.1296106E-03 Eh
   gradient norm :     0.0030933 Eh/α   predicted    -0.9721750E-04 ( -24.99%)
   displ. norm   :     0.0721597 α      lambda       -0.7314750E-04
   maximum displ.:     0.0481455 α      in ANC's #6, #3, #1, ...

........................................................................
.............................. CYCLE    5 ..............................
........................................................................

 iter      E             dE          RMSdq      gap      omega  full diag
   1    -25.2124704 -0.252125E+02  0.350E-02   11.05       0.0  T
   2    -25.2124707 -0.317494E-06  0.213E-02   11.06       1.1  T
   3    -25.2124707 -0.508137E-07  0.229E-03   11.06      10.0  T
   4    -25.2124708 -0.315167E-07  0.958E-04   11.06      24.0  T
   5    -25.2124708 -0.261879E-08  0.315E-04   11.06      72.8  T
     SCC iter.                  ...        0 min,  0.067 sec
     gradient                   ...        0 min,  0.040 sec
 * total energy  :   -24.9487410 Eh     change       -0.4944580E-04 Eh
   gradient norm :     0.0024251 Eh/α   predicted    -0.3680860E-04 ( -25.56%)
   displ. norm   :     0.0655739 α      lambda       -0.3420585E-04
   maximum displ.:     0.0421208 α      in ANC's #6, #1, #3, ...

........................................................................
.............................. CYCLE    6 ..............................
........................................................................

 iter      E             dE          RMSdq      gap      omega  full diag
   1    -25.2124041 -0.252124E+02  0.266E-02   11.09       0.0  T
   2    -25.2124042 -0.964605E-07  0.162E-02   11.09       1.4  T
   3    -25.2124043 -0.379667E-07  0.120E-03   11.09      19.1  T
   4    -25.2124043 -0.292632E-08  0.612E-04   11.09      37.5  T
   5    -25.2124043 -0.528949E-09  0.156E-04   11.09     146.9  T
     SCC iter.                  ...        0 min,  0.060 sec
     gradient                   ...        0 min,  0.033 sec
 * total energy  :   -24.9487655 Eh     change       -0.2456003E-04 Eh
   gradient norm :     0.0021117 Eh/α   predicted    -0.1717801E-04 ( -30.06%)
   displ. norm   :     0.0658002 α      lambda       -0.2328978E-04
   maximum displ.:     0.0446037 α      in ANC's #1, #6, #4, ...

........................................................................
.............................. CYCLE    7 ..............................
........................................................................

 iter      E             dE          RMSdq      gap      omega  full diag
   1    -25.2124138 -0.252124E+02  0.229E-02   11.11       0.0  T
   2    -25.2124139 -0.102954E-06  0.140E-02   11.11       1.6  T
   3    -25.2124139 -0.228744E-07  0.143E-03   11.11      16.0  T
   4    -25.2124139 -0.135274E-07  0.659E-04   11.11      34.8  T
   5    -25.2124139 -0.699877E-09  0.177E-04   11.11     129.4  T
     SCC iter.                  ...        0 min,  0.069 sec
     gradient                   ...        0 min,  0.040 sec
 * total energy  :   -24.9487822 Eh     change       -0.1672019E-04 Eh
   gradient norm :     0.0014334 Eh/α   predicted    -0.1169813E-04 ( -30.04%)
   displ. norm   :     0.0759269 α      lambda       -0.1287615E-04
   maximum displ.:     0.0574875 α      in ANC's #1, #6, #4, ...

........................................................................
.............................. CYCLE    8 ..............................
........................................................................

 iter      E             dE          RMSdq      gap      omega  full diag
   1    -25.2125156 -0.252125E+02  0.238E-02   11.10       0.0  T
   2    -25.2125158 -0.158271E-06  0.145E-02   11.10       1.6  T
   3    -25.2125158 -0.231011E-07  0.181E-03   11.10      12.6  T
   4    -25.2125158 -0.245663E-07  0.765E-04   11.10      30.0  T
   5    -25.2125158 -0.121837E-08  0.246E-04   11.10      93.3  T
     SCC iter.                  ...        0 min,  0.058 sec
     gradient                   ...        0 min,  0.031 sec
 * total energy  :   -24.9487941 Eh     change       -0.1184912E-04 Eh
   gradient norm :     0.0011708 Eh/α   predicted    -0.6454885E-05 ( -45.52%)
   displ. norm   :     0.0344084 α      lambda       -0.5031682E-05
   maximum displ.:     0.0264077 α      in ANC's #1, #2, #4, ...

........................................................................
.............................. CYCLE    9 ..............................
........................................................................

 iter      E             dE          RMSdq      gap      omega  full diag
   1    -25.2125740 -0.252126E+02  0.104E-02   11.09       0.0  T
   2    -25.2125740 -0.215551E-07  0.625E-03   11.09       3.7  T
   3    -25.2125740 -0.561093E-08  0.551E-04   11.09      41.6  T
   4    -25.2125740 -0.100207E-08  0.273E-04   11.09      84.1  T
     SCC iter.                  ...        0 min,  0.046 sec
     gradient                   ...        0 min,  0.033 sec
 * total energy  :   -24.9488003 Eh     change       -0.6220018E-05 Eh
   gradient norm :     0.0008195 Eh/α   predicted    -0.2519153E-05 ( -59.50%)
   displ. norm   :     0.0566397 α      lambda       -0.6845078E-05
   maximum displ.:     0.0413178 α      in ANC's #1, #2, #4, ...

........................................................................
.............................. CYCLE   10 ..............................
........................................................................

 iter      E             dE          RMSdq      gap      omega  full diag
   1    -25.2125209 -0.252125E+02  0.175E-02   11.08       0.0  T
   2    -25.2125210 -0.513583E-07  0.106E-02   11.08       2.2  T
   3    -25.2125210 -0.113591E-07  0.107E-03   11.07      21.5  T
   4    -25.2125210 -0.785453E-08  0.480E-04   11.08      47.8  T
   5    -25.2125210 -0.277804E-09  0.131E-04   11.08     175.1  T
     SCC iter.                  ...        0 min,  0.054 sec
     gradient                   ...        0 min,  0.033 sec
 * total energy  :   -24.9488079 Eh     change       -0.7554389E-05 Eh
   gradient norm :     0.0006349 Eh/α   predicted    -0.3430136E-05 ( -54.59%)
   displ. norm   :     0.0526438 α      lambda       -0.3651157E-05
   maximum displ.:     0.0405453 α      in ANC's #1, #2, #4, ...

........................................................................
.............................. CYCLE   11 ..............................
........................................................................

 iter      E             dE          RMSdq      gap      omega  full diag
   1    -25.2124834 -0.252125E+02  0.171E-02   11.08       0.0  T
   2    -25.2124834 -0.430832E-07  0.104E-02   11.07       2.2  T
   3    -25.2124834 -0.130711E-07  0.945E-04   11.07      24.3  T
   4    -25.2124834 -0.548005E-08  0.462E-04   11.07      49.7  T
     SCC iter.                  ...        0 min,  0.047 sec
     gradient                   ...        0 min,  0.040 sec
 * total energy  :   -24.9488118 Eh     change       -0.3887224E-05 Eh
   gradient norm :     0.0005841 Eh/α   predicted    -0.1828356E-05 ( -52.97%)
   displ. norm   :     0.0289106 α      lambda       -0.1382862E-05
   maximum displ.:     0.0242380 α      in ANC's #1, #2, #11, ...

........................................................................
.............................. CYCLE   12 ..............................
........................................................................

 iter      E             dE          RMSdq      gap      omega  full diag
   1    -25.2125403 -0.252125E+02  0.920E-03   11.08       0.0  T
   2    -25.2125403 -0.111615E-07  0.560E-03   11.08       4.1  T
   3    -25.2125404 -0.433709E-08  0.433E-04   11.08      53.0  T
   4    -25.2125404 -0.569859E-09  0.222E-04   11.08     103.5  T
     SCC iter.                  ...        0 min,  0.055 sec
     gradient                   ...        0 min,  0.039 sec
 * total energy  :   -24.9488133 Eh     change       -0.1589773E-05 Eh
   gradient norm :     0.0002989 Eh/α   predicted    -0.6932563E-06 ( -56.39%)
   displ. norm   :     0.0204267 α      lambda       -0.9029033E-06
   maximum displ.:     0.0173740 α      in ANC's #1, #2, #4, ...

........................................................................
.............................. CYCLE   13 ..............................
........................................................................

 iter      E             dE          RMSdq      gap      omega  full diag
   1    -25.2125095 -0.252125E+02  0.698E-03   11.08       0.0  T
   2    -25.2125095 -0.666489E-08  0.427E-03   11.08       5.4  T
   3    -25.2125095 -0.289652E-08  0.318E-04   11.08      72.2  T
   4    -25.2125095 -0.197044E-09  0.156E-04   11.08     147.1  T
     SCC iter.                  ...        0 min,  0.055 sec
     gradient                   ...        0 min,  0.040 sec
 * total energy  :   -24.9488144 Eh     change       -0.1067848E-05 Eh
   gradient norm :     0.0002099 Eh/α   predicted    -0.4548528E-06 ( -57.40%)
   displ. norm   :     0.0194211 α      lambda       -0.7958097E-06
   maximum displ.:     0.0156999 α      in ANC's #1, #4, #3, ...

........................................................................
.............................. CYCLE   14 ..............................
........................................................................

 iter      E             dE          RMSdq      gap      omega  full diag
   1    -25.2125473 -0.252125E+02  0.557E-03   11.09       0.0  T
   2    -25.2125473 -0.383255E-08  0.338E-03   11.09       6.8  T
   3    -25.2125473 -0.116094E-08  0.258E-04   11.09      88.8  T
   4    -25.2125473 -0.323272E-09  0.133E-04   11.09     173.0  T
     SCC iter.                  ...        0 min,  0.055 sec
     gradient                   ...        0 min,  0.039 sec
 * total energy  :   -24.9488154 Eh     change       -0.9576515E-06 Eh
   gradient norm :     0.0002714 Eh/α   predicted    -0.3993516E-06 ( -58.30%)
   displ. norm   :     0.0241019 α      lambda       -0.7507233E-06
   maximum displ.:     0.0179385 α      in ANC's #1, #4, #3, ...

   *** GEOMETRY OPTIMIZATION CONVERGED AFTER 14 ITERATIONS ***

------------------------------------------------------------------------
 total energy gain   :        -0.0031740 Eh       -1.9917 kcal/mol
 total RMSD          :         0.1386772 a0        0.0734 Å
 total power (kW/mol):        -0.5952360 (step)   -4.4154 (real)
------------------------------------------------------------------------

 ANCopt (total)                0 d,  0 h,  0 min,  1.887 sec
 optimizer setup                ...        0 min,  0.001 sec (  0.027%)
 model hessian                  ...        0 min,  0.011 sec (  0.564%)
 ANC generation                 ...        0 min,  0.001 sec (  0.030%)
 coordinate transformation      ...        0 min,  0.000 sec (  0.006%)
 single point calculation       ...        0 min,  1.816 sec ( 96.198%)
 optimization log               ...        0 min,  0.001 sec (  0.076%)
 hessian update                 ...        0 min,  0.054 sec (  2.869%)
 rational function              ...        0 min,  0.002 sec (  0.129%)

================
 final structure:
================
19
 xtb: 6.7.1 (edcfbbe)
C           -2.47860330334191        0.29627917440430       -0.79717195264849
C           -1.21267396730746        0.02861574923421        0.01318963439805
O           -0.94149531176583        1.18924073470881        0.76152215686021
C           -0.04850201601089       -0.35003036843667       -0.91918699547266
C            1.18168941412255       -0.93705909294158       -0.21965627588635
C            2.07197422902034        0.07965658758789        0.49429005466767
O            1.52435798842451        0.39040996776177        1.76548289126579
H           -2.29241840534320        1.08614529513280       -1.52015155895805
H           -2.79783818137799       -0.60196504115456       -1.31835594417019
H           -3.27047675415507        0.62318402512876       -0.12924001739224
H           -1.40022616640842       -0.81720036258561        0.69805130418982
H           -0.14338874031924        1.01202667689815        1.28570697407515
H            0.24065218583327        0.53730455676751       -1.48696648637573
H           -0.41992988927318       -1.09430743518222       -1.62618735512669
H            1.79644852508041       -1.43662415203611       -0.97101826842183
H            0.86819879768540       -1.68452417245031        0.51186751822833
H            3.07399870333327       -0.35034801680667        0.62850867674065
H            2.16453059424784        0.99035831113390       -0.11265666384495
H            2.08370229755561        1.03883756283457        2.20458182624841

 Bond Distances (Angstroems)
 ---------------------------
C1-C2=1.5267         C1-H8=1.0869         C1-H9=1.0865         C1-H10=1.0863        C2-C1=1.5267         C2-O3=1.4073         
C2-C4=1.5388         C2-H11=1.1044        O3-C2=1.4073         O3-H12=0.9712        C4-C2=1.5388         C4-C5=1.5321         
C4-H13=1.0924        C4-H14=1.0917        C5-C4=1.5321         C5-C6=1.5284         C5-H15=1.0918        C5-H16=1.0918        
C6-C5=1.5284         C6-O7=1.4186         C6-H17=1.0986        C6-H18=1.0983        O7-C6=1.4186         O7-H19=0.9624        
H8-C1=1.0869         H9-C1=1.0865         H10-C1=1.0863        H11-C2=1.1044        H12-O3=0.9712        H13-C4=1.0924        
H14-C4=1.0917        H15-C5=1.0918        H16-C5=1.0918        H17-C6=1.0986        H18-C6=1.0983        H19-O7=0.9624        
 C  H  Rav=1.0929 sigma=0.0056  Rmin=1.0863  Rmax=1.1044    10
 C  C  Rav=1.5315 sigma=0.0046  Rmin=1.5267  Rmax=1.5388     4
 O  H  Rav=0.9668 sigma=0.0044  Rmin=0.9624  Rmax=0.9712     2
 O  C  Rav=1.4130 sigma=0.0056  Rmin=1.4073  Rmax=1.4186     2

 selected bond angles (degree)
 --------------------
H8-C1-C2=109.78                H9-C1-C2=110.69                H9-C1-H8=109.39                H10-C1-C2=109.32               
H10-C1-H8=108.37               H10-C1-H9=109.24               O3-C2-C1=107.30                C4-C2-C1=110.42                
C4-C2-O3=112.29                H11-C2-C1=108.82               H11-C2-O3=109.55               H11-C2-C4=108.41               
H12-O3-C2=107.15               C5-C4-C2=115.16                H13-C4-C2=108.38               H13-C4-C5=109.63               
H14-C4-C2=107.62               H14-C4-C5=107.92               H14-C4-H13=107.89              C6-C5-C4=115.22                
H15-C5-C4=108.25               H15-C5-C6=107.33               H16-C5-C4=109.73               H16-C5-C6=108.04               
H16-C5-H15=108.03              O7-C6-C5=109.84                H17-C6-C5=109.15               H17-C6-O7=109.17               
H18-C6-C5=110.03               H18-C6-O7=110.25               H18-C6-H17=108.37              H19-O7-C6=109.40               

 selected dihedral angles (degree)
 ---------------------------------
O3-C2-C1-H8= 65.03            O3-C2-C1-H9=185.90            O3-C2-C1-H10=306.27           C4-C2-C1-H8=302.35            
C4-C2-C1-H9= 63.22            C4-C2-C1-H10=183.60           H11-C2-C1-H8=183.48           H11-C2-C1-H9=304.35           
H11-C2-C1-H10= 64.73          H12-O3-C2-C1=179.20           H12-O3-C2-C4=300.70           H12-O3-C2-H11= 61.22          
C5-C4-C2-C1=192.86            C5-C4-C2-O3= 73.15            C5-C4-C2-H11=311.98           H13-C4-C2-C1= 69.68           
H13-C4-C2-O3=309.98           H13-C4-C2-H11=188.81          H14-C4-C2-C1=313.25           H14-C4-C2-O3=193.54           
H14-C4-C2-H11= 72.37          C6-C5-C4-C2=283.21            C6-C5-C4-H13= 45.72           C6-C5-C4-H14=162.99           
H15-C5-C4-C2=163.08           H15-C5-C4-H13=285.58          H15-C5-C4-H14= 42.85          H16-C5-C4-C2= 45.40           
H16-C5-C4-H13=167.90          H16-C5-C4-H14=285.17          O7-C6-C5-C4= 81.25            O7-C6-C5-H15=201.89           
O7-C6-C5-H16=318.16           H17-C6-C5-C4=200.91           H17-C6-C5-H15=321.55          H17-C6-C5-H16= 77.82          
H18-C6-C5-C4=319.71           H18-C6-C5-H15= 80.35          H18-C6-C5-H16=196.62          H19-O7-C6-C5=180.70           
H19-O7-C6-H17= 61.06          H19-O7-C6-H18=302.11          
           -------------------------------------------------
          |                Final Singlepoint                |
           -------------------------------------------------

          ...................................................
          :                      SETUP                      :
          :.................................................:
          :  # basis functions                  40          :
          :  # atomic orbitals                  40          :
          :  # shells                           26          :
          :  # electrons                        44          :
          :  max. iterations                   250          :
          :  Hamiltonian                  GFN2-xTB          :
          :  restarted?                      false          :
          :  GBSA solvation                  false          :
          :  PC potential                    false          :
          :  electronic temp.          300.0000000     K    :
          :  accuracy                    1.0000000          :
          :  -> integral cutoff          0.2500000E+02      :
          :  -> integral neglect         0.1000000E-07      :
          :  -> SCF convergence          0.1000000E-05 Eh   :
          :  -> wf. convergence          0.1000000E-03 e    :
          :  Broyden damping             0.4000000          :
          :  net charge                          0          :
          :  unpaired electrons                  0          :
          ...................................................

 iter      E             dE          RMSdq      gap      omega  full diag
   1    -25.2125473 -0.252125E+02  0.347E-05   11.09       0.0  T
   2    -25.2125473 -0.181899E-11  0.220E-05   11.09    1044.4  T
   3    -25.2125473 -0.298428E-12  0.788E-06   11.09    2909.7  T

   *** convergence criteria satisfied after 3 iterations ***

         #    Occupation            Energy/Eh            Energy/eV
      -------------------------------------------------------------
         1        2.0000           -0.7036757             -19.1480
       ...           ...                  ...                  ...
        16        2.0000           -0.4569298             -12.4337
        17        2.0000           -0.4499382             -12.2434
        18        2.0000           -0.4481259             -12.1941
        19        2.0000           -0.4380898             -11.9210
        20        2.0000           -0.4241853             -11.5427
        21        2.0000           -0.4195125             -11.4155
        22        2.0000           -0.3856723             -10.4947 (HOMO)
        23                          0.0218557               0.5947 (LUMO)
        24                          0.0648499               1.7647
        25                          0.0732949               1.9945
        26                          0.0940454               2.5591
        27                          0.1159494               3.1551
       ...                                ...                  ...
        40                          0.3121519               8.4941
      -------------------------------------------------------------
                  HL-Gap            0.4075280 Eh           11.0894 eV
             Fermi-level           -0.1819083 Eh           -4.9500 eV

 SCC (total)                   0 d,  0 h,  0 min,  0.102 sec
 SCC setup                      ...        0 min,  0.004 sec (  4.409%)
 Dispersion                     ...        0 min,  0.009 sec (  8.671%)
 classical contributions        ...        0 min,  0.004 sec (  3.950%)
 integral evaluation            ...        0 min,  0.014 sec ( 13.541%)
 iterations                     ...        0 min,  0.037 sec ( 36.543%)
 molecular gradient             ...        0 min,  0.033 sec ( 32.758%)
 printout                       ...        0 min,  0.000 sec (  0.101%)

         :::::::::::::::::::::::::::::::::::::::::::::::::::::
         ::                     SUMMARY                     ::
         :::::::::::::::::::::::::::::::::::::::::::::::::::::
         :: total energy             -24.948815374652 Eh    ::
         :: gradient norm              0.000271335077 Eh/a0 ::
         :: HOMO-LUMO gap             11.089402350705 eV    ::
         ::.................................................::
         :: SCC energy               -25.212516227724 Eh    ::
         :: -> isotropic ES            0.051753322457 Eh    ::
         :: -> anisotropic ES          0.002816383225 Eh    ::
         :: -> anisotropic XC          0.004284421831 Eh    ::
         :: -> dispersion             -0.011181489189 Eh    ::
         :: repulsion energy           0.263700853072 Eh    ::
         :: add. restraining           0.000000000000 Eh    ::
         :: total charge              -0.000000000000 e     ::
         :::::::::::::::::::::::::::::::::::::::::::::::::::::

           -------------------------------------------------
          |                Property Printout                |
           -------------------------------------------------

    * Orbital Energies and Occupations

         #    Occupation            Energy/Eh            Energy/eV
      -------------------------------------------------------------
         1        2.0000           -0.7036757             -19.1480
       ...           ...                  ...                  ...
        10        2.0000           -0.5388619             -14.6632
        11        2.0000           -0.5259411             -14.3116
        12        2.0000           -0.5074830             -13.8093
        13        2.0000           -0.4949760             -13.4690
        14        2.0000           -0.4816246             -13.1057
        15        2.0000           -0.4728280             -12.8663
        16        2.0000           -0.4569298             -12.4337
        17        2.0000           -0.4499382             -12.2434
        18        2.0000           -0.4481259             -12.1941
        19        2.0000           -0.4380898             -11.9210
        20        2.0000           -0.4241853             -11.5427
        21        2.0000           -0.4195125             -11.4155
        22        2.0000           -0.3856723             -10.4947 (HOMO)
        23                          0.0218557               0.5947 (LUMO)
        24                          0.0648499               1.7647
        25                          0.0732949               1.9945
        26                          0.0940454               2.5591
        27                          0.1159494               3.1551
        28                          0.1264363               3.4405
        29                          0.1295169               3.5243
        30                          0.1489839               4.0541
        31                          0.1690796               4.6009
        32                          0.1860279               5.0621
        33                          0.1974161               5.3720
       ...                                ...                  ...
        40                          0.3121519               8.4941
      -------------------------------------------------------------
                  HL-Gap            0.4075280 Eh           11.0894 eV
             Fermi-level           -0.1819083 Eh           -4.9500 eV

     #   Z          covCN         q      C6AA      α(0)
     1   6 C        3.754    -0.113    22.715     6.796
     2   6 C        3.722     0.124    18.660     6.169
     3   8 O        1.656    -0.470    22.258     6.369
     4   6 C        3.801    -0.077    21.966     6.673
     5   6 C        3.799    -0.064    21.732     6.638
     6   6 C        3.672     0.085    19.393     6.312
     7   8 O        1.655    -0.443    21.704     6.289
     8   1 H        0.925     0.047     2.355     2.400
     9   1 H        0.925     0.032     2.563     2.503
    10   1 H        0.925     0.053     2.284     2.364
    11   1 H        0.923     0.007     2.944     2.683
    12   1 H        0.804     0.312     0.687     1.302
    13   1 H        0.924     0.045     2.388     2.416
    14   1 H        0.924     0.035     2.516     2.480
    15   1 H        0.924     0.037     2.490     2.468
    16   1 H        0.924     0.055     2.255     2.348
    17   1 H        0.923     0.019     2.748     2.593
    18   1 H        0.923     0.026     2.640     2.541
    19   1 H        0.805     0.290     0.751     1.362

 Mol. C6AA /au·bohr⁶  :       2464.399065
 Mol. C8AA /au·bohr⁸  :      50841.950027
 Mol. α(0) /au        :         72.705392


Wiberg/Mayer (AO) data.
largest (>0.10) Wiberg bond orders for each atom

 ---------------------------------------------------------------------------
     #   Z sym  total        # sym  WBO       # sym  WBO       # sym  WBO
 ---------------------------------------------------------------------------
     1   6 C    3.995 --     2 C    1.004     9 H    0.987     8 H    0.986
                            10 H    0.985
     2   6 C    3.964 --     1 C    1.004     3 O    1.000     4 C    0.984
                            11 H    0.960
     3   8 O    1.943 --     2 C    1.000    12 H    0.853
     4   6 C    3.995 --     5 C    1.008     2 C    0.984    14 H    0.976
                            13 H    0.975
     5   6 C    3.995 --     4 C    1.008     6 C    1.006    15 H    0.976
                            16 H    0.972
     6   6 C    3.951 --     5 C    1.006     7 O    0.982    17 H    0.974
                            18 H    0.971
     7   8 O    1.985 --     6 C    0.982    19 H    0.901
     8   1 H    0.998 --     1 C    0.986
     9   1 H    0.999 --     1 C    0.987
    10   1 H    0.997 --     1 C    0.985
    11   1 H    1.000 --     2 C    0.960
    12   1 H    0.903 --     3 O    0.853
    13   1 H    0.998 --     4 C    0.975
    14   1 H    0.999 --     4 C    0.976
    15   1 H    0.998 --     5 C    0.976
    16   1 H    0.997 --     5 C    0.972
    17   1 H    1.000 --     6 C    0.974
    18   1 H    0.999 --     6 C    0.971
    19   1 H    0.916 --     7 O    0.901
 ---------------------------------------------------------------------------

Topologies differ in total number of bonds
Writing topology from bond orders to xtbtopo.mol

molecular dipole:
                 x           y           z       tot (Debye)
 q only:        0.769      -0.251      -0.226
   full:        1.156      -0.297      -0.203       3.076
molecular quadrupole (traceless):
                xx          xy          yy          xz          yz          zz
 q only:        2.612       3.883      -2.207       3.165       1.571      -0.406
  q+dip:        3.470       5.899      -2.458       4.162       0.773      -1.011
   full:        3.613       5.914      -2.818       4.441       1.599      -0.796

           -------------------------------------------------
          |                Geometry Summary                 |
           -------------------------------------------------

      molecular mass/u    :      104.1477783
   center of mass at/Å    :        0.0325435       0.1341449       0.2056921
  moments of inertia/u·Å² :        0.1114211E+03   0.3065450E+03   0.3865353E+03
rotational constants/cm⁻¹ :        0.1512966E+00   0.5499237E-01   0.4361214E-01

 * 18 selected distances

     #   Z          #   Z                                           value/Å
     1   6 C        2   6 C                                       1.5267309
     2   6 C        3   8 O                                       1.4073344
     2   6 C        4   6 C                                       1.5388294 (max)
     4   6 C        5   6 C                                       1.5320957
     5   6 C        6   6 C                                       1.5284102
     6   6 C        7   8 O                                       1.4185848
     1   6 C        8   1 H                                       1.0868547
     1   6 C        9   1 H                                       1.0864560
     1   6 C       10   1 H                                       1.0863073
     2   6 C       11   1 H                                       1.1043625
     3   8 O       12   1 H                                       0.9711585
     4   6 C       13   1 H                                       1.0924043
     4   6 C       14   1 H                                       1.0916761
     5   6 C       15   1 H                                       1.0918054
     5   6 C       16   1 H                                       1.0918368
     6   6 C       17   1 H                                       1.0986227
     6   6 C       18   1 H                                       1.0983300
     7   8 O       19   1 H                                       0.9623578 (min)

 * 4 distinct bonds (by element types)

   Z      Z             #   av. dist./Å        max./Å        min./Å
   1 H    6 C          10     1.0928656     1.1043625     1.0863073
   6 C    6 C           4     1.5315165     1.5388294     1.5267309
   1 H    8 O           2     0.9667581     0.9711585     0.9623578
   6 C    8 O           2     1.4129596     1.4185848     1.4073344


optimized geometry written to: xtbopt.xyz


           -------------------------------------------------
          | TOTAL ENERGY              -24.948815374652 Eh   |
          | GRADIENT NORM               0.000271335077 Eh/α |
          | HOMO-LUMO GAP              11.089402350705 eV   |
           -------------------------------------------------

------------------------------------------------------------------------
 * finished run on 2026/07/08 at 17:59:19.470     
------------------------------------------------------------------------
 total:
 * wall-time:     0 d,  0 h,  0 min,  2.275 sec
 *  cpu-time:     0 d,  0 h,  0 min, 36.302 sec
 * ratio c/w:    15.958 speedup
 SCF:
 * wall-time:     0 d,  0 h,  0 min,  0.230 sec
 *  cpu-time:     0 d,  0 h,  0 min,  3.692 sec
 * ratio c/w:    16.020 speedup
 ANC optimizer:
 * wall-time:     0 d,  0 h,  0 min,  1.994 sec
 *  cpu-time:     0 d,  0 h,  0 min, 31.866 sec
 * ratio c/w:    15.979 speedup

