      -----------------------------------------------------------      
     |                   =====================                   |     
     |                           x T B                           |     
     |                   =====================                   |     
     |                         S. Grimme                         |     
     |          Mulliken Center for Theoretical Chemistry        |     
     |                    University of Bonn                     |     
      -----------------------------------------------------------      

   * xtb version 6.7.1 (edcfbbe) compiled by 'conda@5dfe00f5fb80' on 2026-06-10

   xtb is free software: you can redistribute it and/or modify it under
   the terms of the GNU Lesser General Public License as published by
   the Free Software Foundation, either version 3 of the License, or
   (at your option) any later version.
   
   xtb is distributed in the hope that it will be useful,
   but WITHOUT ANY WARRANTY; without even the implied warranty of
   MERCHANTABILITY or FITNESS FOR A PARTICULAR PURPOSE.  See the
   GNU Lesser General Public License for more details.
   
   Cite this work as:
   * C. Bannwarth, E. Caldeweyher, S. Ehlert, A. Hansen, P. Pracht,
     J. Seibert, S. Spicher, S. Grimme, WIREs Comput. Mol. Sci., 2020, 11,
     e01493. DOI: 10.1002/wcms.1493
   
   for GFN2-xTB:
   * C. Bannwarth, S. Ehlert and S. Grimme., J. Chem. Theory Comput., 2019,
     15, 1652-1671. DOI: 10.1021/acs.jctc.8b01176
   for GFN1-xTB:
   * S. Grimme, C. Bannwarth, P. Shushkov, J. Chem. Theory Comput., 2017,
     13, 1989-2009. DOI: 10.1021/acs.jctc.7b00118
   for GFN0-xTB:
   * P. Pracht, E. Caldeweyher, S. Ehlert, S. Grimme, ChemRxiv, 2019, preprint.
     DOI: 10.26434/chemrxiv.8326202.v1
   for GFN-FF:
   * S. Spicher and S. Grimme, Angew. Chem. Int. Ed., 2020, 59, 15665-15673.
     DOI: 10.1002/anie.202004239
   
   for ALPB and GBSA implicit solvation:
   * S. Ehlert, M. Stahn, S. Spicher, S. Grimme, J. Chem. Theory Comput.,
     2021, 17, 4250-4261. DOI: 10.1021/acs.jctc.1c00471
   
   for ddCOSMO and CPCM-X implicit solvation:
   * M. Stahn, S. Ehlert, S. Grimme, J. Phys. Chem. A,
     2023, XX, XXXX-XXXX. DOI: 10.1021/acs.jpca.3c04382
   
   for DFT-D4:
   * E. Caldeweyher, C. Bannwarth and S. Grimme, J. Chem. Phys., 2017,
     147, 034112. DOI: 10.1063/1.4993215
   * E. Caldeweyher, S. Ehlert, A. Hansen, H. Neugebauer, S. Spicher,
     C. Bannwarth and S. Grimme, J. Chem. Phys., 2019, 150, 154122.
     DOI: 10.1063/1.5090222
   * E. Caldeweyher, J.-M. Mewes, S. Ehlert and S. Grimme, Phys. Chem. Chem. Phys.
     2020, 22, 8499-8512. DOI: 10.1039/D0CP00502A
   
   for sTDA-xTB:
   * S. Grimme and C. Bannwarth, J. Chem. Phys., 2016, 145, 054103.
     DOI: 10.1063/1.4959605
   
   in the mass-spec context:
   * V. Asgeirsson, C. Bauer and S. Grimme, Chem. Sci., 2017, 8, 4879.
     DOI: 10.1039/c7sc00601b
   * J. Koopman and S. Grimme, ACS Omega 2019, 4, 12, 15120-15133.
     DOI: 10.1021/acsomega.9b02011
   
   for metadynamics refer to:
   * S. Grimme, J. Chem. Theory Comput., 2019, 155, 2847-2862
     DOI: 10.1021/acs.jctc.9b00143
   
   for SPH calculations refer to:
   * S. Spicher and S. Grimme, J. Chem. Theory Comput., 2021, 17, 1701-1714
     DOI: 10.1021/acs.jctc.0c01306
   
   for ONIOM refer to:
   * C. Plett, A. Katbashev, S. Ehlert, S. Grimme, M. Bursch,
     Phys. Chem. Chem. Phys., 2023, 25, 17860-17868. DOI: 10.1039/D3CP02178E
   
   for DIPRO refer to:
   * J. Kohn, N. Gildemeister, S. Grimme, D. Fazzi, A. Hansen,
     J. Chem. Phys., 2023, just accepted.
   
   for PTB refer to:
   * S. Grimme, M. Mueller, A. Hansen, J. Chem. Phys., 2023, 158, 124111.
     DOI: 10.1063/5.0137838
   
   with help from (in alphabetical order)
   P. Atkinson, C. Bannwarth, F. Bohle, G. Brandenburg, E. Caldeweyher
   M. Checinski, S. Dohm, S. Ehlert, S. Ehrlich, I. Gerasimov, C. Hölzer
   A. Katbashev, J. Kohn, J. Koopman, C. Lavigne, S. Lehtola, F. März, M. Müller,
   F. Musil, H. Neugebauer, J. Pisarek, C. Plett, P. Pracht, F. Pultar,
   J. Seibert, P. Shushkov, S. Spicher, M. Stahn, M. Steiner, T. Strunk,
   J. Stückrath, T. Rose, and J. Unsleber
   
 * started run on 2026/07/09 at 04:04:02.375     
   ID    Z sym.   atoms
    1    8 O      1, 7, 10
    2    6 C      2, 3, 5, 6, 8, 9
    3    7 N      4
    4    1 H      11-25

           -------------------------------------------------
          |                Calculation Setup                |
           -------------------------------------------------

          program call               : /home/ws/xd2484/miniforge3/envs/p3z_dft/bin/xtb xtb_input.xyz --gfn 2 --opt tight --cycles 500 --chrg 0 --uhf 0
          hostname                   : gpu10
          coordinate file            : xtb_input.xyz
          omp threads                :                    16


           -------------------------------------------------
          |                 G F N 2 - x T B                 |
           -------------------------------------------------

        Reference                      10.1021/acs.jctc.8b01176
      * Hamiltonian:
        H0-scaling (s, p, d)           1.850000    2.230000    2.230000
        zeta-weighting                 0.500000
      * Dispersion:
        s8                             2.700000
        a1                             0.520000
        a2                             5.000000
        s9                             5.000000
      * Repulsion:
        kExp                           1.500000    1.000000
        rExp                           1.000000
      * Coulomb:
        alpha                          2.000000
        third order                    shell-resolved
        anisotropic                    true
        a3                             3.000000
        a5                             4.000000
        cn-shift                       1.200000
        cn-exp                         4.000000
        max-rad                        5.000000


          ...................................................
          :                      SETUP                      :
          :.................................................:
          :  # basis functions                  55          :
          :  # atomic orbitals                  55          :
          :  # shells                           35          :
          :  # electrons                        62          :
          :  max. iterations                   250          :
          :  Hamiltonian                  GFN2-xTB          :
          :  restarted?                      false          :
          :  GBSA solvation                  false          :
          :  PC potential                    false          :
          :  electronic temp.          300.0000000     K    :
          :  accuracy                    1.0000000          :
          :  -> integral cutoff          0.2500000E+02      :
          :  -> integral neglect         0.1000000E-07      :
          :  -> SCF convergence          0.1000000E-05 Eh   :
          :  -> wf. convergence          0.1000000E-03 e    :
          :  Broyden damping             0.4000000          :
          :  net charge                          0          :
          :  unpaired electrons                  0          :
          ...................................................

 iter      E             dE          RMSdq      gap      omega  full diag
   1    -35.8571152 -0.358571E+02  0.378E+00    9.05       0.0  T
   2    -35.9033506 -0.462355E-01  0.209E+00    9.18       1.0  T
   3    -35.9043453 -0.994672E-03  0.742E-01    9.19       1.0  T
   4    -35.9047671 -0.421809E-03  0.119E-01    9.15       1.0  T
   5    -35.9048292 -0.621152E-04  0.630E-02    9.14       1.0  T
   6    -35.9048332 -0.398868E-05  0.168E-02    9.14       1.2  T
   7    -35.9048337 -0.509883E-06  0.539E-03    9.14       3.7  T
   8    -35.9048338 -0.482063E-07  0.165E-03    9.14      12.1  T
   9    -35.9048338 -0.250301E-08  0.254E-04    9.14      78.8  T
  10    -35.9048338 -0.565159E-09  0.866E-05    9.14     231.0  T

   *** convergence criteria satisfied after 10 iterations ***

         #    Occupation            Energy/Eh            Energy/eV
      -------------------------------------------------------------
         1        2.0000           -0.6987409             -19.0137
       ...           ...                  ...                  ...
        25        2.0000           -0.4621758             -12.5764
        26        2.0000           -0.4587959             -12.4845
        27        2.0000           -0.4478422             -12.1864
        28        2.0000           -0.4288497             -11.6696
        29        2.0000           -0.4189686             -11.4007
        30        2.0000           -0.4128231             -11.2335
        31        2.0000           -0.3887238             -10.5777 (HOMO)
        32                         -0.0527459              -1.4353 (LUMO)
        33                          0.0017708               0.0482
        34                          0.0141035               0.3838
        35                          0.0481737               1.3109
        36                          0.0525836               1.4309
       ...                                ...                  ...
        55                          0.2742336               7.4623
      -------------------------------------------------------------
                  HL-Gap            0.3359779 Eh            9.1424 eV
             Fermi-level           -0.2207349 Eh           -6.0065 eV

 SCC (total)                   0 d,  0 h,  0 min,  0.247 sec
 SCC setup                      ...        0 min,  0.005 sec (  1.842%)
 Dispersion                     ...        0 min,  0.010 sec (  3.935%)
 classical contributions        ...        0 min,  0.005 sec (  2.080%)
 integral evaluation            ...        0 min,  0.014 sec (  5.637%)
 iterations                     ...        0 min,  0.171 sec ( 69.419%)
 molecular gradient             ...        0 min,  0.042 sec ( 17.004%)
 printout                       ...        0 min,  0.000 sec (  0.071%)

         :::::::::::::::::::::::::::::::::::::::::::::::::::::
         ::                     SUMMARY                     ::
         :::::::::::::::::::::::::::::::::::::::::::::::::::::
         :: total energy             -35.584684915722 Eh    ::
         :: gradient norm              0.040534126581 Eh/a0 ::
         :: HOMO-LUMO gap              9.142425304011 eV    ::
         ::.................................................::
         :: SCC energy               -35.904647090841 Eh    ::
         :: -> isotropic ES            0.080430681406 Eh    ::
         :: -> anisotropic ES          0.003380005533 Eh    ::
         :: -> anisotropic XC          0.008567620759 Eh    ::
         :: -> dispersion             -0.017496473935 Eh    ::
         :: repulsion energy           0.319962175119 Eh    ::
         :: add. restraining           0.000000000000 Eh    ::
         :: total charge               0.000000000000 e     ::
         :::::::::::::::::::::::::::::::::::::::::::::::::::::

      ----------------------------------------------------------- 
     |                   =====================                   |
     |                        A N C O P T                        |
     |                   =====================                   |
     |               Approximate Normal Coordinate               |
     |                Rational Function Optimizer                |
      ----------------------------------------------------------- 
      ----------------------------------------------------------- 
     |                   =====================                   |
     |                        A N C O P T                        |
     |                   =====================                   |
     |               Approximate Normal Coordinate               |
     |                Rational Function Optimizer                |
      ----------------------------------------------------------- 

          ...................................................
          :                      SETUP                      :
          :.................................................:
          :   optimization level             tight          :
          :   max. optcycles                   500          :
          :   ANC micro-cycles                  20          :
          :   degrees of freedom                69          :
          :.................................................:
          :   RF solver                   davidson          :
          :   write xtbopt.log                true          :
          :   linear?                        false          :
          :   energy convergence         0.1000000E-05 Eh   :
          :   grad. convergence          0.8000000E-03 Eh/α :
          :   maxmium RF displ.          1.0000000          :
          :   Hlow (freq-cutoff)         0.1000000E-01      :
          :   Hmax (freq-cutoff)         5.0000000          :
          :   S6 in model hess.         20.0000000          :
          ...................................................

generating ANC from exact Hessian ...
Using Lindh-Hessian (1995)
 Shifting diagonal of input Hessian by    8.5150525464668513E-003
 Lowest  eigenvalues of input Hessian
    0.000000    0.000000    0.000000    0.000000    0.000000    0.000000
    0.010000    0.010317    0.010482    0.011301    0.012070    0.012701
    0.014599    0.015960    0.017529    0.020121    0.024190    0.026533
 Highest eigenvalues
    1.248810    1.345149    1.349906    1.405945    1.409650    1.439036


........................................................................
.............................. CYCLE    1 ..............................
........................................................................

 iter      E             dE          RMSdq      gap      omega  full diag
   1    -35.9048338 -0.359048E+02  0.343E-05    9.14       0.0  T
   2    -35.9048338 -0.107647E-10  0.165E-05    9.14    1213.3  T
   3    -35.9048338 -0.611067E-12  0.103E-05    9.14    1948.5  T
     SCC iter.                  ...        0 min,  0.030 sec
     gradient                   ...        0 min,  0.033 sec
 * total energy  :   -35.5846849 Eh     change       -0.2735590E-10 Eh
   gradient norm :     0.0405353 Eh/α   predicted     0.0000000E+00 (-100.00%)
   displ. norm   :     0.2879075 α      lambda       -0.6118985E-02
   maximum displ.:     0.1663824 α      in ANC's #12, #24, #25, ...

........................................................................
.............................. CYCLE    2 ..............................
........................................................................

 iter      E             dE          RMSdq      gap      omega  full diag
   1    -35.9169749 -0.359170E+02  0.179E-01    9.48       0.0  T
   2    -35.9169960 -0.211431E-04  0.108E-01    9.49       1.0  T
   3    -35.9169975 -0.151840E-05  0.121E-02    9.48       1.7  T
   4    -35.9169985 -0.917100E-06  0.454E-03    9.48       4.4  T
   5    -35.9169985 -0.841138E-07  0.193E-03    9.48      10.4  T
   6    -35.9169985 -0.487081E-08  0.574E-04    9.48      34.8  T
   7    -35.9169985 -0.849262E-09  0.150E-04    9.48     132.9  T
     SCC iter.                  ...        0 min,  0.091 sec
     gradient                   ...        0 min,  0.040 sec
 * total energy  :   -35.5887574 Eh     change       -0.4072532E-02 Eh
   gradient norm :     0.0214809 Eh/α   predicted    -0.3313261E-02 ( -18.64%)
   displ. norm   :     0.2225468 α      lambda       -0.1789818E-02
   maximum displ.:     0.1183011 α      in ANC's #12, #3, #4, ...

........................................................................
.............................. CYCLE    3 ..............................
........................................................................

 iter      E             dE          RMSdq      gap      omega  full diag
   1    -35.9237450 -0.359237E+02  0.110E-01    9.67       0.0  T
   2    -35.9237610 -0.159892E-04  0.665E-02    9.67       1.0  T
   3    -35.9237616 -0.687472E-06  0.138E-02    9.68       1.5  T
   4    -35.9237624 -0.785634E-06  0.353E-03    9.68       5.7  T
   5    -35.9237625 -0.560566E-07  0.148E-03    9.68      13.5  T
   6    -35.9237625 -0.205949E-08  0.433E-04    9.68      46.2  T
   7    -35.9237625 -0.249521E-09  0.800E-05    9.68     250.1  T
     SCC iter.                  ...        0 min,  0.106 sec
     gradient                   ...        0 min,  0.041 sec
 * total energy  :   -35.5898603 Eh     change       -0.1102863E-02 Eh
   gradient norm :     0.0065448 Eh/α   predicted    -0.9398030E-03 ( -14.79%)
   displ. norm   :     0.1947091 α      lambda       -0.4987588E-03
   maximum displ.:     0.1074635 α      in ANC's #3, #12, #4, ...

........................................................................
.............................. CYCLE    4 ..............................
........................................................................

 iter      E             dE          RMSdq      gap      omega  full diag
   1    -35.9243306 -0.359243E+02  0.704E-02    9.72       0.0  T
   2    -35.9243336 -0.298956E-05  0.425E-02    9.72       1.0  T
   3    -35.9243340 -0.382264E-06  0.624E-03    9.72       3.2  T
   4    -35.9243342 -0.248001E-06  0.223E-03    9.72       9.0  T
   5    -35.9243342 -0.149818E-07  0.799E-04    9.72      25.0  T
   6    -35.9243342 -0.431541E-09  0.229E-04    9.72      87.3  T
     SCC iter.                  ...        0 min,  0.078 sec
     gradient                   ...        0 min,  0.034 sec
 * total energy  :   -35.5902548 Eh     change       -0.3945084E-03 Eh
   gradient norm :     0.0051841 Eh/α   predicted    -0.2588617E-03 ( -34.38%)
   displ. norm   :     0.3540964 α      lambda       -0.6388885E-03
   maximum displ.:     0.2113550 α      in ANC's #3, #4, #8, ...

........................................................................
.............................. CYCLE    5 ..............................
........................................................................

 iter      E             dE          RMSdq      gap      omega  full diag
   1    -35.9223524 -0.359224E+02  0.122E-01    9.71       0.0  T
   2    -35.9223569 -0.457472E-05  0.742E-02    9.71       1.0  T
   3    -35.9223584 -0.151536E-05  0.709E-03    9.72       2.8  T
   4    -35.9223587 -0.242070E-06  0.334E-03    9.72       6.0  T
   5    -35.9223587 -0.283907E-07  0.113E-03    9.72      17.7  T
   6    -35.9223587 -0.165259E-08  0.203E-04    9.72      98.3  T
   7    -35.9223587 -0.874110E-10  0.976E-05    9.72     205.0  T
     SCC iter.                  ...        0 min,  0.153 sec
     gradient                   ...        0 min,  0.056 sec
 * total energy  :   -35.5907058 Eh     change       -0.4509469E-03 Eh
   gradient norm :     0.0114385 Eh/α   predicted    -0.3594985E-03 ( -20.28%)
   displ. norm   :     0.3111355 α      lambda       -0.4084781E-03
   maximum displ.:     0.2072600 α      in ANC's #3, #4, #8, ...

........................................................................
.............................. CYCLE    6 ..............................
........................................................................

 iter      E             dE          RMSdq      gap      omega  full diag
   1    -35.9217152 -0.359217E+02  0.961E-02    9.69       0.0  T
   2    -35.9217172 -0.198617E-05  0.585E-02    9.69       1.0  T
   3    -35.9217179 -0.649011E-06  0.496E-03    9.69       4.0  T
   4    -35.9217180 -0.178046E-06  0.247E-03    9.69       8.1  T
   5    -35.9217180 -0.733631E-08  0.532E-04    9.69      37.6  T
   6    -35.9217180 -0.650950E-09  0.189E-04    9.69     105.7  T
     SCC iter.                  ...        0 min,  0.081 sec
     gradient                   ...        0 min,  0.038 sec
 * total energy  :   -35.5910286 Eh     change       -0.3228689E-03 Eh
   gradient norm :     0.0104916 Eh/α   predicted    -0.2240180E-03 ( -30.62%)
   displ. norm   :     0.3299105 α      lambda       -0.4408369E-03
   maximum displ.:     0.2389632 α      in ANC's #3, #4, #8, ...

........................................................................
.............................. CYCLE    7 ..............................
........................................................................

 iter      E             dE          RMSdq      gap      omega  full diag
   1    -35.9232753 -0.359233E+02  0.948E-02    9.65       0.0  T
   2    -35.9232778 -0.249209E-05  0.571E-02    9.65       1.0  T
   3    -35.9232781 -0.262441E-06  0.616E-03    9.65       3.2  T
   4    -35.9232784 -0.350147E-06  0.222E-03    9.65       9.0  T
   5    -35.9232785 -0.917716E-08  0.683E-04    9.65      29.3  T
   6    -35.9232785 -0.537398E-09  0.205E-04    9.65      97.4  T
     SCC iter.                  ...        0 min,  0.114 sec
     gradient                   ...        0 min,  0.062 sec
 * total energy  :   -35.5913655 Eh     change       -0.3368947E-03 Eh
   gradient norm :     0.0058355 Eh/α   predicted    -0.2444095E-03 ( -27.45%)
   displ. norm   :     0.3677046 α      lambda       -0.3442181E-03
   maximum displ.:     0.2668885 α      in ANC's #3, #4, #8, ...

........................................................................
.............................. CYCLE    8 ..............................
........................................................................

 iter      E             dE          RMSdq      gap      omega  full diag
   1    -35.9230489 -0.359230E+02  0.110E-01    9.62       0.0  T
   2    -35.9230521 -0.323417E-05  0.666E-02    9.62       1.0  T
   3    -35.9230527 -0.601840E-06  0.714E-03    9.62       2.8  T
   4    -35.9230532 -0.483411E-06  0.292E-03    9.62       6.8  T
   5    -35.9230532 -0.104526E-07  0.595E-04    9.62      33.6  T
   6    -35.9230532 -0.744002E-09  0.229E-04    9.62      87.5  T
     SCC iter.                  ...        0 min,  0.106 sec
     gradient                   ...        0 min,  0.048 sec
 * total energy  :   -35.5916227 Eh     change       -0.2571328E-03 Eh
   gradient norm :     0.0060127 Eh/α   predicted    -0.1953834E-03 ( -24.01%)
   displ. norm   :     0.3141598 α      lambda       -0.2943106E-03
   maximum displ.:     0.2413543 α      in ANC's #3, #4, #8, ...

........................................................................
.............................. CYCLE    9 ..............................
........................................................................

 iter      E             dE          RMSdq      gap      omega  full diag
   1    -35.9260965 -0.359261E+02  0.851E-02    9.60       0.0  T
   2    -35.9260979 -0.137134E-05  0.507E-02    9.60       1.0  T
   3    -35.9260981 -0.233324E-06  0.421E-03    9.60       4.7  T
   4    -35.9260982 -0.134763E-06  0.183E-03    9.60      10.9  T
   5    -35.9260982 -0.769705E-08  0.610E-04    9.60      32.8  T
   6    -35.9260982 -0.567120E-09  0.187E-04    9.60     107.1  T
     SCC iter.                  ...        0 min,  0.089 sec
     gradient                   ...        0 min,  0.040 sec
 * total energy  :   -35.5918172 Eh     change       -0.1944963E-03 Eh
   gradient norm :     0.0076104 Eh/α   predicted    -0.1616890E-03 ( -16.87%)
   displ. norm   :     0.3367944 α      lambda       -0.2068635E-03
   maximum displ.:     0.2498471 α      in ANC's #3, #4, #8, ...

........................................................................
.............................. CYCLE   10 ..............................
........................................................................

 iter      E             dE          RMSdq      gap      omega  full diag
   1    -35.9255546 -0.359256E+02  0.928E-02    9.57       0.0  T
   2    -35.9255562 -0.157181E-05  0.558E-02    9.57       1.0  T
   3    -35.9255568 -0.559690E-06  0.470E-03    9.57       4.3  T
   4    -35.9255569 -0.154858E-06  0.248E-03    9.57       8.1  T
   5    -35.9255569 -0.891053E-08  0.510E-04    9.57      39.3  T
   6    -35.9255569 -0.714778E-09  0.155E-04    9.57     128.8  T
     SCC iter.                  ...        0 min,  0.066 sec
     gradient                   ...        0 min,  0.028 sec
 * total energy  :   -35.5919588 Eh     change       -0.1416781E-03 Eh
   gradient norm :     0.0072902 Eh/α   predicted    -0.1151665E-03 ( -18.71%)
   displ. norm   :     0.2747758 α      lambda       -0.1694148E-03
   maximum displ.:     0.2127458 α      in ANC's #3, #4, #8, ...

........................................................................
.............................. CYCLE   11 ..............................
........................................................................

 iter      E             dE          RMSdq      gap      omega  full diag
   1    -35.9255046 -0.359255E+02  0.718E-02    9.55       0.0  T
   2    -35.9255055 -0.927557E-06  0.430E-02    9.55       1.0  T
   3    -35.9255059 -0.378556E-06  0.337E-03    9.55       5.9  T
   4    -35.9255060 -0.439072E-07  0.188E-03    9.55      10.7  T
   5    -35.9255060 -0.612017E-08  0.543E-04    9.55      36.9  T
   6    -35.9255060 -0.800682E-09  0.179E-04    9.55     111.7  T
     SCC iter.                  ...        0 min,  0.072 sec
     gradient                   ...        0 min,  0.034 sec
 * total energy  :   -35.5920788 Eh     change       -0.1199611E-03 Eh
   gradient norm :     0.0041050 Eh/α   predicted    -0.9110381E-04 ( -24.06%)
   displ. norm   :     0.3242999 α      lambda       -0.1901242E-03
   maximum displ.:     0.2396530 α      in ANC's #3, #4, #2, ...

........................................................................
.............................. CYCLE   12 ..............................
........................................................................

 iter      E             dE          RMSdq      gap      omega  full diag
   1    -35.9275526 -0.359276E+02  0.817E-02    9.53       0.0  T
   2    -35.9275539 -0.126586E-05  0.486E-02    9.53       1.0  T
   3    -35.9275543 -0.426334E-06  0.376E-03    9.53       5.3  T
   4    -35.9275543 -0.512907E-07  0.198E-03    9.53      10.1  T
   5    -35.9275543 -0.723494E-08  0.637E-04    9.53      31.4  T
   6    -35.9275543 -0.117441E-08  0.248E-04    9.53      80.5  T
     SCC iter.                  ...        0 min,  0.079 sec
     gradient                   ...        0 min,  0.039 sec
 * total energy  :   -35.5921696 Eh     change       -0.9083398E-04 Eh
   gradient norm :     0.0057673 Eh/α   predicted    -0.1050659E-03 (  15.67%)
   displ. norm   :     0.1050962 α      lambda       -0.6281346E-04
   maximum displ.:     0.0725434 α      in ANC's #3, #4, #1, ...

........................................................................
.............................. CYCLE   13 ..............................
........................................................................

 iter      E             dE          RMSdq      gap      omega  full diag
   1    -35.9262427 -0.359262E+02  0.294E-02    9.51       0.0  T
   2    -35.9262430 -0.248870E-06  0.174E-02    9.51       1.1  T
   3    -35.9262430 -0.522307E-07  0.184E-03    9.51      10.9  T
   4    -35.9262431 -0.235919E-07  0.838E-04    9.51      23.9  T
   5    -35.9262431 -0.165045E-08  0.268E-04    9.51      74.5  T
     SCC iter.                  ...        0 min,  0.084 sec
     gradient                   ...        0 min,  0.047 sec
 * total energy  :   -35.5922123 Eh     change       -0.4268757E-04 Eh
   gradient norm :     0.0028184 Eh/α   predicted    -0.3175528E-04 ( -25.61%)
   displ. norm   :     0.1024584 α      lambda       -0.7293604E-04
   maximum displ.:     0.0837428 α      in ANC's #1, #9, #7, ...

........................................................................
.............................. CYCLE   14 ..............................
........................................................................

 iter      E             dE          RMSdq      gap      omega  full diag
   1    -35.9260524 -0.359261E+02  0.328E-02    9.51       0.0  T
   2    -35.9260526 -0.199075E-06  0.197E-02    9.51       1.0  T
   3    -35.9260526 -0.642524E-07  0.139E-03    9.51      14.4  T
   4    -35.9260526 -0.604211E-08  0.690E-04    9.51      29.0  T
   5    -35.9260526 -0.888690E-09  0.241E-04    9.51      83.1  T
     SCC iter.                  ...        0 min,  0.063 sec
     gradient                   ...        0 min,  0.035 sec
 * total energy  :   -35.5922639 Eh     change       -0.5158179E-04 Eh
   gradient norm :     0.0041141 Eh/α   predicted    -0.3685148E-04 ( -28.56%)
   displ. norm   :     0.1522951 α      lambda       -0.7495886E-04
   maximum displ.:     0.1082968 α      in ANC's #1, #2, #3, ...

........................................................................
.............................. CYCLE   15 ..............................
........................................................................

 iter      E             dE          RMSdq      gap      omega  full diag
   1    -35.9248040 -0.359248E+02  0.454E-02    9.50       0.0  T
   2    -35.9248047 -0.637464E-06  0.272E-02    9.50       1.0  T
   3    -35.9248047 -0.608802E-07  0.299E-03    9.50       6.7  T
   4    -35.9248048 -0.785701E-07  0.113E-03    9.50      17.6  T
   5    -35.9248048 -0.244361E-08  0.360E-04    9.50      55.6  T
   6    -35.9248048 -0.225164E-09  0.138E-04    9.50     144.7  T
     SCC iter.                  ...        0 min,  0.076 sec
     gradient                   ...        0 min,  0.041 sec
 * total energy  :   -35.5923170 Eh     change       -0.5309379E-04 Eh
   gradient norm :     0.0043175 Eh/α   predicted    -0.3835195E-04 ( -27.77%)
   displ. norm   :     0.1763366 α      lambda       -0.8081840E-04
   maximum displ.:     0.1433027 α      in ANC's #1, #2, #9, ...

........................................................................
.............................. CYCLE   16 ..............................
........................................................................

 iter      E             dE          RMSdq      gap      omega  full diag
   1    -35.9257888 -0.359258E+02  0.545E-02    9.51       0.0  T
   2    -35.9257893 -0.507366E-06  0.329E-02    9.51       1.0  T
   3    -35.9257894 -0.132578E-06  0.248E-03    9.51       8.1  T
   4    -35.9257895 -0.425914E-07  0.117E-03    9.51      17.0  T
   5    -35.9257895 -0.294352E-08  0.341E-04    9.51      58.6  T
   6    -35.9257895 -0.178694E-09  0.919E-05    9.51     217.6  T
     SCC iter.                  ...        0 min,  0.080 sec
     gradient                   ...        0 min,  0.040 sec
 * total energy  :   -35.5923628 Eh     change       -0.4581946E-04 Eh
   gradient norm :     0.0045381 Eh/α   predicted    -0.4166786E-04 (  -9.06%)
   displ. norm   :     0.1103370 α      lambda       -0.5542860E-04
   maximum displ.:     0.0809701 α      in ANC's #1, #2, #3, ...

........................................................................
.............................. CYCLE   17 ..............................
........................................................................

 iter      E             dE          RMSdq      gap      omega  full diag
   1    -35.9256317 -0.359256E+02  0.316E-02    9.50       0.0  T
   2    -35.9256320 -0.318583E-06  0.191E-02    9.50       1.0  T
   3    -35.9256321 -0.586389E-07  0.194E-03    9.50      10.3  T
   4    -35.9256321 -0.247627E-07  0.862E-04    9.50      23.2  T
   5    -35.9256321 -0.134109E-08  0.295E-04    9.50      67.8  T
     SCC iter.                  ...        0 min,  0.071 sec
     gradient                   ...        0 min,  0.040 sec
 * total energy  :   -35.5924030 Eh     change       -0.4021778E-04 Eh
   gradient norm :     0.0024809 Eh/α   predicted    -0.2805702E-04 ( -30.24%)
   displ. norm   :     0.0929042 α      lambda       -0.3798450E-04
   maximum displ.:     0.0714294 α      in ANC's #1, #2, #3, ...

........................................................................
.............................. CYCLE   18 ..............................
........................................................................

 iter      E             dE          RMSdq      gap      omega  full diag
   1    -35.9261456 -0.359261E+02  0.257E-02    9.50       0.0  T
   2    -35.9261458 -0.136888E-06  0.154E-02    9.50       1.3  T
   3    -35.9261458 -0.252102E-07  0.123E-03    9.50      16.3  T
   4    -35.9261458 -0.103231E-07  0.558E-04    9.50      35.8  T
   5    -35.9261458 -0.565421E-09  0.173E-04    9.50     115.9  T
     SCC iter.                  ...        0 min,  0.057 sec
     gradient                   ...        0 min,  0.035 sec
 * total energy  :   -35.5924328 Eh     change       -0.2981276E-04 Eh
   gradient norm :     0.0019043 Eh/α   predicted    -0.1915996E-04 ( -35.73%)
   displ. norm   :     0.1658842 α      lambda       -0.3599134E-04
   maximum displ.:     0.1262361 α      in ANC's #1, #2, #4, ...

........................................................................
.............................. CYCLE   19 ..............................
........................................................................

 iter      E             dE          RMSdq      gap      omega  full diag
   1    -35.9263459 -0.359263E+02  0.444E-02    9.49       0.0  T
   2    -35.9263462 -0.302148E-06  0.266E-02    9.49       1.0  T
   3    -35.9263463 -0.671160E-07  0.180E-03    9.49      11.1  T
   4    -35.9263463 -0.214371E-07  0.882E-04    9.49      22.7  T
   5    -35.9263463 -0.114161E-08  0.282E-04    9.49      71.0  T
     SCC iter.                  ...        0 min,  0.060 sec
     gradient                   ...        0 min,  0.038 sec
 * total energy  :   -35.5924721 Eh     change       -0.3926994E-04 Eh
   gradient norm :     0.0024468 Eh/α   predicted    -0.1821772E-04 ( -53.61%)
   displ. norm   :     0.1186278 α      lambda       -0.3197997E-04
   maximum displ.:     0.0861760 α      in ANC's #1, #2, #4, ...

........................................................................
.............................. CYCLE   20 ..............................
........................................................................

 iter      E             dE          RMSdq      gap      omega  full diag
   1    -35.9260801 -0.359261E+02  0.348E-02    9.50       0.0  T
   2    -35.9260802 -0.143850E-06  0.209E-02    9.50       1.0  T
   3    -35.9260803 -0.380594E-07  0.120E-03    9.50      16.7  T
   4    -35.9260803 -0.651868E-08  0.609E-04    9.50      32.8  T
   5    -35.9260803 -0.774264E-09  0.220E-04    9.50      91.0  T
     SCC iter.                  ...        0 min,  0.061 sec
     gradient                   ...        0 min,  0.035 sec
 * total energy  :   -35.5924993 Eh     change       -0.2717815E-04 Eh
   gradient norm :     0.0024789 Eh/α   predicted    -0.1621953E-04 ( -40.32%)
   displ. norm   :     0.2428639 α      lambda       -0.5944310E-04
   maximum displ.:     0.1743783 α      in ANC's #1, #2, #4, ...
 * RMSD in coord.:     0.6346853 α      energy gain  -0.7814377E-02 Eh

generating ANC from exact Hessian ...
Using Lindh-Hessian (1995)
 Shifting diagonal of input Hessian by    1.0647721315848312E-002
 Lowest  eigenvalues of input Hessian
    0.010000    0.000000    0.000000    0.000000    0.000000    0.000000
    0.000000    0.012096    0.012785    0.013424    0.014773    0.015167
    0.018338    0.019079    0.021280    0.024648    0.028316    0.030593
 Highest eigenvalues
    1.285234    1.456904    1.472882    1.491514    1.515667    1.537454


........................................................................
.............................. CYCLE   21 ..............................
........................................................................

 iter      E             dE          RMSdq      gap      omega  full diag
   1    -35.9254020 -0.359254E+02  0.707E-02    9.49       0.0  T
   2    -35.9254026 -0.543112E-06  0.424E-02    9.50       1.0  T
   3    -35.9254028 -0.183240E-06  0.243E-03    9.49       8.2  T
   4    -35.9254028 -0.201185E-07  0.127E-03    9.49      15.8  T
   5    -35.9254028 -0.320308E-08  0.428E-04    9.49      46.7  T
   6    -35.9254028 -0.416279E-09  0.138E-04    9.49     145.3  T
     SCC iter.                  ...        0 min,  0.070 sec
     gradient                   ...        0 min,  0.034 sec
 * total energy  :   -35.5925406 Eh     change       -0.4126266E-04 Eh
   gradient norm :     0.0029483 Eh/α   predicted     0.0000000E+00 (-100.00%)
   displ. norm   :     0.0248147 α      lambda       -0.2413916E-04
   maximum displ.:     0.0127934 α      in ANC's #1, #6, #10, ...

........................................................................
.............................. CYCLE   22 ..............................
........................................................................

 iter      E             dE          RMSdq      gap      omega  full diag
   1    -35.9259591 -0.359260E+02  0.105E-02    9.49       0.0  T
   2    -35.9259592 -0.578327E-07  0.636E-03    9.49       3.1  T
   3    -35.9259592 -0.995903E-08  0.835E-04    9.49      24.0  T
   4    -35.9259592 -0.410186E-08  0.351E-04    9.49      56.9  T
     SCC iter.                  ...        0 min,  0.053 sec
     gradient                   ...        0 min,  0.040 sec
 * total energy  :   -35.5925589 Eh     change       -0.1837755E-04 Eh
   gradient norm :     0.0011855 Eh/α   predicted    -0.1208829E-04 ( -34.22%)
   displ. norm   :     0.0658857 α      lambda       -0.2244065E-04
   maximum displ.:     0.0290808 α      in ANC's #6, #10, #2, ...

........................................................................
.............................. CYCLE   23 ..............................
........................................................................

 iter      E             dE          RMSdq      gap      omega  full diag
   1    -35.9266197 -0.359266E+02  0.259E-02    9.49       0.0  T
   2    -35.9266200 -0.303179E-06  0.159E-02    9.49       1.3  T
   3    -35.9266201 -0.527525E-07  0.190E-03    9.49      10.5  T
   4    -35.9266201 -0.245224E-07  0.781E-04    9.49      25.6  T
   5    -35.9266201 -0.107251E-08  0.265E-04    9.49      75.3  T
     SCC iter.                  ...        0 min,  0.059 sec
     gradient                   ...        0 min,  0.046 sec
 * total energy  :   -35.5925751 Eh     change       -0.1621268E-04 Eh
   gradient norm :     0.0016710 Eh/α   predicted    -0.1124213E-04 ( -30.66%)
   displ. norm   :     0.0288725 α      lambda       -0.5931764E-05
   maximum displ.:     0.0189350 α      in ANC's #2, #4, #10, ...

........................................................................
.............................. CYCLE   24 ..............................
........................................................................

 iter      E             dE          RMSdq      gap      omega  full diag
   1    -35.9263357 -0.359263E+02  0.100E-02    9.49       0.0  T
   2    -35.9263357 -0.200069E-07  0.605E-03    9.49       3.3  T
   3    -35.9263357 -0.565616E-08  0.469E-04    9.49      42.7  T
   4    -35.9263357 -0.109335E-08  0.225E-04    9.49      88.9  T
     SCC iter.                  ...        0 min,  0.067 sec
     gradient                   ...        0 min,  0.031 sec
 * total energy  :   -35.5925824 Eh     change       -0.7246168E-05 Eh
   gradient norm :     0.0007891 Eh/α   predicted    -0.2967082E-05 ( -59.05%)
   displ. norm   :     0.0747603 α      lambda       -0.9611402E-05
   maximum displ.:     0.0515869 α      in ANC's #2, #4, #7, ...

........................................................................
.............................. CYCLE   25 ..............................
........................................................................

 iter      E             dE          RMSdq      gap      omega  full diag
   1    -35.9259213 -0.359259E+02  0.243E-02    9.49       0.0  T
   2    -35.9259214 -0.961499E-07  0.147E-02    9.49       1.4  T
   3    -35.9259214 -0.291560E-07  0.102E-03    9.49      19.6  T
   4    -35.9259214 -0.474973E-08  0.520E-04    9.49      38.5  T
   5    -35.9259214 -0.427413E-09  0.171E-04    9.49     117.1  T
     SCC iter.                  ...        0 min,  0.047 sec
     gradient                   ...        0 min,  0.021 sec
 * total energy  :   -35.5925917 Eh     change       -0.9294766E-05 Eh
   gradient norm :     0.0011563 Eh/α   predicted    -0.4823876E-05 ( -48.10%)
   displ. norm   :     0.0453145 α      lambda       -0.3910919E-05
   maximum displ.:     0.0319055 α      in ANC's #2, #4, #7, ...

........................................................................
.............................. CYCLE   26 ..............................
........................................................................

 iter      E             dE          RMSdq      gap      omega  full diag
   1    -35.9259098 -0.359259E+02  0.145E-02    9.49       0.0  T
   2    -35.9259098 -0.259054E-07  0.872E-03    9.49       2.3  T
   3    -35.9259098 -0.958811E-08  0.500E-04    9.49      40.0  T
   4    -35.9259098 -0.618080E-09  0.279E-04    9.49      71.7  T
     SCC iter.                  ...        0 min,  0.118 sec
     gradient                   ...        0 min,  0.032 sec
 * total energy  :   -35.5925968 Eh     change       -0.5078077E-05 Eh
   gradient norm :     0.0011020 Eh/α   predicted    -0.1957849E-05 ( -61.45%)
   displ. norm   :     0.0767459 α      lambda       -0.7213240E-05
   maximum displ.:     0.0517775 α      in ANC's #2, #4, #7, ...

........................................................................
.............................. CYCLE   27 ..............................
........................................................................

 iter      E             dE          RMSdq      gap      omega  full diag
   1    -35.9260718 -0.359261E+02  0.258E-02    9.49       0.0  T
   2    -35.9260719 -0.690714E-07  0.156E-02    9.49       1.3  T
   3    -35.9260719 -0.336847E-07  0.905E-04    9.49      22.1  T
   4    -35.9260719 -0.168372E-08  0.484E-04    9.49      41.3  T
     SCC iter.                  ...        0 min,  0.128 sec
     gradient                   ...        0 min,  0.036 sec
 * total energy  :   -35.5926058 Eh     change       -0.8996336E-05 Eh
   gradient norm :     0.0006732 Eh/α   predicted    -0.3618332E-05 ( -59.78%)
   displ. norm   :     0.1139936 α      lambda       -0.8221908E-05
   maximum displ.:     0.0760441 α      in ANC's #2, #4, #5, ...

........................................................................
.............................. CYCLE   28 ..............................
........................................................................

 iter      E             dE          RMSdq      gap      omega  full diag
   1    -35.9261394 -0.359261E+02  0.393E-02    9.49       0.0  T
   2    -35.9261395 -0.126370E-06  0.237E-02    9.49       1.0  T
   3    -35.9261396 -0.657068E-07  0.125E-03    9.49      16.0  T
   4    -35.9261396 -0.313799E-08  0.644E-04    9.49      31.0  T
   5    -35.9261396 -0.977927E-09  0.178E-04    9.49     112.4  T
     SCC iter.                  ...        0 min,  0.140 sec
     gradient                   ...        0 min,  0.049 sec
 * total energy  :   -35.5926158 Eh     change       -0.1005768E-04 Eh
   gradient norm :     0.0006187 Eh/α   predicted    -0.4135494E-05 ( -58.88%)
   displ. norm   :     0.1510544 α      lambda       -0.8533621E-05
   maximum displ.:     0.0997200 α      in ANC's #2, #4, #5, ...

........................................................................
.............................. CYCLE   29 ..............................
........................................................................

 iter      E             dE          RMSdq      gap      omega  full diag
   1    -35.9260710 -0.359261E+02  0.522E-02    9.48       0.0  T
   2    -35.9260712 -0.213873E-06  0.315E-02    9.48       1.0  T
   3    -35.9260713 -0.113308E-06  0.166E-03    9.48      12.0  T
   4    -35.9260714 -0.540621E-08  0.827E-04    9.48      24.2  T
   5    -35.9260714 -0.185464E-08  0.230E-04    9.48      86.9  T
     SCC iter.                  ...        0 min,  0.076 sec
     gradient                   ...        0 min,  0.042 sec
 * total energy  :   -35.5926251 Eh     change       -0.9317910E-05 Eh
   gradient norm :     0.0008394 Eh/α   predicted    -0.4311450E-05 ( -53.73%)
   displ. norm   :     0.1436541 α      lambda       -0.6188291E-05
   maximum displ.:     0.0936185 α      in ANC's #2, #4, #5, ...

........................................................................
.............................. CYCLE   30 ..............................
........................................................................

 iter      E             dE          RMSdq      gap      omega  full diag
   1    -35.9260130 -0.359260E+02  0.490E-02    9.48       0.0  T
   2    -35.9260132 -0.164525E-06  0.295E-02    9.48       1.0  T
   3    -35.9260132 -0.904656E-07  0.144E-03    9.48      13.8  T
   4    -35.9260132 -0.324842E-08  0.625E-04    9.48      32.0  T
   5    -35.9260133 -0.102410E-08  0.192E-04    9.48     104.3  T
     SCC iter.                  ...        0 min,  0.073 sec
     gradient                   ...        0 min,  0.040 sec
 * total energy  :   -35.5926311 Eh     change       -0.5941077E-05 Eh
   gradient norm :     0.0009145 Eh/α   predicted    -0.3123757E-05 ( -47.42%)
   displ. norm   :     0.0608504 α      lambda       -0.3949317E-05
   maximum displ.:     0.0358393 α      in ANC's #2, #4, #5, ...

........................................................................
.............................. CYCLE   31 ..............................
........................................................................

 iter      E             dE          RMSdq      gap      omega  full diag
   1    -35.9263352 -0.359263E+02  0.204E-02    9.48       0.0  T
   2    -35.9263352 -0.359008E-07  0.123E-02    9.48       1.6  T
   3    -35.9263352 -0.139041E-07  0.653E-04    9.48      30.6  T
   4    -35.9263352 -0.162006E-08  0.358E-04    9.48      55.9  T
     SCC iter.                  ...        0 min,  0.065 sec
     gradient                   ...        0 min,  0.044 sec
 * total energy  :   -35.5926351 Eh     change       -0.3982399E-05 Eh
   gradient norm :     0.0004179 Eh/α   predicted    -0.1978320E-05 ( -50.32%)
   displ. norm   :     0.1211401 α      lambda       -0.3972565E-05
   maximum displ.:     0.0731914 α      in ANC's #4, #2, #5, ...

........................................................................
.............................. CYCLE   32 ..............................
........................................................................

 iter      E             dE          RMSdq      gap      omega  full diag
   1    -35.9260707 -0.359261E+02  0.408E-02    9.47       0.0  T
   2    -35.9260709 -0.115700E-06  0.246E-02    9.47       1.0  T
   3    -35.9260709 -0.548411E-07  0.118E-03    9.47      16.9  T
   4    -35.9260709 -0.333016E-08  0.640E-04    9.47      31.3  T
   5    -35.9260709 -0.803951E-09  0.174E-04    9.47     115.1  T
     SCC iter.                  ...        0 min,  0.105 sec
     gradient                   ...        0 min,  0.035 sec
 * total energy  :   -35.5926386 Eh     change       -0.3503711E-05 Eh
   gradient norm :     0.0009882 Eh/α   predicted    -0.1999682E-05 ( -42.93%)
   displ. norm   :     0.0554988 α      lambda       -0.3965693E-05
   maximum displ.:     0.0326008 α      in ANC's #3, #5, #4, ...

........................................................................
.............................. CYCLE   33 ..............................
........................................................................

 iter      E             dE          RMSdq      gap      omega  full diag
   1    -35.9262283 -0.359262E+02  0.171E-02    9.47       0.0  T
   2    -35.9262283 -0.533629E-07  0.104E-02    9.47       1.9  T
   3    -35.9262284 -0.198938E-07  0.817E-04    9.47      24.5  T
   4    -35.9262284 -0.267998E-08  0.440E-04    9.47      45.4  T
     SCC iter.                  ...        0 min,  0.047 sec
     gradient                   ...        0 min,  0.039 sec
 * total energy  :   -35.5926430 Eh     change       -0.4392727E-05 Eh
   gradient norm :     0.0008688 Eh/α   predicted    -0.1986126E-05 ( -54.79%)
   displ. norm   :     0.0858946 α      lambda       -0.4759341E-05
   maximum displ.:     0.0555482 α      in ANC's #3, #5, #4, ...

........................................................................
.............................. CYCLE   34 ..............................
........................................................................

 iter      E             dE          RMSdq      gap      omega  full diag
   1    -35.9261862 -0.359262E+02  0.267E-02    9.47       0.0  T
   2    -35.9261863 -0.109939E-06  0.161E-02    9.47       1.2  T
   3    -35.9261864 -0.447359E-07  0.120E-03    9.47      16.6  T
   4    -35.9261864 -0.590770E-08  0.662E-04    9.47      30.2  T
   5    -35.9261864 -0.797797E-09  0.174E-04    9.47     114.9  T
     SCC iter.                  ...        0 min,  0.061 sec
     gradient                   ...        0 min,  0.035 sec
 * total energy  :   -35.5926487 Eh     change       -0.5734180E-05 Eh
   gradient norm :     0.0008913 Eh/α   predicted    -0.2392431E-05 ( -58.28%)
   displ. norm   :     0.0772913 α      lambda       -0.4904257E-05
   maximum displ.:     0.0556073 α      in ANC's #3, #5, #4, ...

........................................................................
.............................. CYCLE   35 ..............................
........................................................................

 iter      E             dE          RMSdq      gap      omega  full diag
   1    -35.9261042 -0.359261E+02  0.240E-02    9.46       0.0  T
   2    -35.9261043 -0.105271E-06  0.145E-02    9.46       1.4  T
   3    -35.9261044 -0.306230E-07  0.124E-03    9.46      16.2  T
   4    -35.9261044 -0.112136E-07  0.627E-04    9.46      31.9  T
   5    -35.9261044 -0.638607E-09  0.151E-04    9.46     132.5  T
     SCC iter.                  ...        0 min,  0.073 sec
     gradient                   ...        0 min,  0.047 sec
 * total energy  :   -35.5926548 Eh     change       -0.6139103E-05 Eh
   gradient norm :     0.0008130 Eh/α   predicted    -0.2461730E-05 ( -59.90%)
   displ. norm   :     0.0981085 α      lambda       -0.6005957E-05
   maximum displ.:     0.0712020 α      in ANC's #3, #5, #4, ...

........................................................................
.............................. CYCLE   36 ..............................
........................................................................

 iter      E             dE          RMSdq      gap      omega  full diag
   1    -35.9259334 -0.359259E+02  0.302E-02    9.45       0.0  T
   2    -35.9259335 -0.136097E-06  0.182E-02    9.45       1.1  T
   3    -35.9259336 -0.387954E-07  0.140E-03    9.45      14.3  T
   4    -35.9259336 -0.149177E-07  0.708E-04    9.45      28.3  T
   5    -35.9259336 -0.812705E-09  0.163E-04    9.45     122.6  T
     SCC iter.                  ...        0 min,  0.079 sec
     gradient                   ...        0 min,  0.045 sec
 * total energy  :   -35.5926620 Eh     change       -0.7157736E-05 Eh
   gradient norm :     0.0008983 Eh/α   predicted    -0.3019956E-05 ( -57.81%)
   displ. norm   :     0.1299397 α      lambda       -0.7018786E-05
   maximum displ.:     0.0990980 α      in ANC's #3, #5, #4, ...

........................................................................
.............................. CYCLE   37 ..............................
........................................................................

 iter      E             dE          RMSdq      gap      omega  full diag
   1    -35.9258497 -0.359258E+02  0.380E-02    9.44       0.0  T
   2    -35.9258500 -0.218960E-06  0.229E-02    9.44       1.0  T
   3    -35.9258500 -0.573136E-07  0.177E-03    9.44      11.3  T
   4    -35.9258500 -0.248096E-07  0.878E-04    9.44      22.8  T
   5    -35.9258500 -0.113559E-08  0.190E-04    9.44     105.4  T
     SCC iter.                  ...        0 min,  0.068 sec
     gradient                   ...        0 min,  0.040 sec
 * total energy  :   -35.5926690 Eh     change       -0.7057728E-05 Eh
   gradient norm :     0.0012883 Eh/α   predicted    -0.3539928E-05 ( -49.84%)
   displ. norm   :     0.1055003 α      lambda       -0.4730831E-05
   maximum displ.:     0.0743589 α      in ANC's #3, #5, #4, ...

........................................................................
.............................. CYCLE   38 ..............................
........................................................................

 iter      E             dE          RMSdq      gap      omega  full diag
   1    -35.9257400 -0.359257E+02  0.309E-02    9.44       0.0  T
   2    -35.9257401 -0.117975E-06  0.186E-02    9.44       1.1  T
   3    -35.9257401 -0.443358E-07  0.126E-03    9.44      15.9  T
   4    -35.9257401 -0.787456E-08  0.691E-04    9.44      28.9  T
   5    -35.9257401 -0.883418E-09  0.168E-04    9.44     118.9  T
     SCC iter.                  ...        0 min,  0.070 sec
     gradient                   ...        0 min,  0.041 sec
 * total energy  :   -35.5926737 Eh     change       -0.4629816E-05 Eh
   gradient norm :     0.0014683 Eh/α   predicted    -0.2378004E-05 ( -48.64%)
   displ. norm   :     0.0983548 α      lambda       -0.7555559E-05
   maximum displ.:     0.0717036 α      in ANC's #3, #5, #4, ...

........................................................................
.............................. CYCLE   39 ..............................
........................................................................

 iter      E             dE          RMSdq      gap      omega  full diag
   1    -35.9262749 -0.359263E+02  0.258E-02    9.44       0.0  T
   2    -35.9262750 -0.108189E-06  0.155E-02    9.44       1.3  T
   3    -35.9262750 -0.299758E-07  0.112E-03    9.44      17.9  T
   4    -35.9262750 -0.665670E-08  0.581E-04    9.44      34.4  T
   5    -35.9262750 -0.532857E-09  0.159E-04    9.44     126.1  T
     SCC iter.                  ...        0 min,  0.074 sec
     gradient                   ...        0 min,  0.043 sec
 * total energy  :   -35.5926813 Eh     change       -0.7645358E-05 Eh
   gradient norm :     0.0008194 Eh/α   predicted    -0.3794852E-05 ( -50.36%)
   displ. norm   :     0.2271061 α      lambda       -0.1051183E-04
   maximum displ.:     0.1395832 α      in ANC's #3, #4, #5, ...

........................................................................
.............................. CYCLE   40 ..............................
........................................................................

 iter      E             dE          RMSdq      gap      omega  full diag
   1    -35.9253517 -0.359254E+02  0.672E-02    9.42       0.0  T
   2    -35.9253521 -0.466421E-06  0.405E-02    9.42       1.0  T
   3    -35.9253523 -0.184274E-06  0.239E-03    9.42       8.4  T
   4    -35.9253523 -0.165019E-07  0.124E-03    9.42      16.1  T
   5    -35.9253523 -0.312282E-08  0.364E-04    9.42      54.9  T
   6    -35.9253523 -0.354021E-09  0.135E-04    9.42     148.3  T
     SCC iter.                  ...        0 min,  0.076 sec
     gradient                   ...        0 min,  0.041 sec
 * total energy  :   -35.5926796 Eh     change        0.1716549E-05 Eh
   gradient norm :     0.0040076 Eh/α   predicted    -0.5379653E-05 (-413.40%)
   displ. norm   :     0.0493418 α      lambda       -0.2371749E-04
   maximum displ.:     0.0347042 α      in ANC's #3, #5, #4, ...

........................................................................
.............................. CYCLE   41 ..............................
........................................................................

 iter      E             dE          RMSdq      gap      omega  full diag
   1    -35.9261944 -0.359262E+02  0.169E-02    9.43       0.0  T
   2    -35.9261945 -0.677015E-07  0.102E-02    9.43       2.0  T
   3    -35.9261945 -0.143442E-07  0.894E-04    9.43      22.4  T
   4    -35.9261945 -0.524899E-08  0.415E-04    9.43      48.2  T
     SCC iter.                  ...        0 min,  0.062 sec
     gradient                   ...        0 min,  0.043 sec
 * total energy  :   -35.5926948 Eh     change       -0.1523594E-04 Eh
   gradient norm :     0.0014817 Eh/α   predicted    -0.1189153E-04 ( -21.95%)
   displ. norm   :     0.0715366 α      lambda       -0.9101897E-05
   maximum displ.:     0.0399785 α      in ANC's #6, #7, #4, ...

........................................................................
.............................. CYCLE   42 ..............................
........................................................................

 iter      E             dE          RMSdq      gap      omega  full diag
   1    -35.9265923 -0.359266E+02  0.228E-02    9.43       0.0  T
   2    -35.9265924 -0.992468E-07  0.138E-02    9.43       1.4  T
   3    -35.9265924 -0.434558E-07  0.111E-03    9.43      18.0  T
   4    -35.9265924 -0.466095E-08  0.631E-04    9.43      31.7  T
   5    -35.9265924 -0.746354E-09  0.166E-04    9.43     120.4  T
     SCC iter.                  ...        0 min,  0.070 sec
     gradient                   ...        0 min,  0.039 sec
 * total energy  :   -35.5927035 Eh     change       -0.8709520E-05 Eh
   gradient norm :     0.0012730 Eh/α   predicted    -0.4564022E-05 ( -47.60%)
   displ. norm   :     0.1311361 α      lambda       -0.7666681E-05
   maximum displ.:     0.0662348 α      in ANC's #4, #3, #6, ...
 * RMSD in coord.:     0.3065699 α      energy gain  -0.2042566E-03 Eh

generating ANC from exact Hessian ...
Using Lindh-Hessian (1995)
 Shifting diagonal of input Hessian by    1.1120711796315574E-002
 Lowest  eigenvalues of input Hessian
    0.010000    0.000000    0.000000    0.000000    0.000000    0.000000
    0.000000    0.012669    0.013404    0.013984    0.015042    0.015643
    0.018553    0.019420    0.021962    0.025026    0.028054    0.031630
 Highest eigenvalues
    1.289118    1.461685    1.478259    1.500818    1.519270    1.542437


........................................................................
.............................. CYCLE   43 ..............................
........................................................................

 iter      E             dE          RMSdq      gap      omega  full diag
   1    -35.9262902 -0.359263E+02  0.412E-02    9.42       0.0  T
   2    -35.9262904 -0.210497E-06  0.249E-02    9.42       1.0  T
   3    -35.9262905 -0.824941E-07  0.172E-03    9.42      11.6  T
   4    -35.9262905 -0.167531E-07  0.957E-04    9.42      20.9  T
   5    -35.9262905 -0.164078E-08  0.210E-04    9.42      95.1  T
     SCC iter.                  ...        0 min,  0.081 sec
     gradient                   ...        0 min,  0.056 sec
 * total energy  :   -35.5927126 Eh     change       -0.9061790E-05 Eh
   gradient norm :     0.0009300 Eh/α   predicted     0.0000000E+00 (-100.00%)
   displ. norm   :     0.0126890 α      lambda       -0.3042098E-05
   maximum displ.:     0.0068532 α      in ANC's #8, #4, #2, ...

........................................................................
.............................. CYCLE   44 ..............................
........................................................................

 iter      E             dE          RMSdq      gap      omega  full diag
   1    -35.9266050 -0.359266E+02  0.540E-03    9.42       0.0  T
   2    -35.9266050 -0.199282E-07  0.323E-03    9.42       6.2  T
   3    -35.9266050 -0.157608E-08  0.460E-04    9.42      43.5  T
   4    -35.9266050 -0.934222E-09  0.146E-04    9.42     137.1  T
     SCC iter.                  ...        0 min,  0.068 sec
     gradient                   ...        0 min,  0.041 sec
 * total energy  :   -35.5927155 Eh     change       -0.2938451E-05 Eh
   gradient norm :     0.0002594 Eh/α   predicted    -0.1531081E-05 ( -47.89%)
   displ. norm   :     0.0225207 α      lambda       -0.2058641E-05
   maximum displ.:     0.0121040 α      in ANC's #8, #4, #2, ...

........................................................................
.............................. CYCLE   45 ..............................
........................................................................

 iter      E             dE          RMSdq      gap      omega  full diag
   1    -35.9266805 -0.359267E+02  0.774E-03    9.43       0.0  T
   2    -35.9266805 -0.162531E-07  0.468E-03    9.43       4.3  T
   3    -35.9266805 -0.198806E-08  0.448E-04    9.43      44.7  T
   4    -35.9266805 -0.169163E-08  0.181E-04    9.43     110.2  T
     SCC iter.                  ...        0 min,  0.065 sec
     gradient                   ...        0 min,  0.039 sec
 * total energy  :   -35.5927181 Eh     change       -0.2562924E-05 Eh
   gradient norm :     0.0004771 Eh/α   predicted    -0.1036420E-05 ( -59.56%)
   displ. norm   :     0.0653701 α      lambda       -0.4572606E-05
   maximum displ.:     0.0343654 α      in ANC's #4, #8, #5, ...

........................................................................
.............................. CYCLE   46 ..............................
........................................................................

 iter      E             dE          RMSdq      gap      omega  full diag
   1    -35.9265916 -0.359266E+02  0.224E-02    9.43       0.0  T
   2    -35.9265917 -0.875864E-07  0.136E-02    9.43       1.5  T
   3    -35.9265917 -0.283026E-07  0.101E-03    9.43      19.8  T
   4    -35.9265917 -0.456324E-08  0.521E-04    9.43      38.4  T
   5    -35.9265917 -0.497003E-09  0.173E-04    9.43     115.5  T
     SCC iter.                  ...        0 min,  0.068 sec
     gradient                   ...        0 min,  0.046 sec
 * total energy  :   -35.5927226 Eh     change       -0.4476331E-05 Eh
   gradient norm :     0.0006474 Eh/α   predicted    -0.2302477E-05 ( -48.56%)
   displ. norm   :     0.0409706 α      lambda       -0.1707161E-05
   maximum displ.:     0.0256430 α      in ANC's #4, #5, #8, ...

........................................................................
.............................. CYCLE   47 ..............................
........................................................................

 iter      E             dE          RMSdq      gap      omega  full diag
   1    -35.9265034 -0.359265E+02  0.143E-02    9.43       0.0  T
   2    -35.9265034 -0.271163E-07  0.866E-03    9.43       2.3  T
   3    -35.9265034 -0.127731E-07  0.562E-04    9.43      35.6  T
   4    -35.9265034 -0.744322E-09  0.296E-04    9.43      67.6  T
     SCC iter.                  ...        0 min,  0.057 sec
     gradient                   ...        0 min,  0.038 sec
 * total energy  :   -35.5927245 Eh     change       -0.1889320E-05 Eh
   gradient norm :     0.0003937 Eh/α   predicted    -0.8607564E-06 ( -54.44%)
   displ. norm   :     0.0348964 α      lambda       -0.1518164E-05
   maximum displ.:     0.0246267 α      in ANC's #4, #5, #8, ...

........................................................................
.............................. CYCLE   48 ..............................
........................................................................

 iter      E             dE          RMSdq      gap      omega  full diag
   1    -35.9264360 -0.359264E+02  0.122E-02    9.43       0.0  T
   2    -35.9264360 -0.223114E-07  0.737E-03    9.43       2.7  T
   3    -35.9264360 -0.102604E-07  0.538E-04    9.43      37.2  T
   4    -35.9264360 -0.127569E-08  0.311E-04    9.43      64.3  T
     SCC iter.                  ...        0 min,  0.056 sec
     gradient                   ...        0 min,  0.038 sec
 * total energy  :   -35.5927264 Eh     change       -0.1883239E-05 Eh
   gradient norm :     0.0002716 Eh/α   predicted    -0.7652408E-06 ( -59.37%)
   displ. norm   :     0.0360851 α      lambda       -0.1873087E-05
   maximum displ.:     0.0253145 α      in ANC's #4, #5, #2, ...

........................................................................
.............................. CYCLE   49 ..............................
........................................................................

 iter      E             dE          RMSdq      gap      omega  full diag
   1    -35.9264009 -0.359264E+02  0.122E-02    9.42       0.0  T
   2    -35.9264009 -0.269740E-07  0.739E-03    9.42       2.7  T
   3    -35.9264010 -0.106081E-07  0.592E-04    9.42      33.8  T
   4    -35.9264010 -0.173343E-08  0.326E-04    9.42      61.4  T
     SCC iter.                  ...        0 min,  0.075 sec
     gradient                   ...        0 min,  0.041 sec
 * total energy  :   -35.5927288 Eh     change       -0.2415825E-05 Eh
   gradient norm :     0.0005855 Eh/α   predicted    -0.9394351E-06 ( -61.11%)
   displ. norm   :     0.0667335 α      lambda       -0.3136189E-05
   maximum displ.:     0.0450142 α      in ANC's #4, #5, #2, ...

........................................................................
.............................. CYCLE   50 ..............................
........................................................................

 iter      E             dE          RMSdq      gap      omega  full diag
   1    -35.9263271 -0.359263E+02  0.220E-02    9.42       0.0  T
   2    -35.9263272 -0.679649E-07  0.133E-02    9.42       1.5  T
   3    -35.9263272 -0.321577E-07  0.944E-04    9.42      21.2  T
   4    -35.9263272 -0.285078E-08  0.527E-04    9.42      38.0  T
     SCC iter.                  ...        0 min,  0.081 sec
     gradient                   ...        0 min,  0.053 sec
 * total energy  :   -35.5927326 Eh     change       -0.3832374E-05 Eh
   gradient norm :     0.0008908 Eh/α   predicted    -0.1574445E-05 ( -58.92%)
   displ. norm   :     0.1046876 α      lambda       -0.4002499E-05
   maximum displ.:     0.0705755 α      in ANC's #4, #5, #3, ...

........................................................................
.............................. CYCLE   51 ..............................
........................................................................

 iter      E             dE          RMSdq      gap      omega  full diag
   1    -35.9261788 -0.359262E+02  0.339E-02    9.41       0.0  T
   2    -35.9261790 -0.138906E-06  0.205E-02    9.41       1.0  T
   3    -35.9261790 -0.671251E-07  0.134E-03    9.41      14.9  T
   4    -35.9261790 -0.502275E-08  0.740E-04    9.41      27.0  T
   5    -35.9261790 -0.108547E-08  0.205E-04    9.41      97.7  T
     SCC iter.                  ...        0 min,  0.080 sec
     gradient                   ...        0 min,  0.043 sec
 * total energy  :   -35.5927370 Eh     change       -0.4401573E-05 Eh
   gradient norm :     0.0011508 Eh/α   predicted    -0.2012986E-05 ( -54.27%)
   displ. norm   :     0.1025260 α      lambda       -0.3807367E-05
   maximum displ.:     0.0695865 α      in ANC's #4, #5, #3, ...

........................................................................
.............................. CYCLE   52 ..............................
........................................................................

 iter      E             dE          RMSdq      gap      omega  full diag
   1    -35.9261554 -0.359262E+02  0.324E-02    9.40       0.0  T
   2    -35.9261556 -0.127429E-06  0.196E-02    9.40       1.0  T
   3    -35.9261556 -0.553179E-07  0.130E-03    9.40      15.4  T
   4    -35.9261556 -0.681004E-08  0.725E-04    9.40      27.6  T
   5    -35.9261556 -0.102875E-08  0.191E-04    9.40     104.7  T
     SCC iter.                  ...        0 min,  0.077 sec
     gradient                   ...        0 min,  0.042 sec
 * total energy  :   -35.5927411 Eh     change       -0.4135917E-05 Eh
   gradient norm :     0.0011431 Eh/α   predicted    -0.1913195E-05 ( -53.74%)
   displ. norm   :     0.0866629 α      lambda       -0.4831834E-05
   maximum displ.:     0.0585094 α      in ANC's #4, #5, #3, ...

........................................................................
.............................. CYCLE   53 ..............................
........................................................................

 iter      E             dE          RMSdq      gap      omega  full diag
   1    -35.9264345 -0.359264E+02  0.265E-02    9.40       0.0  T
   2    -35.9264346 -0.102986E-06  0.160E-02    9.40       1.3  T
   3    -35.9264347 -0.241337E-07  0.116E-03    9.40      17.3  T
   4    -35.9264347 -0.113388E-07  0.577E-04    9.40      34.7  T
   5    -35.9264347 -0.562309E-09  0.162E-04    9.40     123.6  T
     SCC iter.                  ...        0 min,  0.071 sec
     gradient                   ...        0 min,  0.040 sec
 * total energy  :   -35.5927463 Eh     change       -0.5115188E-05 Eh
   gradient norm :     0.0003725 Eh/α   predicted    -0.2425413E-05 ( -52.58%)
   displ. norm   :     0.1453347 α      lambda       -0.3966330E-05
   maximum displ.:     0.0978697 α      in ANC's #4, #5, #3, ...

........................................................................
.............................. CYCLE   54 ..............................
........................................................................

 iter      E             dE          RMSdq      gap      omega  full diag
   1    -35.9261114 -0.359261E+02  0.458E-02    9.39       0.0  T
   2    -35.9261116 -0.196852E-06  0.276E-02    9.39       1.0  T
   3    -35.9261117 -0.812727E-07  0.166E-03    9.39      12.1  T
   4    -35.9261117 -0.146447E-07  0.930E-04    9.39      21.5  T
   5    -35.9261117 -0.158055E-08  0.205E-04    9.39      97.7  T
     SCC iter.                  ...        0 min,  0.059 sec
     gradient                   ...        0 min,  0.038 sec
 * total energy  :   -35.5927483 Eh     change       -0.1993247E-05 Eh
   gradient norm :     0.0016827 Eh/α   predicted    -0.2003684E-05 (   0.52%)
   displ. norm   :     0.0215353 α      lambda       -0.4850091E-05
   maximum displ.:     0.0120497 α      in ANC's #3, #5, #1, ...

........................................................................
.............................. CYCLE   55 ..............................
........................................................................

 iter      E             dE          RMSdq      gap      omega  full diag
   1    -35.9266997 -0.359267E+02  0.799E-03    9.40       0.0  T
   2    -35.9266997 -0.408179E-07  0.482E-03    9.40       4.2  T
   3    -35.9266997 -0.575449E-08  0.723E-04    9.40      27.7  T
   4    -35.9266997 -0.234859E-08  0.264E-04    9.40      75.8  T
     SCC iter.                  ...        0 min,  0.054 sec
     gradient                   ...        0 min,  0.041 sec
 * total energy  :   -35.5927515 Eh     change       -0.3245516E-05 Eh
   gradient norm :     0.0006637 Eh/α   predicted    -0.2437434E-05 ( -24.90%)
   displ. norm   :     0.0534918 α      lambda       -0.1354116E-05
   maximum displ.:     0.0352127 α      in ANC's #4, #5, #3, ...

........................................................................
.............................. CYCLE   56 ..............................
........................................................................

 iter      E             dE          RMSdq      gap      omega  full diag
   1    -35.9265619 -0.359266E+02  0.163E-02    9.40       0.0  T
   2    -35.9265619 -0.326918E-07  0.986E-03    9.40       2.0  T
   3    -35.9265619 -0.159194E-07  0.670E-04    9.40      29.9  T
   4    -35.9265619 -0.148260E-08  0.384E-04    9.40      52.0  T
     SCC iter.                  ...        0 min,  0.050 sec
     gradient                   ...        0 min,  0.040 sec
 * total energy  :   -35.5927532 Eh     change       -0.1659795E-05 Eh
   gradient norm :     0.0003702 Eh/α   predicted    -0.6857028E-06 ( -58.69%)
   displ. norm   :     0.1076266 α      lambda       -0.2060429E-05
   maximum displ.:     0.0684986 α      in ANC's #4, #3, #5, ...

........................................................................
.............................. CYCLE   57 ..............................
........................................................................

 iter      E             dE          RMSdq      gap      omega  full diag
   1    -35.9262919 -0.359263E+02  0.324E-02    9.39       0.0  T
   2    -35.9262921 -0.129329E-06  0.195E-02    9.39       1.0  T
   3    -35.9262921 -0.665782E-07  0.132E-03    9.39      15.2  T
   4    -35.9262921 -0.425162E-08  0.744E-04    9.39      26.9  T
   5    -35.9262921 -0.102621E-08  0.167E-04    9.39     119.9  T
     SCC iter.                  ...        0 min,  0.069 sec
     gradient                   ...        0 min,  0.053 sec
 * total energy  :   -35.5927546 Eh     change       -0.1480025E-05 Eh
   gradient norm :     0.0006572 Eh/α   predicted    -0.1036123E-05 ( -29.99%)
   displ. norm   :     0.0194994 α      lambda       -0.1097223E-05
   maximum displ.:     0.0117212 α      in ANC's #4, #2, #5, ...

........................................................................
.............................. CYCLE   58 ..............................
........................................................................

 iter      E             dE          RMSdq      gap      omega  full diag
   1    -35.9265345 -0.359265E+02  0.643E-03    9.39       0.0  T
   2    -35.9265345 -0.629952E-08  0.385E-03    9.39       5.2  T
   3    -35.9265345 -0.800391E-09  0.275E-04    9.39      72.8  T
   4    -35.9265345 -0.661871E-09  0.116E-04    9.39     171.7  T
     SCC iter.                  ...        0 min,  0.061 sec
     gradient                   ...        0 min,  0.047 sec
 * total energy  :   -35.5927556 Eh     change       -0.9169122E-06 Eh
   gradient norm :     0.0003574 Eh/α   predicted    -0.5540980E-06 ( -39.57%)
   displ. norm   :     0.0265344 α      lambda       -0.4671055E-06
   maximum displ.:     0.0196810 α      in ANC's #3, #4, #5, ...

   *** GEOMETRY OPTIMIZATION CONVERGED AFTER 58 ITERATIONS ***

------------------------------------------------------------------------
 total energy gain   :        -0.0080706 Eh       -5.0644 kcal/mol
 total RMSD          :         0.8405876 a0        0.4448 Å
 total power (kW/mol):        -0.3653357 (step)   -2.3989 (real)
------------------------------------------------------------------------

 ANCopt (total)                0 d,  0 h,  0 min,  8.833 sec
 optimizer setup                ...        0 min,  0.001 sec (  0.009%)
 model hessian                  ...        0 min,  0.069 sec (  0.776%)
 ANC generation                 ...        0 min,  0.003 sec (  0.036%)
 coordinate transformation      ...        0 min,  0.001 sec (  0.007%)
 single point calculation       ...        0 min,  8.502 sec ( 96.256%)
 optimization log               ...        0 min,  0.008 sec (  0.085%)
 hessian update                 ...        0 min,  0.234 sec (  2.646%)
 rational function              ...        0 min,  0.007 sec (  0.074%)

================
 final structure:
================
25
 xtb: 6.7.1 (edcfbbe)
O           -0.67480444199284       -3.46655302672561       -0.84594026296794
C           -0.49574753635903       -2.07516739425440       -0.93258227242110
C            0.00092909679631       -1.47348444877998        0.39103167239924
N            0.24826134820430       -0.04686460869898        0.26575906837043
C            1.57465544336896        0.24738143953574       -0.25185372955704
C            1.68962840009914        1.68184725824501       -0.79789545343025
O            0.63775271597787        2.03487401561544       -1.65122232777666
C           -0.13459282797968        0.71841220473546        1.44322535855681
C           -1.63004558164595        1.06064207650829        1.32854378358200
O           -1.92987673049828        1.51564363561794        0.03369374747867
H           -1.33004533996363       -3.65887122301660       -0.16604509107043
H           -1.42871484744586       -1.57732783637528       -1.23448968281267
H            0.24059978395274       -1.92527400558180       -1.72398736124155
H           -0.77077735644397       -1.63199260904880        1.15065256137265
H            0.90246591234387       -2.01821745142743        0.71313302375811
H            2.36218965093533        0.09247455816360        0.50545477263814
H            1.75257060347207       -0.44331032946136       -1.07707971292560
H            2.60420754126280        1.74975841549547       -1.39276947065293
H            1.77726766736675        2.40284362355119        0.02818866795463
H           -0.17671978412582        2.09185353698416       -1.13020598117195
H            0.43344523489021        1.64819425998953        1.45935950125098
H            0.06255728420365        0.18527881012649        2.38453240177451
H           -2.24222205966843        0.17923431713873        1.56917553510564
H           -1.89611223450042        1.86291116955541        2.01879610659768
H           -1.57687194224997        0.84571361210946       -0.57306352876308

 Bond Distances (Angstroems)
 ---------------------------
O1-C2=1.4055         O1-H11=0.9636        C2-O1=1.4055         C2-C3=1.5364         C2-H12=1.0997        C2-H13=1.0913        
C3-C2=1.5364         C3-N4=1.4533         C3-H14=1.0944        C3-H15=1.1015        N4-C3=1.4533         N4-C5=1.4539         
N4-C8=1.4556         C5-N4=1.4539         C5-C6=1.5392         C5-H16=1.1035        C5-H17=1.0907        C6-C5=1.5392         
C6-O7=1.3997         C6-H18=1.0931        C6-H19=1.1000        O7-C6=1.3997         O7-H20=0.9685        C8-N4=1.4556         
C8-C9=1.5384         C8-H21=1.0897        C8-H22=1.0996        C9-C8=1.5384         C9-O10=1.4048        C9-H23=1.0998        
C9-H24=1.0913        O10-C9=1.4048        O10-H25=0.9703       H11-O1=0.9636        H12-C2=1.0997        H13-C2=1.0913        
H14-C3=1.0944        H15-C3=1.1015        H16-C5=1.1035        H17-C5=1.0907        H18-C6=1.0931        H19-C6=1.1000        
H20-O7=0.9685        H21-C8=1.0897        H22-C8=1.0996        H23-C9=1.0998        H24-C9=1.0913        H25-O10=0.9703       
 C  H  Rav=1.0962 sigma=0.0047  Rmin=1.0897  Rmax=1.1035    12
 C  C  Rav=1.5380 sigma=0.0011  Rmin=1.5364  Rmax=1.5392     3
 N  C  Rav=1.4543 sigma=0.0010  Rmin=1.4533  Rmax=1.4556     3
 O  H  Rav=0.9675 sigma=0.0028  Rmin=0.9636  Rmax=0.9703     3
 O  C  Rav=1.4034 sigma=0.0026  Rmin=1.3997  Rmax=1.4055     3

 selected bond angles (degree)
 --------------------
H11-O1-C2=109.13               C3-C2-O1=112.07                H12-C2-O1=110.91               H12-C2-C3=109.48               
H13-C2-O1=105.46               H13-C2-C3=110.66               H13-C2-H12=108.13              N4-C3-C2=111.42                
H14-C3-C2=108.26               H14-C3-N4=108.78               H15-C3-C2=108.83               H15-C3-N4=111.80               
H15-C3-H14=107.61              C5-N4-C3=112.62                C8-N4-C3=113.68                C8-N4-C5=114.93                
C6-C5-N4=112.52                H16-C5-N4=112.23               H16-C5-C6=108.72               H17-C5-N4=106.86               
H17-C5-C6=108.03               H17-C5-H16=108.30              O7-C6-C5=113.28                H18-C6-C5=108.27               
H18-C6-O7=106.34               H19-C6-C5=110.51               H19-C6-O7=110.63               H19-C6-H18=107.54              
H20-O7-C6=108.59               C9-C8-N4=108.20                H21-C8-N4=108.87               H21-C8-C9=108.54               
H22-C8-N4=112.98               H22-C8-C9=110.24               H22-C8-H21=107.91              O10-C9-C8=110.38               
H23-C9-C8=110.27               H23-C9-O10=110.03              H24-C9-C8=110.70               H24-C9-O10=107.03              
H24-C9-H23=108.37              H25-O10-C9=105.97              

 selected dihedral angles (degree)
 ---------------------------------
C3-C2-O1-H11= 60.36           H12-C2-O1-H11=297.67          H13-C2-O1-H11=180.84          N4-C3-C2-O1=176.99            
N4-C3-C2-H12=300.50           N4-C3-C2-H13= 59.58           H14-C3-C2-O1=296.57           H14-C3-C2-H12= 60.08          
H14-C3-C2-H13=179.16          H15-C3-C2-O1= 53.26           H15-C3-C2-H12=176.77          H15-C3-C2-H13=295.85          
C5-N4-C3-C2=274.87            C5-N4-C3-H14=155.60           C5-N4-C3-H15= 36.90           C8-N4-C3-C2=141.92            
C8-N4-C3-H14= 22.65           C8-N4-C3-H15=263.95           C6-C5-N4-C3=161.97            C6-C5-N4-C8=294.31            
H16-C5-N4-C3=284.99           H16-C5-N4-C8= 57.33           H17-C5-N4-C3= 43.56           H17-C5-N4-C8=175.90           
O7-C6-C5-N4=312.10            O7-C6-C5-H16=187.14           O7-C6-C5-H17= 69.82           H18-C6-C5-N4=194.42           
H18-C6-C5-H16= 69.46          H18-C6-C5-H17=312.14          H19-C6-C5-N4= 76.89           H19-C6-C5-H16=311.93          
H19-C6-C5-H17=194.61          H20-O7-C6-C5= 68.09           H20-O7-C6-H18=186.89          H20-O7-C6-H19=303.37          
C9-C8-N4-C3=274.36            C9-C8-N4-C5=142.52            H21-C8-N4-C3=156.57           H21-C8-N4-C5= 24.73           
H22-C8-N4-C3= 36.70           H22-C8-N4-C5=264.86           O10-C9-C8-N4=314.84           O10-C9-C8-H21= 72.84          
O10-C9-C8-H22=190.84          H23-C9-C8-N4= 76.62           H23-C9-C8-H21=194.62          H23-C9-C8-H22=312.62          
H24-C9-C8-N4=196.53           H24-C9-C8-H21=314.53          H24-C9-C8-H22= 72.52          H25-O10-C9-C8= 51.88          
H25-O10-C9-H23=289.95         H25-O10-C9-H24=172.41         
           -------------------------------------------------
          |                Final Singlepoint                |
           -------------------------------------------------

          ...................................................
          :                      SETUP                      :
          :.................................................:
          :  # basis functions                  55          :
          :  # atomic orbitals                  55          :
          :  # shells                           35          :
          :  # electrons                        62          :
          :  max. iterations                   250          :
          :  Hamiltonian                  GFN2-xTB          :
          :  restarted?                      false          :
          :  GBSA solvation                  false          :
          :  PC potential                    false          :
          :  electronic temp.          300.0000000     K    :
          :  accuracy                    1.0000000          :
          :  -> integral cutoff          0.2500000E+02      :
          :  -> integral neglect         0.1000000E-07      :
          :  -> SCF convergence          0.1000000E-05 Eh   :
          :  -> wf. convergence          0.1000000E-03 e    :
          :  Broyden damping             0.4000000          :
          :  net charge                          0          :
          :  unpaired electrons                  0          :
          ...................................................

 iter      E             dE          RMSdq      gap      omega  full diag
   1    -35.9265345 -0.359265E+02  0.384E-05    9.39       0.0  T
   2    -35.9265345 -0.174794E-11  0.243E-05    9.39     824.6  T
   3    -35.9265345 -0.873968E-12  0.504E-06    9.39    3969.8  T

   *** convergence criteria satisfied after 3 iterations ***

         #    Occupation            Energy/Eh            Energy/eV
      -------------------------------------------------------------
         1        2.0000           -0.6981999             -18.9990
       ...           ...                  ...                  ...
        25        2.0000           -0.4623174             -12.5803
        26        2.0000           -0.4526595             -12.3175
        27        2.0000           -0.4395925             -11.9619
        28        2.0000           -0.4252678             -11.5721
        29        2.0000           -0.4215779             -11.4717
        30        2.0000           -0.4097164             -11.1490
        31        2.0000           -0.3695970             -10.0572 (HOMO)
        32                         -0.0244904              -0.6664 (LUMO)
        33                          0.0362348               0.9860
        34                          0.0482835               1.3139
        35                          0.0566265               1.5409
        36                          0.0767456               2.0884
       ...                                ...                  ...
        55                          0.3113497               8.4723
      -------------------------------------------------------------
                  HL-Gap            0.3451066 Eh            9.3908 eV
             Fermi-level           -0.1970437 Eh           -5.3618 eV

 SCC (total)                   0 d,  0 h,  0 min,  0.153 sec
 SCC setup                      ...        0 min,  0.002 sec (  1.564%)
 Dispersion                     ...        0 min,  0.010 sec (  6.702%)
 classical contributions        ...        0 min,  0.006 sec (  3.639%)
 integral evaluation            ...        0 min,  0.017 sec ( 11.109%)
 iterations                     ...        0 min,  0.066 sec ( 43.220%)
 molecular gradient             ...        0 min,  0.052 sec ( 33.659%)
 printout                       ...        0 min,  0.000 sec (  0.085%)

         :::::::::::::::::::::::::::::::::::::::::::::::::::::
         ::                     SUMMARY                     ::
         :::::::::::::::::::::::::::::::::::::::::::::::::::::
         :: total energy             -35.592755557963 Eh    ::
         :: gradient norm              0.000357624956 Eh/a0 ::
         :: HOMO-LUMO gap              9.390828860329 eV    ::
         ::.................................................::
         :: SCC energy               -35.926346028670 Eh    ::
         :: -> isotropic ES            0.077654703533 Eh    ::
         :: -> anisotropic ES          0.002825414840 Eh    ::
         :: -> anisotropic XC          0.007281639637 Eh    ::
         :: -> dispersion             -0.018304768808 Eh    ::
         :: repulsion energy           0.333590470707 Eh    ::
         :: add. restraining           0.000000000000 Eh    ::
         :: total charge               0.000000000000 e     ::
         :::::::::::::::::::::::::::::::::::::::::::::::::::::

           -------------------------------------------------
          |                Property Printout                |
           -------------------------------------------------

    * Orbital Energies and Occupations

         #    Occupation            Energy/Eh            Energy/eV
      -------------------------------------------------------------
         1        2.0000           -0.6981999             -18.9990
       ...           ...                  ...                  ...
        19        2.0000           -0.5162953             -14.0491
        20        2.0000           -0.5062829             -13.7767
        21        2.0000           -0.4975217             -13.5383
        22        2.0000           -0.4947288             -13.4623
        23        2.0000           -0.4808726             -13.0852
        24        2.0000           -0.4751340             -12.9291
        25        2.0000           -0.4623174             -12.5803
        26        2.0000           -0.4526595             -12.3175
        27        2.0000           -0.4395925             -11.9619
        28        2.0000           -0.4252678             -11.5721
        29        2.0000           -0.4215779             -11.4717
        30        2.0000           -0.4097164             -11.1490
        31        2.0000           -0.3695970             -10.0572 (HOMO)
        32                         -0.0244904              -0.6664 (LUMO)
        33                          0.0362348               0.9860
        34                          0.0482835               1.3139
        35                          0.0566265               1.5409
        36                          0.0767456               2.0884
        37                          0.0806115               2.1935
        38                          0.0912760               2.4837
        39                          0.0939708               2.5571
        40                          0.1066938               2.9033
        41                          0.1187492               3.2313
        42                          0.1408869               3.8337
       ...                                ...                  ...
        55                          0.3113497               8.4723
      -------------------------------------------------------------
                  HL-Gap            0.3451066 Eh            9.3908 eV
             Fermi-level           -0.1970437 Eh           -5.3618 eV

     #   Z          covCN         q      C6AA      α(0)
     1   8 O        1.656    -0.436    21.562     6.268
     2   6 C        3.674     0.073    19.576     6.340
     3   6 C        3.752    -0.004    20.716     6.491
     4   7 N        2.729    -0.187    25.039     7.432
     5   6 C        3.749    -0.006    20.743     6.496
     6   6 C        3.673     0.079    19.495     6.327
     7   8 O        1.655    -0.446    21.753     6.296
     8   6 C        3.747    -0.006    20.753     6.498
     9   6 C        3.676     0.074    19.560     6.336
    10   8 O        1.655    -0.450    21.834     6.308
    11   1 H        0.805     0.287     0.761     1.370
    12   1 H        0.923     0.023     2.684     2.562
    13   1 H        0.924     0.057     2.232     2.337
    14   1 H        0.924     0.033     2.544     2.494
    15   1 H        0.923     0.027     2.623     2.533
    16   1 H        0.923     0.012     2.863     2.646
    17   1 H        0.924     0.050     2.316     2.380
    18   1 H        0.924     0.048     2.341     2.393
    19   1 H        0.923     0.016     2.800     2.617
    20   1 H        0.804     0.312     0.686     1.301
    21   1 H        0.925     0.049     2.333     2.389
    22   1 H        0.923     0.017     2.785     2.610
    23   1 H        0.923     0.019     2.753     2.595
    24   1 H        0.924     0.049     2.335     2.389
    25   1 H        0.804     0.308     0.696     1.311

 Mol. C6AA /au·bohr⁶  :       4545.806975
 Mol. C8AA /au·bohr⁸  :      93531.806367
 Mol. α(0) /au        :         98.717604


Wiberg/Mayer (AO) data.
largest (>0.10) Wiberg bond orders for each atom

 ---------------------------------------------------------------------------
     #   Z sym  total        # sym  WBO       # sym  WBO       # sym  WBO
 ---------------------------------------------------------------------------
     1   8 O    1.965 --     2 C    1.004    11 H    0.903
     2   6 C    3.956 --     1 O    1.004     3 C    0.987    12 H    0.970
                            13 H    0.969
     3   6 C    3.986 --     4 N    1.003     2 C    0.987    14 H    0.971
                            15 H    0.967
     4   7 N    3.146 --     8 C    1.004     3 C    1.003     5 C    1.003
     5   6 C    3.985 --     4 N    1.003     6 C    0.985    17 H    0.970
                            16 H    0.966
     6   6 C    3.965 --     7 O    1.017     5 C    0.985    18 H    0.971
                            19 H    0.965
     7   8 O    1.961 --     6 C    1.017    20 H    0.872
     8   6 C    3.986 --     4 N    1.004     9 C    0.986    21 H    0.968
                            22 H    0.968
     9   6 C    3.962 --    10 O    1.008     8 C    0.986    24 H    0.973
                            23 H    0.969
    10   8 O    1.963 --     9 C    1.008    25 H    0.871
    11   1 H    0.918 --     1 O    0.903
    12   1 H    0.999 --     2 C    0.970
    13   1 H    0.997 --     2 C    0.969
    14   1 H    0.999 --     3 C    0.971
    15   1 H    0.999 --     3 C    0.967
    16   1 H    1.000 --     5 C    0.966
    17   1 H    0.997 --     5 C    0.970
    18   1 H    0.997 --     6 C    0.971
    19   1 H    1.000 --     6 C    0.965
    20   1 H    0.903 --     7 O    0.872
    21   1 H    0.997 --     8 C    0.968
    22   1 H    1.000 --     8 C    0.968
    23   1 H    1.000 --     9 C    0.969
    24   1 H    0.997 --     9 C    0.973
    25   1 H    0.905 --    10 O    0.871
 ---------------------------------------------------------------------------

Topologies differ in total number of bonds
Writing topology from bond orders to xtbtopo.mol

molecular dipole:
                 x           y           z       tot (Debye)
 q only:        0.024      -0.231       0.897
   full:        0.125      -0.459       1.503       4.008
molecular quadrupole (traceless):
                xx          xy          yy          xz          yz          zz
 q only:        3.969       4.726      -4.976      -0.302      -0.121       1.007
  q+dip:        6.462       6.836      -7.463      -0.676       0.216       1.001
   full:        6.134       6.845      -7.228      -0.659      -0.023       1.095

           -------------------------------------------------
          |                Geometry Summary                 |
           -------------------------------------------------

      molecular mass/u    :      149.1884446
   center of mass at/Å    :       -0.1019123       0.0161270      -0.1270981
  moments of inertia/u·Å² :        0.3438406E+03   0.5855174E+03   0.7273077E+03
rotational constants/cm⁻¹ :        0.4902746E-01   0.2879100E-01   0.2317813E-01

 * 24 selected distances

     #   Z          #   Z                                           value/Å
     1   8 O        2   6 C                                       1.4055328
     2   6 C        3   6 C                                       1.5364454
     3   6 C        4   7 N                                       1.4533104
     4   7 N        5   6 C                                       1.4539001
     5   6 C        6   6 C                                       1.5391793 (max)
     6   6 C        7   8 O                                       1.3997276
     4   7 N        8   6 C                                       1.4555594
     8   6 C        9   6 C                                       1.5383928
     9   6 C       10   8 O                                       1.4048353
     1   8 O       11   1 H                                       0.9636309 (min)
     2   6 C       12   1 H                                       1.0997366
     2   6 C       13   1 H                                       1.0913284
     3   6 C       14   1 H                                       1.0943856
     3   6 C       15   1 H                                       1.1014773
     5   6 C       16   1 H                                       1.1035047
     5   6 C       17   1 H                                       1.0907369
     6   6 C       18   1 H                                       1.0931341
     6   6 C       19   1 H                                       1.0999689
     7   8 O       20   1 H                                       0.9685403
     8   6 C       21   1 H                                       1.0896891
     8   6 C       22   1 H                                       1.0996175
     9   6 C       23   1 H                                       1.0997925
     9   6 C       24   1 H                                       1.0912725
    10   8 O       25   1 H                                       0.9703469

 * 5 distinct bonds (by element types)

   Z      Z             #   av. dist./Å        max./Å        min./Å
   1 H    6 C          12     1.0962203     1.1035047     1.0896891
   6 C    6 C           3     1.5380058     1.5391793     1.5364454
   6 C    7 N           3     1.4542566     1.4555594     1.4533104
   1 H    8 O           3     0.9675061     0.9703469     0.9636309
   6 C    8 O           3     1.4033652     1.4055328     1.3997276


optimized geometry written to: xtbopt.xyz


           -------------------------------------------------
          | TOTAL ENERGY              -35.592755557963 Eh   |
          | GRADIENT NORM               0.000357624956 Eh/α |
          | HOMO-LUMO GAP               9.390828860329 eV   |
           -------------------------------------------------

------------------------------------------------------------------------
 * finished run on 2026/07/09 at 04:04:11.678     
------------------------------------------------------------------------
 total:
 * wall-time:     0 d,  0 h,  0 min,  9.302 sec
 *  cpu-time:     0 d,  0 h,  2 min, 28.254 sec
 * ratio c/w:    15.938 speedup
 SCF:
 * wall-time:     0 d,  0 h,  0 min,  0.247 sec
 *  cpu-time:     0 d,  0 h,  0 min,  3.915 sec
 * ratio c/w:    15.863 speedup
 ANC optimizer:
 * wall-time:     0 d,  0 h,  0 min,  8.997 sec
 *  cpu-time:     0 d,  0 h,  2 min, 23.474 sec
 * ratio c/w:    15.946 speedup

