      -----------------------------------------------------------      
     |                   =====================                   |     
     |                           x T B                           |     
     |                   =====================                   |     
     |                         S. Grimme                         |     
     |          Mulliken Center for Theoretical Chemistry        |     
     |                    University of Bonn                     |     
      -----------------------------------------------------------      

   * xtb version 6.7.1 (edcfbbe) compiled by 'conda@5dfe00f5fb80' on 2026-06-10

   xtb is free software: you can redistribute it and/or modify it under
   the terms of the GNU Lesser General Public License as published by
   the Free Software Foundation, either version 3 of the License, or
   (at your option) any later version.
   
   xtb is distributed in the hope that it will be useful,
   but WITHOUT ANY WARRANTY; without even the implied warranty of
   MERCHANTABILITY or FITNESS FOR A PARTICULAR PURPOSE.  See the
   GNU Lesser General Public License for more details.
   
   Cite this work as:
   * C. Bannwarth, E. Caldeweyher, S. Ehlert, A. Hansen, P. Pracht,
     J. Seibert, S. Spicher, S. Grimme, WIREs Comput. Mol. Sci., 2020, 11,
     e01493. DOI: 10.1002/wcms.1493
   
   for GFN2-xTB:
   * C. Bannwarth, S. Ehlert and S. Grimme., J. Chem. Theory Comput., 2019,
     15, 1652-1671. DOI: 10.1021/acs.jctc.8b01176
   for GFN1-xTB:
   * S. Grimme, C. Bannwarth, P. Shushkov, J. Chem. Theory Comput., 2017,
     13, 1989-2009. DOI: 10.1021/acs.jctc.7b00118
   for GFN0-xTB:
   * P. Pracht, E. Caldeweyher, S. Ehlert, S. Grimme, ChemRxiv, 2019, preprint.
     DOI: 10.26434/chemrxiv.8326202.v1
   for GFN-FF:
   * S. Spicher and S. Grimme, Angew. Chem. Int. Ed., 2020, 59, 15665-15673.
     DOI: 10.1002/anie.202004239
   
   for ALPB and GBSA implicit solvation:
   * S. Ehlert, M. Stahn, S. Spicher, S. Grimme, J. Chem. Theory Comput.,
     2021, 17, 4250-4261. DOI: 10.1021/acs.jctc.1c00471
   
   for ddCOSMO and CPCM-X implicit solvation:
   * M. Stahn, S. Ehlert, S. Grimme, J. Phys. Chem. A,
     2023, XX, XXXX-XXXX. DOI: 10.1021/acs.jpca.3c04382
   
   for DFT-D4:
   * E. Caldeweyher, C. Bannwarth and S. Grimme, J. Chem. Phys., 2017,
     147, 034112. DOI: 10.1063/1.4993215
   * E. Caldeweyher, S. Ehlert, A. Hansen, H. Neugebauer, S. Spicher,
     C. Bannwarth and S. Grimme, J. Chem. Phys., 2019, 150, 154122.
     DOI: 10.1063/1.5090222
   * E. Caldeweyher, J.-M. Mewes, S. Ehlert and S. Grimme, Phys. Chem. Chem. Phys.
     2020, 22, 8499-8512. DOI: 10.1039/D0CP00502A
   
   for sTDA-xTB:
   * S. Grimme and C. Bannwarth, J. Chem. Phys., 2016, 145, 054103.
     DOI: 10.1063/1.4959605
   
   in the mass-spec context:
   * V. Asgeirsson, C. Bauer and S. Grimme, Chem. Sci., 2017, 8, 4879.
     DOI: 10.1039/c7sc00601b
   * J. Koopman and S. Grimme, ACS Omega 2019, 4, 12, 15120-15133.
     DOI: 10.1021/acsomega.9b02011
   
   for metadynamics refer to:
   * S. Grimme, J. Chem. Theory Comput., 2019, 155, 2847-2862
     DOI: 10.1021/acs.jctc.9b00143
   
   for SPH calculations refer to:
   * S. Spicher and S. Grimme, J. Chem. Theory Comput., 2021, 17, 1701-1714
     DOI: 10.1021/acs.jctc.0c01306
   
   for ONIOM refer to:
   * C. Plett, A. Katbashev, S. Ehlert, S. Grimme, M. Bursch,
     Phys. Chem. Chem. Phys., 2023, 25, 17860-17868. DOI: 10.1039/D3CP02178E
   
   for DIPRO refer to:
   * J. Kohn, N. Gildemeister, S. Grimme, D. Fazzi, A. Hansen,
     J. Chem. Phys., 2023, just accepted.
   
   for PTB refer to:
   * S. Grimme, M. Mueller, A. Hansen, J. Chem. Phys., 2023, 158, 124111.
     DOI: 10.1063/5.0137838
   
   with help from (in alphabetical order)
   P. Atkinson, C. Bannwarth, F. Bohle, G. Brandenburg, E. Caldeweyher
   M. Checinski, S. Dohm, S. Ehlert, S. Ehrlich, I. Gerasimov, C. Hölzer
   A. Katbashev, J. Kohn, J. Koopman, C. Lavigne, S. Lehtola, F. März, M. Müller,
   F. Musil, H. Neugebauer, J. Pisarek, C. Plett, P. Pracht, F. Pultar,
   J. Seibert, P. Shushkov, S. Spicher, M. Stahn, M. Steiner, T. Strunk,
   J. Stückrath, T. Rose, and J. Unsleber
   
 * started run on 2026/07/08 at 20:56:12.514     
   ID    Z sym.   atoms
    1    6 C      1-6, 8, 9
    2    8 O      7
    3    1 H      10-23

           -------------------------------------------------
          |                Calculation Setup                |
           -------------------------------------------------

          program call               : /home/ws/xd2484/miniforge3/envs/p3z_dft/bin/xtb xtb_input.xyz --gfn 2 --opt tight --cycles 500 --chrg 0 --uhf 0
          hostname                   : gpu10
          coordinate file            : xtb_input.xyz
          omp threads                :                    16


           -------------------------------------------------
          |                 G F N 2 - x T B                 |
           -------------------------------------------------

        Reference                      10.1021/acs.jctc.8b01176
      * Hamiltonian:
        H0-scaling (s, p, d)           1.850000    2.230000    2.230000
        zeta-weighting                 0.500000
      * Dispersion:
        s8                             2.700000
        a1                             0.520000
        a2                             5.000000
        s9                             5.000000
      * Repulsion:
        kExp                           1.500000    1.000000
        rExp                           1.000000
      * Coulomb:
        alpha                          2.000000
        third order                    shell-resolved
        anisotropic                    true
        a3                             3.000000
        a5                             4.000000
        cn-shift                       1.200000
        cn-exp                         4.000000
        max-rad                        5.000000


          ...................................................
          :                      SETUP                      :
          :.................................................:
          :  # basis functions                  50          :
          :  # atomic orbitals                  50          :
          :  # shells                           32          :
          :  # electrons                        52          :
          :  max. iterations                   250          :
          :  Hamiltonian                  GFN2-xTB          :
          :  restarted?                      false          :
          :  GBSA solvation                  false          :
          :  PC potential                    false          :
          :  electronic temp.          300.0000000     K    :
          :  accuracy                    1.0000000          :
          :  -> integral cutoff          0.2500000E+02      :
          :  -> integral neglect         0.1000000E-07      :
          :  -> SCF convergence          0.1000000E-05 Eh   :
          :  -> wf. convergence          0.1000000E-03 e    :
          :  Broyden damping             0.4000000          :
          :  net charge                          0          :
          :  unpaired electrons                  0          :
          ...................................................

 iter      E             dE          RMSdq      gap      omega  full diag
   1    -28.6181728 -0.286182E+02  0.370E+00    3.55       0.0  T
   2    -28.6794260 -0.612532E-01  0.198E+00    2.60       1.0  T
   3    -28.6828239 -0.339794E-02  0.139E+00    3.18       1.0  T
   4    -28.6927886 -0.996465E-02  0.481E-01    2.90       1.0  T
   5    -28.6952990 -0.251041E-02  0.177E-01    2.94       1.0  T
   6    -28.6958835 -0.584530E-03  0.584E-02    2.94       1.0  T
   7    -28.6958959 -0.124446E-04  0.206E-02    2.93       1.0  T
   8    -28.6958964 -0.483276E-06  0.449E-03    2.93       4.6  T
   9    -28.6958965 -0.968438E-07  0.171E-03    2.93      12.2  T
  10    -28.6958965 -0.282406E-08  0.524E-04    2.93      39.8  T
  11    -28.6958965 -0.172362E-08  0.153E-04    2.93     136.3  T

   *** convergence criteria satisfied after 11 iterations ***

         #    Occupation            Energy/Eh            Energy/eV
      -------------------------------------------------------------
         1        2.0000           -0.6931432             -18.8614
       ...           ...                  ...                  ...
        20        2.0000           -0.4544841             -12.3671
        21        2.0000           -0.4522171             -12.3055
        22        2.0000           -0.4468318             -12.1589
        23        2.0000           -0.4418314             -12.0228
        24        2.0000           -0.4369071             -11.8888
        25        2.0000           -0.4159284             -11.3180
        26        2.0000           -0.3867828             -10.5249 (HOMO)
        27                         -0.2789644              -7.5910 (LUMO)
        28                         -0.1744074              -4.7459
        29                          0.0463808               1.2621
        30                          0.0861327               2.3438
        31                          0.0918941               2.5006
       ...                                ...                  ...
        50                          0.6399908              17.4150
      -------------------------------------------------------------
                  HL-Gap            0.1078184 Eh            2.9339 eV
             Fermi-level           -0.3328736 Eh           -9.0580 eV

 SCC (total)                   0 d,  0 h,  0 min,  0.306 sec
 SCC setup                      ...        0 min,  0.008 sec (  2.585%)
 Dispersion                     ...        0 min,  0.018 sec (  5.732%)
 classical contributions        ...        0 min,  0.009 sec (  2.826%)
 integral evaluation            ...        0 min,  0.027 sec (  8.778%)
 iterations                     ...        0 min,  0.204 sec ( 66.892%)
 molecular gradient             ...        0 min,  0.040 sec ( 13.123%)
 printout                       ...        0 min,  0.000 sec (  0.054%)

         :::::::::::::::::::::::::::::::::::::::::::::::::::::
         ::                     SUMMARY                     ::
         :::::::::::::::::::::::::::::::::::::::::::::::::::::
         :: total energy             -28.300697339115 Eh    ::
         :: gradient norm              0.046535384367 Eh/a0 ::
         :: HOMO-LUMO gap              2.933888017519 eV    ::
         ::.................................................::
         :: SCC energy               -28.695953426371 Eh    ::
         :: -> isotropic ES            0.029746521478 Eh    ::
         :: -> anisotropic ES          0.005596777961 Eh    ::
         :: -> anisotropic XC          0.015758988251 Eh    ::
         :: -> dispersion             -0.014066573026 Eh    ::
         :: repulsion energy           0.395256087256 Eh    ::
         :: add. restraining           0.000000000000 Eh    ::
         :: total charge              -0.000000000000 e     ::
         :::::::::::::::::::::::::::::::::::::::::::::::::::::

      ----------------------------------------------------------- 
     |                   =====================                   |
     |                        A N C O P T                        |
     |                   =====================                   |
     |               Approximate Normal Coordinate               |
     |                Rational Function Optimizer                |
      ----------------------------------------------------------- 
      ----------------------------------------------------------- 
     |                   =====================                   |
     |                        A N C O P T                        |
     |                   =====================                   |
     |               Approximate Normal Coordinate               |
     |                Rational Function Optimizer                |
      ----------------------------------------------------------- 

          ...................................................
          :                      SETUP                      :
          :.................................................:
          :   optimization level             tight          :
          :   max. optcycles                   500          :
          :   ANC micro-cycles                  20          :
          :   degrees of freedom                63          :
          :.................................................:
          :   RF solver                   davidson          :
          :   write xtbopt.log                true          :
          :   linear?                        false          :
          :   energy convergence         0.1000000E-05 Eh   :
          :   grad. convergence          0.8000000E-03 Eh/α :
          :   maxmium RF displ.          1.0000000          :
          :   Hlow (freq-cutoff)         0.1000000E-01      :
          :   Hmax (freq-cutoff)         5.0000000          :
          :   S6 in model hess.         20.0000000          :
          ...................................................

generating ANC from exact Hessian ...
Using Lindh-Hessian (1995)
 Shifting diagonal of input Hessian by    9.1772004113848896E-003
 Lowest  eigenvalues of input Hessian
    0.000000    0.000000    0.000000    0.000000    0.000000    0.000000
    0.010000    0.010778    0.011355    0.012870    0.014152    0.016544
    0.018836    0.019368    0.020903    0.022574    0.028632    0.032168
 Highest eigenvalues
    1.215750    1.246884    1.324678    1.530094    1.817086    2.093612


........................................................................
.............................. CYCLE    1 ..............................
........................................................................

 iter      E             dE          RMSdq      gap      omega  full diag
   1    -28.6958965 -0.286959E+02  0.495E-05    2.93       0.0  T
   2    -28.6958965 -0.518696E-11  0.348E-05    2.93     599.3  T
   3    -28.6958965 -0.201190E-10  0.186E-05    2.93    1123.9  T
     SCC iter.                  ...        0 min,  0.030 sec
     gradient                   ...        0 min,  0.032 sec
 * total energy  :   -28.3006973 Eh     change       -0.6041034E-10 Eh
   gradient norm :     0.0465371 Eh/α   predicted     0.0000000E+00 (-100.00%)
   displ. norm   :     0.1335383 α      lambda       -0.2776471E-02
   maximum displ.:     0.0577435 α      in ANC's #17, #42, #9, ...

........................................................................
.............................. CYCLE    2 ..............................
........................................................................

 iter      E             dE          RMSdq      gap      omega  full diag
   1    -28.7133725 -0.287134E+02  0.124E-01    2.97       0.0  T
   2    -28.7134124 -0.399289E-04  0.742E-02    2.97       1.0  T
   3    -28.7134107  0.169643E-05  0.281E-02    2.98       1.0  T
   4    -28.7134153 -0.459938E-05  0.591E-03    2.97       3.5  T
   5    -28.7134158 -0.503609E-06  0.253E-03    2.98       8.2  T
   6    -28.7134159 -0.637989E-07  0.139E-03    2.98      15.0  T
   7    -28.7134159 -0.159395E-07  0.499E-04    2.98      41.8  T
   8    -28.7134159 -0.145323E-08  0.167E-04    2.98     124.5  T
     SCC iter.                  ...        0 min,  0.092 sec
     gradient                   ...        0 min,  0.028 sec
 * total energy  :   -28.3024280 Eh     change       -0.1730639E-02 Eh
   gradient norm :     0.0142822 Eh/α   predicted    -0.1413085E-02 ( -18.35%)
   displ. norm   :     0.0872401 α      lambda       -0.3828464E-03
   maximum displ.:     0.0470663 α      in ANC's #7, #9, #5, ...

........................................................................
.............................. CYCLE    3 ..............................
........................................................................

 iter      E             dE          RMSdq      gap      omega  full diag
   1    -28.7187487 -0.287187E+02  0.533E-02    2.98       0.0  T
   2    -28.7187560 -0.724491E-05  0.313E-02    2.98       1.0  T
   3    -28.7187541  0.190101E-05  0.183E-02    2.98       1.1  T
   4    -28.7187567 -0.264183E-05  0.628E-03    2.98       3.3  T
   5    -28.7187574 -0.749558E-06  0.967E-04    2.98      21.6  T
   6    -28.7187575 -0.865541E-08  0.475E-04    2.98      43.9  T
     SCC iter.                  ...        0 min,  0.068 sec
     gradient                   ...        0 min,  0.034 sec
 * total energy  :   -28.3026386 Eh     change       -0.2106304E-03 Eh
   gradient norm :     0.0035395 Eh/α   predicted    -0.1930476E-03 (  -8.35%)
   displ. norm   :     0.0384533 α      lambda       -0.3628276E-04
   maximum displ.:     0.0195597 α      in ANC's #7, #5, #1, ...

........................................................................
.............................. CYCLE    4 ..............................
........................................................................

 iter      E             dE          RMSdq      gap      omega  full diag
   1    -28.7187158 -0.287187E+02  0.194E-02    2.98       0.0  T
   2    -28.7187160 -0.162493E-06  0.119E-02    2.97       1.8  T
   3    -28.7187151  0.846743E-06  0.771E-03    2.98       2.7  T
   4    -28.7187162 -0.106201E-05  0.874E-04    2.97      23.8  T
   5    -28.7187162 -0.101303E-07  0.315E-04    2.97      66.2  T
   6    -28.7187162 -0.975184E-10  0.135E-04    2.97     154.8  T
     SCC iter.                  ...        0 min,  0.070 sec
     gradient                   ...        0 min,  0.028 sec
 * total energy  :   -28.3026607 Eh     change       -0.2209966E-04 Eh
   gradient norm :     0.0018935 Eh/α   predicted    -0.1816859E-04 ( -17.79%)
   displ. norm   :     0.0533188 α      lambda       -0.1657100E-04
   maximum displ.:     0.0261334 α      in ANC's #1, #2, #5, ...

........................................................................
.............................. CYCLE    5 ..............................
........................................................................

 iter      E             dE          RMSdq      gap      omega  full diag
   1    -28.7181301 -0.287181E+02  0.228E-02    2.97       0.0  T
   2    -28.7181302 -0.185973E-06  0.141E-02    2.96       1.5  T
   3    -28.7181290  0.127616E-05  0.857E-03    2.97       2.4  T
   4    -28.7181305 -0.150793E-05  0.857E-04    2.97      24.3  T
   5    -28.7181305 -0.761507E-08  0.352E-04    2.97      59.2  T
   6    -28.7181305 -0.199353E-09  0.165E-04    2.97     126.0  T
     SCC iter.                  ...        0 min,  0.061 sec
     gradient                   ...        0 min,  0.031 sec
 * total energy  :   -28.3026690 Eh     change       -0.8286847E-05 Eh
   gradient norm :     0.0018089 Eh/α   predicted    -0.8439347E-05 (   1.84%)
   displ. norm   :     0.0199556 α      lambda       -0.6636764E-05
   maximum displ.:     0.0103942 α      in ANC's #1, #2, #6, ...

........................................................................
.............................. CYCLE    6 ..............................
........................................................................

 iter      E             dE          RMSdq      gap      omega  full diag
   1    -28.7181537 -0.287182E+02  0.114E-02    2.97       0.0  T
   2    -28.7181537 -0.218954E-07  0.692E-03    2.97       3.0  T
   3    -28.7181535  0.254546E-06  0.371E-03    2.97       5.6  T
   4    -28.7181538 -0.288175E-06  0.325E-04    2.97      64.2  T
   5    -28.7181538 -0.107664E-08  0.153E-04    2.97     136.3  T
     SCC iter.                  ...        0 min,  0.061 sec
     gradient                   ...        0 min,  0.035 sec
 * total energy  :   -28.3026749 Eh     change       -0.5913286E-05 Eh
   gradient norm :     0.0008972 Eh/α   predicted    -0.3319500E-05 ( -43.86%)
   displ. norm   :     0.0259204 α      lambda       -0.3674694E-05
   maximum displ.:     0.0156262 α      in ANC's #1, #2, #6, ...

........................................................................
.............................. CYCLE    7 ..............................
........................................................................

 iter      E             dE          RMSdq      gap      omega  full diag
   1    -28.7184036 -0.287184E+02  0.116E-02    2.97       0.0  T
   2    -28.7184036 -0.198572E-07  0.690E-03    2.97       3.0  T
   3    -28.7184034  0.203100E-06  0.320E-03    2.97       6.5  T
   4    -28.7184036 -0.226978E-06  0.295E-04    2.97      70.6  T
   5    -28.7184036 -0.862148E-09  0.132E-04    2.97     157.6  T
     SCC iter.                  ...        0 min,  0.062 sec
     gradient                   ...        0 min,  0.028 sec
 * total energy  :   -28.3026785 Eh     change       -0.3619473E-05 Eh
   gradient norm :     0.0005543 Eh/α   predicted    -0.1840981E-05 ( -49.14%)
   displ. norm   :     0.0391226 α      lambda       -0.2787865E-05
   maximum displ.:     0.0231103 α      in ANC's #1, #2, #6, ...

........................................................................
.............................. CYCLE    8 ..............................
........................................................................

 iter      E             dE          RMSdq      gap      omega  full diag
   1    -28.7184703 -0.287185E+02  0.175E-02    2.97       0.0  T
   2    -28.7184703 -0.167112E-07  0.103E-02    2.97       2.0  T
   3    -28.7184703 -0.171478E-08  0.452E-04    2.97      46.1  T
   4    -28.7184703 -0.247352E-08  0.210E-04    2.97      99.3  T
     SCC iter.                  ...        0 min,  0.047 sec
     gradient                   ...        0 min,  0.032 sec
 * total energy  :   -28.3026815 Eh     change       -0.2971176E-05 Eh
   gradient norm :     0.0004622 Eh/α   predicted    -0.1401635E-05 ( -52.83%)
   displ. norm   :     0.0340745 α      lambda       -0.1557692E-05
   maximum displ.:     0.0205477 α      in ANC's #2, #1, #6, ...

........................................................................
.............................. CYCLE    9 ..............................
........................................................................

 iter      E             dE          RMSdq      gap      omega  full diag
   1    -28.7183661 -0.287184E+02  0.160E-02    2.97       0.0  T
   2    -28.7183661 -0.903107E-08  0.945E-03    2.97       2.2  T
   3    -28.7183661  0.409811E-07  0.144E-03    2.97      14.5  T
   4    -28.7183661 -0.468900E-07  0.249E-04    2.97      83.7  T
   5    -28.7183661 -0.593658E-09  0.119E-04    2.97     175.0  T
     SCC iter.                  ...        0 min,  0.059 sec
     gradient                   ...        0 min,  0.033 sec
 * total energy  :   -28.3026829 Eh     change       -0.1402656E-05 Eh
   gradient norm :     0.0001787 Eh/α   predicted    -0.7819983E-06 ( -44.25%)
   displ. norm   :     0.0150882 α      lambda       -0.4352144E-06
   maximum displ.:     0.0094438 α      in ANC's #2, #1, #6, ...

........................................................................
.............................. CYCLE   10 ..............................
........................................................................

 iter      E             dE          RMSdq      gap      omega  full diag
   1    -28.7184029 -0.287184E+02  0.560E-03    2.97       0.0  T
   2    -28.7184029 -0.157672E-08  0.330E-03    2.97       6.3  T
   3    -28.7184029  0.907455E-08  0.673E-04    2.97      31.0  T
   4    -28.7184029 -0.100594E-07  0.104E-04    2.97     199.7  T
     SCC iter.                  ...        0 min,  0.045 sec
     gradient                   ...        0 min,  0.027 sec
 * total energy  :   -28.3026834 Eh     change       -0.4713797E-06 Eh
   gradient norm :     0.0001215 Eh/α   predicted    -0.2225335E-06 ( -52.79%)
   displ. norm   :     0.0183272 α      lambda       -0.4372044E-06
   maximum displ.:     0.0104412 α      in ANC's #2, #1, #4, ...

   *** GEOMETRY OPTIMIZATION CONVERGED AFTER 10 ITERATIONS ***

------------------------------------------------------------------------
 total energy gain   :        -0.0019860 Eh       -1.2463 kcal/mol
 total RMSD          :         0.0696247 a0        0.0368 Å
 total power (kW/mol):        -0.5214331 (step)   -4.3950 (real)
------------------------------------------------------------------------

 ANCopt (total)                0 d,  0 h,  0 min,  1.186 sec
 optimizer setup                ...        0 min,  0.001 sec (  0.064%)
 model hessian                  ...        0 min,  0.005 sec (  0.458%)
 ANC generation                 ...        0 min,  0.001 sec (  0.073%)
 coordinate transformation      ...        0 min,  0.000 sec (  0.012%)
 single point calculation       ...        0 min,  1.150 sec ( 96.918%)
 optimization log               ...        0 min,  0.001 sec (  0.085%)
 hessian update                 ...        0 min,  0.026 sec (  2.209%)
 rational function              ...        0 min,  0.001 sec (  0.066%)

================
 final structure:
================
23
 xtb: 6.7.1 (edcfbbe)
C           -4.05950033173573        0.07907850319226       -0.13365827111234
C           -2.57899553270354        0.03285770943915       -0.48788475347954
C           -1.69807517612681        0.25864520427007        0.74718879739583
C           -0.25217843025640        0.22822474187188        0.38898510598883
C            0.62324526199823       -0.64560000484878        0.88088443514212
C            2.05759597261664       -0.73689139181023        0.55343651342137
O            2.74953103751303       -1.59849629320308        1.05073264788978
C            2.61599046113418        0.28335461640944       -0.42130036017274
C            4.10745338965836        0.08455744441995       -0.65590832985764
H           -4.30071098539893       -0.68697735821126        0.59980417642481
H           -4.32342987178358        1.04834980000630        0.28401421857755
H           -4.66762075938661       -0.09051117678809       -1.01893993899856
H           -2.35802503652139        0.79829132747762       -1.23511918256377
H           -2.33669854369045       -0.93869498121707       -0.92360002570833
H           -1.93866947393297        1.23793064277013        1.17199960908507
H           -1.91714256749683       -0.50240793520487        1.49784853705342
H            0.05417554983805        0.97159664534665       -0.33514729799619
H            0.29676145512670       -1.38787454526966        1.59906927291383
H            2.42563985641293        1.28138803991224       -0.01985297606946
H            2.07007392775343        0.19109767821544       -1.36324415589358
H            4.29463747483460       -0.90798232713609       -1.05751847631867
H            4.48651587166443        0.82601169329141       -1.35507565953120
H            4.64942645048260        0.17405196706754        0.28205687683548

 Bond Distances (Angstroems)
 ---------------------------
C1-C2=1.5230         C1-H10=1.0877        C1-H11=1.0879        C1-H12=1.0873        C2-C1=1.5230         C2-C3=1.5338         
C2-H13=1.0923        C2-H14=1.0920        C3-C2=1.5338         C3-C4=1.4899         C3-H15=1.0942        C3-H16=1.0912        
C4-C3=1.4899         C4-C5=1.3311         C4-H17=1.0820        C5-C4=1.3311         C5-C6=1.4741         C5-H18=1.0832        
C6-C5=1.4741         C6-O7=1.2118         C6-C8=1.5175         O7-C6=1.2118         C8-C6=1.5175         C8-C9=1.5228         
C8-H19=1.0925        C8-H20=1.0926        C9-C8=1.5228         C9-H21=1.0870        C9-H22=1.0873        C9-H23=1.0870        
H10-C1=1.0877        H11-C1=1.0879        H12-C1=1.0873        H13-C2=1.0923        H14-C2=1.0920        H15-C3=1.0942        
H16-C3=1.0912        H17-C4=1.0820        H18-C5=1.0832        H19-C8=1.0925        H20-C8=1.0926        H21-C9=1.0870        
H22-C9=1.0873        H23-C9=1.0870        
 C  H  Rav=1.0889 sigma=0.0035  Rmin=1.0820  Rmax=1.0942    14
 C  C  Rav=1.4846 sigma=0.0656  Rmin=1.3311  Rmax=1.5338     7
 O  C  Rav=1.2118 sigma=0.0000  Rmin=1.2118  Rmax=1.2118     1

 selected bond angles (degree)
 --------------------
H10-C1-C2=110.55               H11-C1-C2=110.62               H11-C1-H10=108.35              H12-C1-C2=110.46               
H12-C1-H10=108.37              H12-C1-H11=108.41              C3-C2-C1=111.50                H13-C2-C1=109.54               
H13-C2-C3=109.36               H14-C2-C1=109.60               H14-C2-C3=108.96               H14-C2-H13=107.80              
C4-C3-C2=111.15                H15-C3-C2=108.55               H15-C3-C4=108.96               H16-C3-C2=109.63               
H16-C3-C4=110.24               H16-C3-H15=108.24              C5-C4-C3=124.25                H17-C4-C3=114.94               
H17-C4-C5=120.80               C6-C5-C4=126.76                H18-C5-C4=119.78               H18-C5-C6=113.46               
O7-C6-C5=120.56                C8-C6-C5=117.33                C8-C6-O7=122.11                C9-C8-C6=111.81                
H19-C8-C6=108.30               H19-C8-C9=110.27               H20-C8-C6=108.25               H20-C8-C9=110.21               
H20-C8-H19=107.87              H21-C9-C8=110.17               H22-C9-C8=110.58               H22-C9-H21=108.97              
H23-C9-C8=110.16               H23-C9-H21=107.95              H23-C9-H22=108.96              

 selected dihedral angles (degree)
 ---------------------------------
C3-C2-C1-H10=300.39           C3-C2-C1-H11= 60.40           C3-C2-C1-H12=180.44           H13-C2-C1-H10=179.19          
H13-C2-C1-H11=299.21          H13-C2-C1-H12= 59.25          H14-C2-C1-H10= 61.11          H14-C2-C1-H11=181.13          
H14-C2-C1-H12=301.17          C4-C3-C2-C1=180.69            C4-C3-C2-H13=301.99           C4-C3-C2-H14= 59.58           
H15-C3-C2-C1=300.51           H15-C3-C2-H13= 61.81          H15-C3-C2-H14=179.40          H16-C3-C2-C1= 58.55           
H16-C3-C2-H13=179.86          H16-C3-C2-H14=297.45          C5-C4-C3-C2=240.84            C5-C4-C3-H15=121.27           
C5-C4-C3-H16=  2.62           H17-C4-C3-C2= 59.65           H17-C4-C3-H15=300.08          H17-C4-C3-H16=181.43          
C6-C5-C4-C3=179.17            C6-C5-C4-H17=  0.42           H18-C5-C4-C3=359.24           H18-C5-C4-H17=180.49          
O7-C6-C5-C4=181.48            O7-C6-C5-H18=  1.41           C8-C6-C5-C4=  1.44            C8-C6-C5-H18=181.38           
C9-C8-C6-C5=179.30            C9-C8-C6-O7=359.27            H19-C8-C6-C5= 57.60           H19-C8-C6-O7=237.56           
H20-C8-C6-C5=300.89           H20-C8-C6-O7=120.86           H21-C9-C8-C6= 59.57           H21-C9-C8-H19=180.14          
H21-C9-C8-H20=299.12          H22-C9-C8-C6=180.09           H22-C9-C8-H19=300.65          H22-C9-C8-H20= 59.64          
H23-C9-C8-C6=300.59           H23-C9-C8-H19= 61.15          H23-C9-C8-H20=180.14          
           -------------------------------------------------
          |                Final Singlepoint                |
           -------------------------------------------------

          ...................................................
          :                      SETUP                      :
          :.................................................:
          :  # basis functions                  50          :
          :  # atomic orbitals                  50          :
          :  # shells                           32          :
          :  # electrons                        52          :
          :  max. iterations                   250          :
          :  Hamiltonian                  GFN2-xTB          :
          :  restarted?                      false          :
          :  GBSA solvation                  false          :
          :  PC potential                    false          :
          :  electronic temp.          300.0000000     K    :
          :  accuracy                    1.0000000          :
          :  -> integral cutoff          0.2500000E+02      :
          :  -> integral neglect         0.1000000E-07      :
          :  -> SCF convergence          0.1000000E-05 Eh   :
          :  -> wf. convergence          0.1000000E-03 e    :
          :  Broyden damping             0.4000000          :
          :  net charge                          0          :
          :  unpaired electrons                  0          :
          ...................................................

 iter      E             dE          RMSdq      gap      omega  full diag
   1    -28.7184029 -0.287184E+02  0.427E-05    2.97       0.0  T
   2    -28.7184029 -0.140687E-11  0.244E-05    2.97     853.2  T
   3    -28.7184029  0.169820E-11  0.118E-05    2.97    1773.3  T

   *** convergence criteria satisfied after 3 iterations ***

         #    Occupation            Energy/Eh            Energy/eV
      -------------------------------------------------------------
         1        2.0000           -0.6976985             -18.9853
       ...           ...                  ...                  ...
        20        2.0000           -0.4554131             -12.3924
        21        2.0000           -0.4527329             -12.3195
        22        2.0000           -0.4469446             -12.1620
        23        2.0000           -0.4411319             -12.0038
        24        2.0000           -0.4383150             -11.9272
        25        2.0000           -0.4169634             -11.3462
        26        2.0000           -0.3858399             -10.4992 (HOMO)
        27                         -0.2766913              -7.5292 (LUMO)
        28                         -0.1669010              -4.5416
        29                          0.0604733               1.6456
        30                          0.0897824               2.4431
        31                          0.0995538               2.7090
       ...                                ...                  ...
        50                          0.6872504              18.7010
      -------------------------------------------------------------
                  HL-Gap            0.1091486 Eh            2.9701 eV
             Fermi-level           -0.3312656 Eh           -9.0142 eV

 SCC (total)                   0 d,  0 h,  0 min,  0.089 sec
 SCC setup                      ...        0 min,  0.003 sec (  3.387%)
 Dispersion                     ...        0 min,  0.006 sec (  6.699%)
 classical contributions        ...        0 min,  0.003 sec (  2.875%)
 integral evaluation            ...        0 min,  0.009 sec (  9.825%)
 iterations                     ...        0 min,  0.036 sec ( 40.781%)
 molecular gradient             ...        0 min,  0.032 sec ( 36.276%)
 printout                       ...        0 min,  0.000 sec (  0.127%)

         :::::::::::::::::::::::::::::::::::::::::::::::::::::
         ::                     SUMMARY                     ::
         :::::::::::::::::::::::::::::::::::::::::::::::::::::
         :: total energy             -28.302683372977 Eh    ::
         :: gradient norm              0.000122033608 Eh/a0 ::
         :: HOMO-LUMO gap              2.970085795507 eV    ::
         ::.................................................::
         :: SCC energy               -28.718460405236 Eh    ::
         :: -> isotropic ES            0.029076459726 Eh    ::
         :: -> anisotropic ES          0.005537022208 Eh    ::
         :: -> anisotropic XC          0.015020714065 Eh    ::
         :: -> dispersion             -0.014159095430 Eh    ::
         :: repulsion energy           0.415777032259 Eh    ::
         :: add. restraining           0.000000000000 Eh    ::
         :: total charge              -0.000000000000 e     ::
         :::::::::::::::::::::::::::::::::::::::::::::::::::::

           -------------------------------------------------
          |                Property Printout                |
           -------------------------------------------------

    * Orbital Energies and Occupations

         #    Occupation            Energy/Eh            Energy/eV
      -------------------------------------------------------------
         1        2.0000           -0.6976985             -18.9853
       ...           ...                  ...                  ...
        14        2.0000           -0.4993770             -13.5887
        15        2.0000           -0.4933706             -13.4253
        16        2.0000           -0.4895815             -13.3222
        17        2.0000           -0.4803779             -13.0717
        18        2.0000           -0.4658448             -12.6763
        19        2.0000           -0.4617511             -12.5649
        20        2.0000           -0.4554131             -12.3924
        21        2.0000           -0.4527329             -12.3195
        22        2.0000           -0.4469446             -12.1620
        23        2.0000           -0.4411319             -12.0038
        24        2.0000           -0.4383150             -11.9272
        25        2.0000           -0.4169634             -11.3462
        26        2.0000           -0.3858399             -10.4992 (HOMO)
        27                         -0.2766913              -7.5292 (LUMO)
        28                         -0.1669010              -4.5416
        29                          0.0604733               1.6456
        30                          0.0897824               2.4431
        31                          0.0995538               2.7090
        32                          0.1121893               3.0528
        33                          0.1304938               3.5509
        34                          0.1408525               3.8328
        35                          0.1472420               4.0067
        36                          0.1576859               4.2909
        37                          0.1625570               4.4234
       ...                                ...                  ...
        50                          0.6872504              18.7010
      -------------------------------------------------------------
                  HL-Gap            0.1091486 Eh            2.9701 eV
             Fermi-level           -0.3312656 Eh           -9.0142 eV

     #   Z          covCN         q      C6AA      α(0)
     1   6 C        3.752    -0.104    22.554     6.772
     2   6 C        3.802    -0.049    21.456     6.595
     3   6 C        3.807    -0.061    21.669     6.627
     4   6 C        2.891    -0.018    28.450     8.745
     5   6 C        2.892    -0.073    29.810     8.952
     6   6 C        2.816     0.230    23.173     7.887
     7   8 O        0.858    -0.364    20.972     6.140
     8   6 C        3.802    -0.079    22.016     6.680
     9   6 C        3.753    -0.099    22.443     6.756
    10   1 H        0.925     0.038     2.473     2.459
    11   1 H        0.925     0.037     2.491     2.468
    12   1 H        0.925     0.038     2.470     2.458
    13   1 H        0.924     0.034     2.532     2.488
    14   1 H        0.924     0.035     2.522     2.484
    15   1 H        0.924     0.051     2.304     2.374
    16   1 H        0.924     0.046     2.372     2.409
    17   1 H        0.925     0.044     2.401     2.423
    18   1 H        0.925     0.060     2.203     2.321
    19   1 H        0.924     0.051     2.309     2.376
    20   1 H        0.924     0.051     2.303     2.373
    21   1 H        0.925     0.049     2.327     2.385
    22   1 H        0.925     0.034     2.535     2.490
    23   1 H        0.925     0.049     2.332     2.388

 Mol. C6AA /au·bohr⁶  :       4249.879146
 Mol. C8AA /au·bohr⁸  :      93297.717397
 Mol. α(0) /au        :         99.049565


Wiberg/Mayer (AO) data.
largest (>0.10) Wiberg bond orders for each atom

 ---------------------------------------------------------------------------
     #   Z sym  total        # sym  WBO       # sym  WBO       # sym  WBO
 ---------------------------------------------------------------------------
     1   6 C    3.995 --     2 C    1.019    11 H    0.988    10 H    0.988
                            12 H    0.986
     2   6 C    3.993 --     1 C    1.019     3 C    0.984    14 H    0.979
                            13 H    0.979
     3   6 C    3.996 --     4 C    1.038     2 C    0.984    16 H    0.974
                            15 H    0.954
     4   6 C    3.986 --     5 C    1.850     3 C    1.038    17 H    0.962
     5   6 C    3.987 --     4 C    1.850     6 C    1.050    18 H    0.960
     6   6 C    3.927 --     7 O    1.817     5 C    1.050     8 C    0.983
     7   8 O    2.055 --     6 C    1.817
     8   6 C    3.998 --     9 C    1.020     6 C    0.983    19 H    0.956
                            20 H    0.955
     9   6 C    3.994 --     8 C    1.020    22 H    0.988    23 H    0.987
                            21 H    0.986
    10   1 H    0.999 --     1 C    0.988
    11   1 H    0.999 --     1 C    0.988
    12   1 H    0.997 --     1 C    0.986
    13   1 H    0.999 --     2 C    0.979
    14   1 H    0.999 --     2 C    0.979
    15   1 H    0.994 --     3 C    0.954
    16   1 H    0.998 --     3 C    0.974
    17   1 H    0.998 --     4 C    0.962
    18   1 H    0.996 --     5 C    0.960
    19   1 H    0.997 --     8 C    0.956
    20   1 H    0.997 --     8 C    0.955
    21   1 H    0.998 --     9 C    0.986
    22   1 H    0.999 --     9 C    0.988
    23   1 H    0.998 --     9 C    0.987
 ---------------------------------------------------------------------------

Topologies differ in total number of bonds
Writing topology from bond orders to xtbtopo.mol

molecular dipole:
                 x           y           z       tot (Debye)
 q only:       -1.013       0.885      -0.492
   full:       -1.149       1.053      -0.583       4.228
molecular quadrupole (traceless):
                xx          xy          yy          xz          yz          zz
 q only:       -0.058       6.828      -1.392      -5.545       2.401       1.450
  q+dip:       -2.766       8.142       0.286      -6.509       1.914       2.480
   full:       -2.546       8.581      -0.305      -6.266       3.245       2.852

           -------------------------------------------------
          |                Geometry Summary                 |
           -------------------------------------------------

      molecular mass/u    :      126.1964626
   center of mass at/Å    :        0.3977344      -0.2261432       0.2012164
  moments of inertia/u·Å² :        0.1119039E+03   0.9329620E+03   0.1000706E+04
rotational constants/cm⁻¹ :        0.1506438E+00   0.1806894E-01   0.1684574E-01

 * 19 selected distances

     #   Z          #   Z                                           value/Å
     1   6 C        2   6 C                                       1.5229930
     2   6 C        3   6 C                                       1.5337561 (max)
     4   6 C        5   6 C                                       1.3311279
     6   6 C        7   8 O                                       1.2117924
     8   6 C        9   6 C                                       1.5228340
     1   6 C       10   1 H                                       1.0876541
     1   6 C       11   1 H                                       1.0879321
     1   6 C       12   1 H                                       1.0873339
     2   6 C       13   1 H                                       1.0922802
     2   6 C       14   1 H                                       1.0920030
     3   6 C       15   1 H                                       1.0942349
     3   6 C       16   1 H                                       1.0911841
     4   6 C       17   1 H                                       1.0820455 (min)
     5   6 C       18   1 H                                       1.0832141
     8   6 C       19   1 H                                       1.0924579
     8   6 C       20   1 H                                       1.0926091
     9   6 C       21   1 H                                       1.0869517
     9   6 C       22   1 H                                       1.0873261
     9   6 C       23   1 H                                       1.0869788

 * 3 distinct bonds (by element types)

   Z      Z             #   av. dist./Å        max./Å        min./Å
   1 H    6 C          14     1.0888718     1.0942349     1.0820455
   6 C    6 C           4     1.4776778     1.5337561     1.3311279
   6 C    8 O           1     1.2117924     1.2117924     1.2117924


optimized geometry written to: xtbopt.xyz


           -------------------------------------------------
          | TOTAL ENERGY              -28.302683372977 Eh   |
          | GRADIENT NORM               0.000122033608 Eh/α |
          | HOMO-LUMO GAP               2.970085795507 eV   |
           -------------------------------------------------

------------------------------------------------------------------------
 * finished run on 2026/07/08 at 20:56:14.175     
------------------------------------------------------------------------
 total:
 * wall-time:     0 d,  0 h,  0 min,  1.661 sec
 *  cpu-time:     0 d,  0 h,  0 min, 26.477 sec
 * ratio c/w:    15.938 speedup
 SCF:
 * wall-time:     0 d,  0 h,  0 min,  0.306 sec
 *  cpu-time:     0 d,  0 h,  0 min,  4.860 sec
 * ratio c/w:    15.899 speedup
 ANC optimizer:
 * wall-time:     0 d,  0 h,  0 min,  1.282 sec
 *  cpu-time:     0 d,  0 h,  0 min, 20.488 sec
 * ratio c/w:    15.979 speedup

