22
DEC_00300 MMFF geometry for GFN2-xTB preoptimization
C   3.910689079044 -0.304785465365 -0.456473329858
C   2.800583703925  0.366593066055 -0.793515244416
C   1.387388767500 -0.130957003846 -0.669480667682
C   0.569935120700  0.697426754652  0.302647503974
C  -0.494585830747 -0.281218591439  0.748322468379
C  -1.724044216047 -0.173874866599 -0.100446728913
O  -1.829472325414 -0.620345763870 -1.234126955367
O  -2.674522846614  0.562660646076  0.540289761077
C  -3.882918887775  0.730503998048 -0.204281296381
C   0.188786149471 -1.597852431645  0.581215175161
O  -0.201534691872 -2.658172906831  1.044392152809
O   1.332901928334 -1.458894875184 -0.148235870221
H   3.871194462556 -1.310116582555 -0.046027902486
H   4.892988022955  0.137291911314 -0.592543856126
H   2.914112347127  1.365389061468 -1.211528733799
H   0.931475799234 -0.142236136692 -1.667131284712
H   0.177953621341  1.611127190207 -0.156546616889
H   1.174349026237  0.991557514140  1.170976891320
H  -0.739593162830 -0.137653058614  1.805887293179
H  -3.689223310658  1.291729924831 -1.123651785518
H  -4.582695392048  1.302959660630  0.410748575816
H  -4.333767364419 -0.241132044779 -0.429321323183
