31
REP_00177 MMFF geometry for GFN2-xTB preoptimization
C   3.123886438884  0.846201234584 -0.329829405226
C   1.772435539929  0.483801607311  0.314789308132
C   2.030047174307 -0.515190043820  1.439608502805
C   0.774538266710  0.001579635543 -0.776990460876
O   0.671747641495  1.070872535261 -1.735403290598
C  -0.684448541794 -0.431618805689 -0.363899282187
C  -1.500717497907 -0.644101698557 -1.670683885845
C  -0.678819529843 -1.794030503442  0.362351286627
C  -1.357379171704  0.659973826815  0.525274623130
C  -2.796379016580  0.373662671658  0.953110613304
O  -1.325081794543  1.929488750525 -0.139698198966
H   3.830171386353  1.210871551106  0.424177211853
H   3.572416846665 -0.024593112860 -0.820160065415
H   3.014290724660  1.639471388638 -1.076119149864
H   1.393793130786  1.412870302293  0.759456057256
H   2.222645216914 -1.519137533715  1.048387916171
H   2.898589630497 -0.219259720355  2.038934643706
H   1.186756835659 -0.554866478065  2.132397329425
H   1.237470168164 -0.834648503603 -1.316982483003
H   0.182131966806  1.787277293900 -1.278027931999
H  -2.493268499888 -1.059802344478 -1.466111742878
H  -1.649213029079  0.286764826303 -2.227155283153
H  -0.989068294163 -1.349726056476 -2.335941555928
H  -0.002371668097 -2.502185208524 -0.128794517700
H  -1.674778931184 -2.252406326687  0.361283667363
H  -0.386094593853 -1.710541261324  1.410140924332
H  -0.770361857800  0.783188424529  1.441845712325
H  -3.473118210902  0.322611344710  0.094503194482
H  -2.876377041089 -0.554674080591  1.524739784699
H  -3.166750873464  1.191422011426  1.581957497529
H  -2.086692415938  1.966724273585 -0.747161019501
