44
 energy: -58.027040626774 gnorm: 0.000105333753 xtb: 6.7.1 (edcfbbe)
C           -1.78911711096336        3.84863054328772       -0.90911905073987
C           -1.50454266989566        2.56082372304553       -0.93079914989498
C           -2.27625225790251        1.53136146596425       -1.70137203621145
C           -2.79630475630711        0.47696640728115       -0.75869717148144
C           -4.08938166159554        0.54680242942779       -0.26235992295111
C           -4.54175218847996       -0.39412257423265        0.63952539080827
C           -3.71133116430272       -1.42352396774174        1.04791987325449
C           -2.41721508231162       -1.52447238834865        0.55517920666585
O           -1.55042597869135       -2.53382723420093        0.88786300784480
C           -1.97947754733104       -3.51508642182933        1.79745247613310
C           -1.94820173409371       -0.55324444528096       -0.34776003593432
O           -0.69792377491522       -0.58043989249888       -0.90901736299947
C            0.41524684943374       -0.85173764112435       -0.07417732806026
C            1.63287123526820       -0.18314739995955       -0.71955571255762
N            2.63628980418877        0.17889685340880        0.26263093537271
C            3.58651197851839        1.15322719761771       -0.25217328306582
C            3.00677560736634        2.56543510296538       -0.21567694362649
C            3.25529737400328       -0.95059134086491        0.93167316785483
C            4.11990778613061       -1.87086849288587        0.06110685151045
H           -1.20764945023533        4.55247334410407       -0.33769051457361
H           -2.61473271751733        4.25796942513359       -1.46877820344907
H           -0.67386993464309        2.17320635759757       -0.35650483290203
H           -1.61032711684173        1.05770661559178       -2.42612800238798
H           -3.10507343404227        2.00387124338312       -2.22989595679854
H           -4.73573109554031        1.35032216825446       -0.58148099838692
H           -5.54636050792953       -0.33674577795332        1.03025467321650
H           -4.08727489803701       -2.15438921685060        1.74569131021104
H           -2.84221003175385       -4.07028918132732        1.41515744789590
H           -1.13702367217624       -4.19625636867770        1.91078238087073
H           -2.22687840892609       -3.08250611015223        2.77248398043634
H            0.25753262065276       -0.41862932534214        0.92052910750843
H            0.55682314926285       -1.93244742516144        0.02785962160716
H            1.27779073069448        0.73660439929687       -1.18789565166848
H            2.02937534301353       -0.82606906618320       -1.52210496223490
H            3.90733716513841        0.91413842443176       -1.27961793547580
H            4.47081483031623        1.12842989311564        0.38884501819135
H            2.64777278148258        2.78772154880668        0.78537022699144
H            3.77517508045231        3.28642201784966       -0.48390159532620
H            2.17913380684207        2.67632819040403       -0.91102379471958
H            3.87100851653637       -0.54333899734013        1.73963996567018
H            2.45708963509642       -1.53821745224376        1.39062486467385
H            4.92310843321979       -1.31135197401466       -0.41267917732016
H            4.55986304520935       -2.64845569373549        0.68024187533656
H            3.52333142160750       -2.34757896300957       -0.71242175928386
