32
REP_00124 MMFF geometry for GFN2-xTB preoptimization
C   3.991768641726  0.156410526936  1.130851487847
C   3.319507619788  0.080485313168 -0.231045039189
C   2.805026839770 -1.317796122378 -0.580642689996
C   1.755966655658 -1.895396981076  0.375040129193
C   0.499861282867 -1.045488591667  0.569357344134
C  -0.280340707127 -0.800999520537 -0.717313923775
O  -1.469066171656 -0.080709177970 -0.384250688802
C  -2.265548942727  0.188068073682 -1.545399275617
C  -3.514825366610  0.956086039045 -1.111258531223
O  -4.231456015919  0.187324980774 -0.127573490666
C  -3.179754230394  2.314242384789 -0.489161766050
O  -4.393140488176  2.990179870428 -0.152291570134
H   4.800433839084 -0.576836552106  1.211250622976
H   4.421166222492  1.151932421315  1.282642865531
H   3.278918360675 -0.023638494141  1.940832505267
H   4.047254858674  0.380001079448 -0.995012847916
H   2.504727148780  0.811057615820 -0.278594781933
H   2.397474019699 -1.296404339828 -1.598343862117
H   3.656373658897 -2.009579240654 -0.613631928822
H   1.459306249072 -2.883898773697  0.001978931587
H   2.214815105032 -2.070826887998  1.355328374975
H   0.749667925323 -0.085313750938  1.036094590282
H  -0.157599288316 -1.548994591264  1.290064542189
H  -0.550554096856 -1.754600614891 -1.184730459140
H   0.310145139691 -0.207703361973 -1.423173156580
H  -1.687079172106  0.769028932781 -2.272034138559
H  -2.560056437469 -0.768637207148 -1.991606478459
H  -4.191893733246  1.093612991236 -1.960946400896
H  -3.542365316622 -0.167740128470  0.470449208775
H  -2.605928731709  2.203502444167  0.436413482549
H  -2.618326085871  2.945010158515 -1.184322472384
H  -4.964478782424  2.307621504630  0.253145073827
