      -----------------------------------------------------------      
     |                   =====================                   |     
     |                           x T B                           |     
     |                   =====================                   |     
     |                         S. Grimme                         |     
     |          Mulliken Center for Theoretical Chemistry        |     
     |                    University of Bonn                     |     
      -----------------------------------------------------------      

   * xtb version 6.7.1 (edcfbbe) compiled by 'conda@5dfe00f5fb80' on 2026-06-10

   xtb is free software: you can redistribute it and/or modify it under
   the terms of the GNU Lesser General Public License as published by
   the Free Software Foundation, either version 3 of the License, or
   (at your option) any later version.
   
   xtb is distributed in the hope that it will be useful,
   but WITHOUT ANY WARRANTY; without even the implied warranty of
   MERCHANTABILITY or FITNESS FOR A PARTICULAR PURPOSE.  See the
   GNU Lesser General Public License for more details.
   
   Cite this work as:
   * C. Bannwarth, E. Caldeweyher, S. Ehlert, A. Hansen, P. Pracht,
     J. Seibert, S. Spicher, S. Grimme, WIREs Comput. Mol. Sci., 2020, 11,
     e01493. DOI: 10.1002/wcms.1493
   
   for GFN2-xTB:
   * C. Bannwarth, S. Ehlert and S. Grimme., J. Chem. Theory Comput., 2019,
     15, 1652-1671. DOI: 10.1021/acs.jctc.8b01176
   for GFN1-xTB:
   * S. Grimme, C. Bannwarth, P. Shushkov, J. Chem. Theory Comput., 2017,
     13, 1989-2009. DOI: 10.1021/acs.jctc.7b00118
   for GFN0-xTB:
   * P. Pracht, E. Caldeweyher, S. Ehlert, S. Grimme, ChemRxiv, 2019, preprint.
     DOI: 10.26434/chemrxiv.8326202.v1
   for GFN-FF:
   * S. Spicher and S. Grimme, Angew. Chem. Int. Ed., 2020, 59, 15665-15673.
     DOI: 10.1002/anie.202004239
   
   for ALPB and GBSA implicit solvation:
   * S. Ehlert, M. Stahn, S. Spicher, S. Grimme, J. Chem. Theory Comput.,
     2021, 17, 4250-4261. DOI: 10.1021/acs.jctc.1c00471
   
   for ddCOSMO and CPCM-X implicit solvation:
   * M. Stahn, S. Ehlert, S. Grimme, J. Phys. Chem. A,
     2023, XX, XXXX-XXXX. DOI: 10.1021/acs.jpca.3c04382
   
   for DFT-D4:
   * E. Caldeweyher, C. Bannwarth and S. Grimme, J. Chem. Phys., 2017,
     147, 034112. DOI: 10.1063/1.4993215
   * E. Caldeweyher, S. Ehlert, A. Hansen, H. Neugebauer, S. Spicher,
     C. Bannwarth and S. Grimme, J. Chem. Phys., 2019, 150, 154122.
     DOI: 10.1063/1.5090222
   * E. Caldeweyher, J.-M. Mewes, S. Ehlert and S. Grimme, Phys. Chem. Chem. Phys.
     2020, 22, 8499-8512. DOI: 10.1039/D0CP00502A
   
   for sTDA-xTB:
   * S. Grimme and C. Bannwarth, J. Chem. Phys., 2016, 145, 054103.
     DOI: 10.1063/1.4959605
   
   in the mass-spec context:
   * V. Asgeirsson, C. Bauer and S. Grimme, Chem. Sci., 2017, 8, 4879.
     DOI: 10.1039/c7sc00601b
   * J. Koopman and S. Grimme, ACS Omega 2019, 4, 12, 15120-15133.
     DOI: 10.1021/acsomega.9b02011
   
   for metadynamics refer to:
   * S. Grimme, J. Chem. Theory Comput., 2019, 155, 2847-2862
     DOI: 10.1021/acs.jctc.9b00143
   
   for SPH calculations refer to:
   * S. Spicher and S. Grimme, J. Chem. Theory Comput., 2021, 17, 1701-1714
     DOI: 10.1021/acs.jctc.0c01306
   
   for ONIOM refer to:
   * C. Plett, A. Katbashev, S. Ehlert, S. Grimme, M. Bursch,
     Phys. Chem. Chem. Phys., 2023, 25, 17860-17868. DOI: 10.1039/D3CP02178E
   
   for DIPRO refer to:
   * J. Kohn, N. Gildemeister, S. Grimme, D. Fazzi, A. Hansen,
     J. Chem. Phys., 2023, just accepted.
   
   for PTB refer to:
   * S. Grimme, M. Mueller, A. Hansen, J. Chem. Phys., 2023, 158, 124111.
     DOI: 10.1063/5.0137838
   
   with help from (in alphabetical order)
   P. Atkinson, C. Bannwarth, F. Bohle, G. Brandenburg, E. Caldeweyher
   M. Checinski, S. Dohm, S. Ehlert, S. Ehrlich, I. Gerasimov, C. Hölzer
   A. Katbashev, J. Kohn, J. Koopman, C. Lavigne, S. Lehtola, F. März, M. Müller,
   F. Musil, H. Neugebauer, J. Pisarek, C. Plett, P. Pracht, F. Pultar,
   J. Seibert, P. Shushkov, S. Spicher, M. Stahn, M. Steiner, T. Strunk,
   J. Stückrath, T. Rose, and J. Unsleber
   
 * started run on 2026/07/08 at 06:31:12.689     
   ID    Z sym.   atoms
    1    8 O      1
    2    6 C      2-9
    3   17 Cl     10
    4    1 H      11-19

           -------------------------------------------------
          |                Calculation Setup                |
           -------------------------------------------------

          program call               : /home/ws/xd2484/miniforge3/envs/p3z_dft/bin/xtb xtb_input.xyz --gfn 2 --opt tight --cycles 500 --chrg 0 --uhf 0
          hostname                   : gpu10
          coordinate file            : xtb_input.xyz
          omp threads                :                    16


           -------------------------------------------------
          |                 G F N 2 - x T B                 |
           -------------------------------------------------

        Reference                      10.1021/acs.jctc.8b01176
      * Hamiltonian:
        H0-scaling (s, p, d)           1.850000    2.230000    2.230000
        zeta-weighting                 0.500000
      * Dispersion:
        s8                             2.700000
        a1                             0.520000
        a2                             5.000000
        s9                             5.000000
      * Repulsion:
        kExp                           1.500000    1.000000
        rExp                           1.000000
      * Coulomb:
        alpha                          2.000000
        third order                    shell-resolved
        anisotropic                    true
        a3                             3.000000
        a5                             4.000000
        cn-shift                       1.200000
        cn-exp                         4.000000
        max-rad                        5.000000


          ...................................................
          :                      SETUP                      :
          :.................................................:
          :  # basis functions                  55          :
          :  # atomic orbitals                  54          :
          :  # shells                           30          :
          :  # electrons                        54          :
          :  max. iterations                   250          :
          :  Hamiltonian                  GFN2-xTB          :
          :  restarted?                      false          :
          :  GBSA solvation                  false          :
          :  PC potential                    false          :
          :  electronic temp.          300.0000000     K    :
          :  accuracy                    1.0000000          :
          :  -> integral cutoff          0.2500000E+02      :
          :  -> integral neglect         0.1000000E-07      :
          :  -> SCF convergence          0.1000000E-05 Eh   :
          :  -> wf. convergence          0.1000000E-03 e    :
          :  Broyden damping             0.4000000          :
          :  net charge                          0          :
          :  unpaired electrons                  0          :
          ...................................................

 iter      E             dE          RMSdq      gap      omega  full diag
   1    -30.6682821 -0.306683E+02  0.414E+00    4.39       0.0  T
   2    -30.6996180 -0.313359E-01  0.234E+00    4.22       1.0  T
   3    -30.6957368  0.388124E-02  0.885E-01    4.05       1.0  T
   4    -30.7006097 -0.487290E-02  0.346E-01    4.20       1.0  T
   5    -30.7023822 -0.177252E-02  0.809E-02    4.20       1.0  T
   6    -30.7024092 -0.270342E-04  0.493E-02    4.20       1.0  T
   7    -30.7024170 -0.775587E-05  0.271E-02    4.20       1.0  T
   8    -30.7024207 -0.374784E-05  0.201E-02    4.20       1.1  T
   9    -30.7024238 -0.301605E-05  0.112E-02    4.20       2.1  T
  10    -30.7024246 -0.877977E-06  0.593E-03    4.20       3.9  T
  11    -30.7024250 -0.331066E-06  0.247E-03    4.20       9.3  T
  12    -30.7024250 -0.629125E-07  0.106E-03    4.20      21.6  T
  13    -30.7024250 -0.458842E-08  0.419E-04    4.20      54.7  T
  14    -30.7024250 -0.391768E-09  0.291E-04    4.20      78.9  T

   *** convergence criteria satisfied after 14 iterations ***

         #    Occupation            Energy/Eh            Energy/eV
      -------------------------------------------------------------
         1        2.0000           -1.0592081             -28.8225
       ...           ...                  ...                  ...
        21        2.0000           -0.4517343             -12.2923
        22        2.0000           -0.4425558             -12.0426
        23        2.0000           -0.4407245             -11.9927
        24        2.0000           -0.4251612             -11.5692
        25        2.0000           -0.4193398             -11.4108
        26        2.0000           -0.4110917             -11.1864
        27        2.0000           -0.3983803             -10.8405 (HOMO)
        28                         -0.2441215              -6.6429 (LUMO)
        29                         -0.2431959              -6.6177
        30                         -0.1397831              -3.8037
        31                         -0.1215161              -3.3066
        32                          0.0106084               0.2887
       ...                                ...                  ...
        54                          0.6016070              16.3706
      -------------------------------------------------------------
                  HL-Gap            0.1542587 Eh            4.1976 eV
             Fermi-level           -0.3212509 Eh           -8.7417 eV

 SCC (total)                   0 d,  0 h,  0 min,  0.218 sec
 SCC setup                      ...        0 min,  0.004 sec (  1.682%)
 Dispersion                     ...        0 min,  0.007 sec (  3.438%)
 classical contributions        ...        0 min,  0.004 sec (  1.700%)
 integral evaluation            ...        0 min,  0.011 sec (  4.830%)
 iterations                     ...        0 min,  0.160 sec ( 73.480%)
 molecular gradient             ...        0 min,  0.032 sec ( 14.790%)
 printout                       ...        0 min,  0.000 sec (  0.066%)

         :::::::::::::::::::::::::::::::::::::::::::::::::::::
         ::                     SUMMARY                     ::
         :::::::::::::::::::::::::::::::::::::::::::::::::::::
         :: total energy             -30.323605626551 Eh    ::
         :: gradient norm              0.035444103705 Eh/a0 ::
         :: HOMO-LUMO gap              4.197593703979 eV    ::
         ::.................................................::
         :: SCC energy               -30.702322236331 Eh    ::
         :: -> isotropic ES            0.029763882418 Eh    ::
         :: -> anisotropic ES          0.000899642058 Eh    ::
         :: -> anisotropic XC          0.011731653071 Eh    ::
         :: -> dispersion             -0.016992241289 Eh    ::
         :: repulsion energy           0.378716609780 Eh    ::
         :: add. restraining           0.000000000000 Eh    ::
         :: total charge              -0.000000000000 e     ::
         :::::::::::::::::::::::::::::::::::::::::::::::::::::

      ----------------------------------------------------------- 
     |                   =====================                   |
     |                        A N C O P T                        |
     |                   =====================                   |
     |               Approximate Normal Coordinate               |
     |                Rational Function Optimizer                |
      ----------------------------------------------------------- 
      ----------------------------------------------------------- 
     |                   =====================                   |
     |                        A N C O P T                        |
     |                   =====================                   |
     |               Approximate Normal Coordinate               |
     |                Rational Function Optimizer                |
      ----------------------------------------------------------- 

          ...................................................
          :                      SETUP                      :
          :.................................................:
          :   optimization level             tight          :
          :   max. optcycles                   500          :
          :   ANC micro-cycles                  20          :
          :   degrees of freedom                51          :
          :.................................................:
          :   RF solver                   davidson          :
          :   write xtbopt.log                true          :
          :   linear?                        false          :
          :   energy convergence         0.1000000E-05 Eh   :
          :   grad. convergence          0.8000000E-03 Eh/α :
          :   maxmium RF displ.          1.0000000          :
          :   Hlow (freq-cutoff)         0.1000000E-01      :
          :   Hmax (freq-cutoff)         5.0000000          :
          :   S6 in model hess.         20.0000000          :
          ...................................................

generating ANC from exact Hessian ...
Using Lindh-Hessian (1995)
 Shifting diagonal of input Hessian by    7.9732678309151882E-003
 Lowest  eigenvalues of input Hessian
    0.000000    0.000000    0.000000    0.000000    0.000000    0.000000
    0.010000    0.010146    0.012647    0.015747    0.019745    0.025085
    0.026978    0.028399    0.032242    0.047490    0.054517    0.059396
 Highest eigenvalues
    1.426850    1.523670    1.579959    1.808093    1.923273    1.943749


........................................................................
.............................. CYCLE    1 ..............................
........................................................................

 iter      E             dE          RMSdq      gap      omega  full diag
   1    -30.7024250 -0.307024E+02  0.188E-04    4.20       0.0  T
   2    -30.7024250 -0.896634E-10  0.153E-04    4.20     150.1  T
   3    -30.7024250 -0.478693E-10  0.124E-04    4.20     185.2  T
     SCC iter.                  ...        0 min,  0.036 sec
     gradient                   ...        0 min,  0.034 sec
 * total energy  :   -30.3236056 Eh     change       -0.6370371E-09 Eh
   gradient norm :     0.0354440 Eh/α   predicted     0.0000000E+00 (-100.00%)
   displ. norm   :     0.1836917 α      lambda       -0.3803299E-02
   maximum displ.:     0.0675053 α      in ANC's #11, #6, #18, ...

........................................................................
.............................. CYCLE    2 ..............................
........................................................................

 iter      E             dE          RMSdq      gap      omega  full diag
   1    -30.7236375 -0.307236E+02  0.156E-01    4.28       0.0  T
   2    -30.7236477 -0.102520E-04  0.936E-02    4.27       1.0  T
   3    -30.7236417  0.598026E-05  0.217E-02    4.26       1.1  T
   4    -30.7236495 -0.778834E-05  0.753E-03    4.27       3.0  T
   5    -30.7236502 -0.695512E-06  0.441E-03    4.27       5.2  T
   6    -30.7236503 -0.820429E-07  0.309E-03    4.27       7.4  T
   7    -30.7236504 -0.540128E-07  0.214E-03    4.27      10.7  T
   8    -30.7236504 -0.357408E-07  0.125E-03    4.27      18.4  T
   9    -30.7236504 -0.131109E-07  0.465E-04    4.27      49.4  T
  10    -30.7236504 -0.111794E-08  0.211E-04    4.27     108.5  T
     SCC iter.                  ...        0 min,  0.138 sec
     gradient                   ...        0 min,  0.035 sec
 * total energy  :   -30.3260379 Eh     change       -0.2432304E-02 Eh
   gradient norm :     0.0150119 Eh/α   predicted    -0.1965862E-02 ( -19.18%)
   displ. norm   :     0.1302363 α      lambda       -0.6945668E-03
   maximum displ.:     0.0546209 α      in ANC's #2, #6, #4, ...

........................................................................
.............................. CYCLE    3 ..............................
........................................................................

 iter      E             dE          RMSdq      gap      omega  full diag
   1    -30.7303661 -0.307304E+02  0.766E-02    4.28       0.0  T
   2    -30.7303695 -0.337881E-05  0.455E-02    4.28       1.0  T
   3    -30.7303681  0.137726E-05  0.142E-02    4.28       1.6  T
   4    -30.7303701 -0.197005E-05  0.350E-03    4.28       6.6  T
   5    -30.7303702 -0.124502E-06  0.149E-03    4.28      15.4  T
   6    -30.7303702 -0.646369E-08  0.738E-04    4.28      31.1  T
   7    -30.7303702 -0.154871E-08  0.511E-04    4.28      44.9  T
     SCC iter.                  ...        0 min,  0.088 sec
     gradient                   ...        0 min,  0.039 sec
 * total energy  :   -30.3264588 Eh     change       -0.4209013E-03 Eh
   gradient norm :     0.0061128 Eh/α   predicted    -0.3532880E-03 ( -16.06%)
   displ. norm   :     0.0879418 α      lambda       -0.1445738E-03
   maximum displ.:     0.0567738 α      in ANC's #2, #1, #4, ...

........................................................................
.............................. CYCLE    4 ..............................
........................................................................

 iter      E             dE          RMSdq      gap      omega  full diag
   1    -30.7302276 -0.307302E+02  0.399E-02    4.27       0.0  T
   2    -30.7302286 -0.101408E-05  0.239E-02    4.27       1.0  T
   3    -30.7302280  0.571894E-06  0.959E-03    4.27       2.4  T
   4    -30.7302289 -0.842964E-06  0.207E-03    4.27      11.1  T
   5    -30.7302289 -0.311932E-07  0.109E-03    4.27      21.1  T
   6    -30.7302289 -0.306737E-08  0.620E-04    4.27      37.0  T
   7    -30.7302289 -0.139193E-08  0.444E-04    4.27      51.7  T
     SCC iter.                  ...        0 min,  0.097 sec
     gradient                   ...        0 min,  0.040 sec
 * total energy  :   -30.3265613 Eh     change       -0.1024868E-03 Eh
   gradient norm :     0.0028417 Eh/α   predicted    -0.7284650E-04 ( -28.92%)
   displ. norm   :     0.0953621 α      lambda       -0.8151486E-04
   maximum displ.:     0.0685227 α      in ANC's #2, #1, #4, ...

........................................................................
.............................. CYCLE    5 ..............................
........................................................................

 iter      E             dE          RMSdq      gap      omega  full diag
   1    -30.7290962 -0.307291E+02  0.396E-02    4.27       0.0  T
   2    -30.7290968 -0.574386E-06  0.239E-02    4.27       1.0  T
   3    -30.7290961  0.626044E-06  0.825E-03    4.27       2.8  T
   4    -30.7290970 -0.866400E-06  0.208E-03    4.27      11.0  T
   5    -30.7290970 -0.190447E-07  0.148E-03    4.27      15.5  T
   6    -30.7290970 -0.954557E-08  0.854E-04    4.27      26.9  T
   7    -30.7290970 -0.382270E-08  0.616E-04    4.27      37.3  T
     SCC iter.                  ...        0 min,  0.100 sec
     gradient                   ...        0 min,  0.042 sec
 * total energy  :   -30.3266172 Eh     change       -0.5588528E-04 Eh
   gradient norm :     0.0030750 Eh/α   predicted    -0.4118159E-04 ( -26.31%)
   displ. norm   :     0.0811604 α      lambda       -0.4029339E-04
   maximum displ.:     0.0581776 α      in ANC's #2, #1, #3, ...

........................................................................
.............................. CYCLE    6 ..............................
........................................................................

 iter      E             dE          RMSdq      gap      omega  full diag
   1    -30.7285569 -0.307286E+02  0.322E-02    4.27       0.0  T
   2    -30.7285570 -0.134209E-06  0.193E-02    4.27       1.2  T
   3    -30.7285568  0.216314E-06  0.424E-03    4.27       5.4  T
   4    -30.7285571 -0.307032E-06  0.138E-03    4.27      16.7  T
   5    -30.7285571 -0.504668E-08  0.909E-04    4.27      25.2  T
   6    -30.7285571 -0.435415E-08  0.561E-04    4.27      40.9  T
     SCC iter.                  ...        0 min,  0.081 sec
     gradient                   ...        0 min,  0.037 sec
 * total energy  :   -30.3266488 Eh     change       -0.3154807E-04 Eh
   gradient norm :     0.0029706 Eh/α   predicted    -0.2028258E-04 ( -35.71%)
   displ. norm   :     0.1020713 α      lambda       -0.4080731E-04
   maximum displ.:     0.0691257 α      in ANC's #2, #1, #3, ...

........................................................................
.............................. CYCLE    7 ..............................
........................................................................

 iter      E             dE          RMSdq      gap      omega  full diag
   1    -30.7284604 -0.307285E+02  0.404E-02    4.27       0.0  T
   2    -30.7284606 -0.183130E-06  0.241E-02    4.27       1.0  T
   3    -30.7284603  0.275334E-06  0.429E-03    4.27       5.3  T
   4    -30.7284607 -0.388414E-06  0.145E-03    4.27      15.8  T
   5    -30.7284607 -0.560270E-08  0.775E-04    4.27      29.6  T
   6    -30.7284607 -0.244439E-08  0.528E-04    4.27      43.5  T
     SCC iter.                  ...        0 min,  0.078 sec
     gradient                   ...        0 min,  0.040 sec
 * total energy  :   -30.3266792 Eh     change       -0.3049616E-04 Eh
   gradient norm :     0.0019523 Eh/α   predicted    -0.2061859E-04 ( -32.39%)
   displ. norm   :     0.1400414 α      lambda       -0.2411645E-04
   maximum displ.:     0.0911441 α      in ANC's #2, #1, #3, ...

........................................................................
.............................. CYCLE    8 ..............................
........................................................................

 iter      E             dE          RMSdq      gap      omega  full diag
   1    -30.7288786 -0.307289E+02  0.558E-02    4.27       0.0  T
   2    -30.7288791 -0.446498E-06  0.331E-02    4.27       1.0  T
   3    -30.7288782  0.924645E-06  0.738E-03    4.27       3.1  T
   4    -30.7288793 -0.116868E-05  0.172E-03    4.27      13.3  T
   5    -30.7288793 -0.842044E-08  0.897E-04    4.27      25.6  T
   6    -30.7288793 -0.259791E-08  0.417E-04    4.27      55.0  T
     SCC iter.                  ...        0 min,  0.084 sec
     gradient                   ...        0 min,  0.040 sec
 * total energy  :   -30.3266965 Eh     change       -0.1722070E-04 Eh
   gradient norm :     0.0009349 Eh/α   predicted    -0.1216413E-04 ( -29.36%)
   displ. norm   :     0.0127495 α      lambda       -0.2732515E-05
   maximum displ.:     0.0067362 α      in ANC's #7, #2, #9, ...

........................................................................
.............................. CYCLE    9 ..............................
........................................................................

 iter      E             dE          RMSdq      gap      omega  full diag
   1    -30.7293416 -0.307293E+02  0.726E-03    4.27       0.0  T
   2    -30.7293417 -0.209481E-07  0.451E-03    4.27       5.1  T
   3    -30.7293416  0.376509E-07  0.191E-03    4.27      12.0  T
   4    -30.7293417 -0.539627E-07  0.522E-04    4.27      44.0  T
   5    -30.7293417 -0.720540E-09  0.359E-04    4.27      63.8  T
     SCC iter.                  ...        0 min,  0.063 sec
     gradient                   ...        0 min,  0.033 sec
 * total energy  :   -30.3266987 Eh     change       -0.2232477E-05 Eh
   gradient norm :     0.0011627 Eh/α   predicted    -0.1367155E-05 ( -38.76%)
   displ. norm   :     0.0156976 α      lambda       -0.2148393E-05
   maximum displ.:     0.0140769 α      in ANC's #1, #7, #9, ...

........................................................................
.............................. CYCLE   10 ..............................
........................................................................

 iter      E             dE          RMSdq      gap      omega  full diag
   1    -30.7293982 -0.307294E+02  0.842E-03    4.27       0.0  T
   2    -30.7293982 -0.249164E-07  0.507E-03    4.27       4.5  T
   3    -30.7293982  0.251389E-07  0.158E-03    4.27      14.6  T
   4    -30.7293982 -0.372298E-07  0.654E-04    4.27      35.1  T
   5    -30.7293982 -0.182068E-08  0.483E-04    4.27      47.5  T
     SCC iter.                  ...        0 min,  0.055 sec
     gradient                   ...        0 min,  0.034 sec
 * total energy  :   -30.3267005 Eh     change       -0.1815641E-05 Eh
   gradient norm :     0.0004650 Eh/α   predicted    -0.1075979E-05 ( -40.74%)
   displ. norm   :     0.0148701 α      lambda       -0.1169167E-05
   maximum displ.:     0.0119611 α      in ANC's #1, #3, #7, ...

........................................................................
.............................. CYCLE   11 ..............................
........................................................................

 iter      E             dE          RMSdq      gap      omega  full diag
   1    -30.7292410 -0.307292E+02  0.721E-03    4.27       0.0  T
   2    -30.7292410 -0.882056E-08  0.435E-03    4.27       5.3  T
   3    -30.7292410  0.124928E-07  0.935E-04    4.27      24.5  T
   4    -30.7292410 -0.179776E-07  0.365E-04    4.27      62.8  T
     SCC iter.                  ...        0 min,  0.051 sec
     gradient                   ...        0 min,  0.034 sec
 * total energy  :   -30.3267019 Eh     change       -0.1358728E-05 Eh
   gradient norm :     0.0004096 Eh/α   predicted    -0.5852307E-06 ( -56.93%)
   displ. norm   :     0.0191038 α      lambda       -0.1029387E-05
   maximum displ.:     0.0155523 α      in ANC's #1, #3, #7, ...

........................................................................
.............................. CYCLE   12 ..............................
........................................................................

 iter      E             dE          RMSdq      gap      omega  full diag
   1    -30.7291286 -0.307291E+02  0.883E-03    4.27       0.0  T
   2    -30.7291286 -0.112039E-07  0.529E-03    4.27       4.3  T
   3    -30.7291286  0.325813E-07  0.134E-03    4.27      17.1  T
   4    -30.7291286 -0.400846E-07  0.266E-04    4.27      86.3  T
   5    -30.7291286 -0.665388E-10  0.146E-04    4.27     156.8  T
     SCC iter.                  ...        0 min,  0.072 sec
     gradient                   ...        0 min,  0.043 sec
 * total energy  :   -30.3267030 Eh     change       -0.1078863E-05 Eh
   gradient norm :     0.0002829 Eh/α   predicted    -0.5181056E-06 ( -51.98%)
   displ. norm   :     0.0153856 α      lambda       -0.4810340E-06
   maximum displ.:     0.0127488 α      in ANC's #1, #3, #6, ...

........................................................................
.............................. CYCLE   13 ..............................
........................................................................

 iter      E             dE          RMSdq      gap      omega  full diag
   1    -30.7291510 -0.307292E+02  0.674E-03    4.27       0.0  T
   2    -30.7291510 -0.657763E-08  0.402E-03    4.27       5.7  T
   3    -30.7291510  0.147900E-07  0.101E-03    4.27      22.7  T
   4    -30.7291510 -0.185426E-07  0.222E-04    4.27     103.2  T
   5    -30.7291510 -0.108187E-09  0.145E-04    4.27     158.4  T
     SCC iter.                  ...        0 min,  0.077 sec
     gradient                   ...        0 min,  0.028 sec
 * total energy  :   -30.3267034 Eh     change       -0.4854551E-06 Eh
   gradient norm :     0.0002009 Eh/α   predicted    -0.2453800E-06 ( -49.45%)
   displ. norm   :     0.0156738 α      lambda        0.1917183E-06
   maximum displ.:     0.0129917 α      in ANC's #1, #3, #6, ...

   *** GEOMETRY OPTIMIZATION CONVERGED AFTER 13 ITERATIONS ***

------------------------------------------------------------------------
 total energy gain   :        -0.0030978 Eh       -1.9439 kcal/mol
 total RMSD          :         0.1562602 a0        0.0827 Å
 total power (kW/mol):        -0.6256392 (step)   -4.2010 (real)
------------------------------------------------------------------------

 ANCopt (total)                0 d,  0 h,  0 min,  1.936 sec
 optimizer setup                ...        0 min,  0.001 sec (  0.031%)
 model hessian                  ...        0 min,  0.005 sec (  0.278%)
 ANC generation                 ...        0 min,  0.001 sec (  0.028%)
 coordinate transformation      ...        0 min,  0.000 sec (  0.006%)
 single point calculation       ...        0 min,  1.877 sec ( 96.965%)
 optimization log               ...        0 min,  0.001 sec (  0.069%)
 hessian update                 ...        0 min,  0.048 sec (  2.478%)
 rational function              ...        0 min,  0.001 sec (  0.047%)

================
 final structure:
================
19
 xtb: 6.7.1 (edcfbbe)
O           -2.30127621152730       -0.57673373869293        1.41187492073403
C           -2.40436461882165       -0.12117775143301        0.08692491929479
C           -1.32850382192163       -0.72545046958139       -0.83403460376083
C            0.03459084029828       -0.25070647702811       -0.42705125713047
C            0.81002018108186       -1.00199907015355        0.45022194482257
C            2.04909338377093       -0.55956844729710        0.87865045141236
C            2.53978397613957        0.65501228517737        0.43228471773632
C            1.78784433861050        1.42318418935741       -0.43900778729308
C            0.54648441736220        0.97199558311219       -0.85587721991114
Cl          -0.36875823197755        1.96791177230006       -1.94209501340341
H           -1.42532230738399       -0.35021081623531        1.74704269165483
H           -2.34489270903773        0.97553262965586        0.04837215383847
H           -3.39558648818921       -0.42874807859020       -0.25324562540919
H           -1.54488527580753       -0.42842954916697       -1.86019657767042
H           -1.37981243688596       -1.81268154029158       -0.76059190986635
H            0.43126108319488       -1.95378804441951        0.79430022557741
H            2.63035972795829       -1.16348061700023        1.55879279232970
H            3.50602149871379        1.00749498269155        0.75891486923727
H            2.15794265442315        2.37184315759548       -0.79527969219487

 Bond Distances (Angstroems)
 ---------------------------
O1-C2=1.4049         O1-H11=0.9649        C2-O1=1.4049         C2-C3=1.5397         C2-H12=1.0990        C2-H13=1.0922        
C3-C2=1.5397         C3-C4=1.4997         C3-H14=1.0900        C3-H15=1.0909        C4-C3=1.4997         C4-C5=1.3912         
C4-C9=1.3932         C5-C4=1.3912         C5-C6=1.3837         C5-H16=1.0806        C6-C5=1.3837         C6-C7=1.3839         
C6-H17=1.0794        C7-C6=1.3839         C7-C8=1.3837         C7-H18=1.0791        C8-C7=1.3837         C8-C9=1.3850         
C8-H19=1.0788        C9-C4=1.3932         C9-C8=1.3850         C9-Cl10=1.7348       Cl10-C9=1.7348       H11-O1=0.9649        
H12-C2=1.0990        H13-C2=1.0922        H14-C3=1.0900        H15-C3=1.0909        H16-C5=1.0806        H17-C6=1.0794        
H18-C7=1.0791        H19-C8=1.0788        
 C  H  Rav=1.0863 sigma=0.0072  Rmin=1.0788  Rmax=1.0990     8
 C  C  Rav=1.4200 sigma=0.0585  Rmin=1.3837  Rmax=1.5397     8
 O  H  Rav=0.9649 sigma=0.0000  Rmin=0.9649  Rmax=0.9649     1
 O  C  Rav=1.4049 sigma=0.0000  Rmin=1.4049  Rmax=1.4049     1
 Cl C  Rav=1.7348 sigma=0.0000  Rmin=1.7348  Rmax=1.7348     1

 selected bond angles (degree)
 --------------------
H11-O1-C2=108.55               C3-C2-O1=112.68                H12-C2-O1=110.65               H12-C2-C3=109.44               
H13-C2-O1=105.61               H13-C2-C3=109.71               H13-C2-H12=108.62              C4-C3-C2=110.40                
H14-C3-C2=108.51               H14-C3-C4=110.47               H15-C3-C2=108.54               H15-C3-C4=109.88               
H15-C3-H14=109.00              C5-C4-C3=120.45                C9-C4-C3=121.89                C9-C4-C5=117.60                
C6-C5-C4=121.45                H16-C5-C4=118.76               H16-C5-C6=119.80               C7-C6-C5=119.89                
H17-C6-C5=119.90               H17-C6-C7=120.22               C8-C7-C6=119.84                H18-C7-C6=120.43               
H18-C7-C8=119.72               C9-C8-C7=119.72                H19-C8-C7=120.64               H19-C8-C9=119.64               
C8-C9-C4=121.50                Cl10-C9-C4=120.18              Cl10-C9-C8=118.31              

 selected dihedral angles (degree)
 ---------------------------------
C3-C2-O1-H11= 58.50           H12-C2-O1-H11=295.61          H13-C2-O1-H11=178.25          C4-C3-C2-O1=294.19            
C4-C3-C2-H12= 57.75           C4-C3-C2-H13=176.84           H14-C3-C2-O1=173.00           H14-C3-C2-H12=296.56          
H14-C3-C2-H13= 55.65          H15-C3-C2-O1= 54.67           H15-C3-C2-H12=178.24          H15-C3-C2-H13=297.32          
C5-C4-C3-C2= 93.38            C5-C4-C3-H14=213.40           C5-C4-C3-H15=333.69           C9-C4-C3-C2=276.33            
C9-C4-C3-H14= 36.35           C9-C4-C3-H15=156.65           C6-C5-C4-C3=182.46            C6-C5-C4-C9=359.63            
H16-C5-C4-C3=  2.87           H16-C5-C4-C9=180.04           C7-C6-C5-C4=  0.00            C7-C6-C5-H16=179.58           
H17-C6-C5-C4=180.08           H17-C6-C5-H16=359.66          C8-C7-C6-C5=  0.12            C8-C7-C6-H17=180.03           
H18-C7-C6-C5=180.14           H18-C7-C6-H17=  0.06          C9-C8-C7-C6=  0.17            C9-C8-C7-H18=180.14           
H19-C8-C7-C6=180.02           H19-C8-C7-H18=  0.00          C8-C9-C4-C3=177.79            C8-C9-C4-C5=  0.66            
Cl10-C9-C4-C3=357.52          Cl10-C9-C4-C5=180.39          C4-C9-C8-C7=359.43            C4-C9-C8-H19=179.58           
Cl10-C9-C8-C7=179.69          Cl10-C9-C8-H19=359.84         
           -------------------------------------------------
          |                Final Singlepoint                |
           -------------------------------------------------

          ...................................................
          :                      SETUP                      :
          :.................................................:
          :  # basis functions                  55          :
          :  # atomic orbitals                  54          :
          :  # shells                           30          :
          :  # electrons                        54          :
          :  max. iterations                   250          :
          :  Hamiltonian                  GFN2-xTB          :
          :  restarted?                      false          :
          :  GBSA solvation                  false          :
          :  PC potential                    false          :
          :  electronic temp.          300.0000000     K    :
          :  accuracy                    1.0000000          :
          :  -> integral cutoff          0.2500000E+02      :
          :  -> integral neglect         0.1000000E-07      :
          :  -> SCF convergence          0.1000000E-05 Eh   :
          :  -> wf. convergence          0.1000000E-03 e    :
          :  Broyden damping             0.4000000          :
          :  net charge                          0          :
          :  unpaired electrons                  0          :
          ...................................................

 iter      E             dE          RMSdq      gap      omega  full diag
   1    -30.7291510 -0.307292E+02  0.946E-05    4.27       0.0  T
   2    -30.7291510 -0.235616E-10  0.779E-05    4.27     294.5  T
   3    -30.7291510 -0.171951E-10  0.601E-05    4.27     381.6  T

   *** convergence criteria satisfied after 3 iterations ***

         #    Occupation            Energy/Eh            Energy/eV
      -------------------------------------------------------------
         1        2.0000           -1.0592395             -28.8234
       ...           ...                  ...                  ...
        21        2.0000           -0.4533574             -12.3365
        22        2.0000           -0.4434108             -12.0658
        23        2.0000           -0.4415629             -12.0155
        24        2.0000           -0.4252954             -11.5729
        25        2.0000           -0.4199952             -11.4287
        26        2.0000           -0.4122258             -11.2172
        27        2.0000           -0.3994729             -10.8702 (HOMO)
        28                         -0.2426105              -6.6018 (LUMO)
        29                         -0.2421999              -6.5906
        30                         -0.1412583              -3.8438
        31                         -0.1164221              -3.1680
        32                          0.0115070               0.3131
       ...                                ...                  ...
        54                          0.6347873              17.2734
      -------------------------------------------------------------
                  HL-Gap            0.1568623 Eh            4.2684 eV
             Fermi-level           -0.3210417 Eh           -8.7360 eV

 SCC (total)                   0 d,  0 h,  0 min,  0.151 sec
 SCC setup                      ...        0 min,  0.002 sec (  1.061%)
 Dispersion                     ...        0 min,  0.007 sec (  4.861%)
 classical contributions        ...        0 min,  0.003 sec (  1.939%)
 integral evaluation            ...        0 min,  0.008 sec (  5.405%)
 iterations                     ...        0 min,  0.082 sec ( 54.012%)
 molecular gradient             ...        0 min,  0.049 sec ( 32.627%)
 printout                       ...        0 min,  0.000 sec (  0.076%)

         :::::::::::::::::::::::::::::::::::::::::::::::::::::
         ::                     SUMMARY                     ::
         :::::::::::::::::::::::::::::::::::::::::::::::::::::
         :: total energy             -30.326703440874 Eh    ::
         :: gradient norm              0.000200546675 Eh/a0 ::
         :: HOMO-LUMO gap              4.268441428388 eV    ::
         ::.................................................::
         :: SCC energy               -30.729049898673 Eh    ::
         :: -> isotropic ES            0.029411552677 Eh    ::
         :: -> anisotropic ES          0.000474235819 Eh    ::
         :: -> anisotropic XC          0.010982258498 Eh    ::
         :: -> dispersion             -0.017239490881 Eh    ::
         :: repulsion energy           0.402346457799 Eh    ::
         :: add. restraining           0.000000000000 Eh    ::
         :: total charge               0.000000000000 e     ::
         :::::::::::::::::::::::::::::::::::::::::::::::::::::

           -------------------------------------------------
          |                Property Printout                |
           -------------------------------------------------

    * Orbital Energies and Occupations

         #    Occupation            Energy/Eh            Energy/eV
      -------------------------------------------------------------
         1        2.0000           -1.0592395             -28.8234
       ...           ...                  ...                  ...
        15        2.0000           -0.5101555             -13.8820
        16        2.0000           -0.5031323             -13.6909
        17        2.0000           -0.4976716             -13.5423
        18        2.0000           -0.4863438             -13.2341
        19        2.0000           -0.4729028             -12.8683
        20        2.0000           -0.4592402             -12.4966
        21        2.0000           -0.4533574             -12.3365
        22        2.0000           -0.4434108             -12.0658
        23        2.0000           -0.4415629             -12.0155
        24        2.0000           -0.4252954             -11.5729
        25        2.0000           -0.4199952             -11.4287
        26        2.0000           -0.4122258             -11.2172
        27        2.0000           -0.3994729             -10.8702 (HOMO)
        28                         -0.2426105              -6.6018 (LUMO)
        29                         -0.2421999              -6.5906
        30                         -0.1412583              -3.8438
        31                         -0.1164221              -3.1680
        32                          0.0115070               0.3131
        33                          0.0158288               0.4307
        34                          0.0163375               0.4446
        35                          0.0290889               0.7915
        36                          0.0611396               1.6637
        37                          0.0835188               2.2727
        38                          0.1077090               2.9309
       ...                                ...                  ...
        54                          0.6347873              17.2734
      -------------------------------------------------------------
                  HL-Gap            0.1568623 Eh            4.2684 eV
             Fermi-level           -0.3210417 Eh           -8.7360 eV

     #   Z          covCN         q      C6AA      α(0)
     1   8 O        1.655    -0.439    21.624     6.277
     2   6 C        3.676     0.085    19.386     6.308
     3   6 C        3.806    -0.076    21.944     6.669
     4   6 C        2.997     0.006    27.881     8.662
     5   6 C        2.928    -0.041    29.017     8.834
     6   6 C        2.917    -0.035    28.873     8.811
     7   6 C        2.922    -0.031    28.771     8.796
     8   6 C        2.959    -0.040    28.987     8.831
     9   6 C        2.892     0.089    26.020     8.363
    10  17 Cl       0.965    -0.186   104.989    15.676
    11   1 H        0.805     0.288     0.758     1.368
    12   1 H        0.923     0.025     2.663     2.552
    13   1 H        0.924     0.052     2.299     2.371
    14   1 H        0.925     0.056     2.250     2.346
    15   1 H        0.924     0.055     2.255     2.348
    16   1 H        0.926     0.049     2.330     2.387
    17   1 H        0.926     0.043     2.410     2.428
    18   1 H        0.926     0.045     2.381     2.413
    19   1 H        0.926     0.055     2.257     2.349

 Mol. C6AA /au·bohr⁶  :       4748.662629
 Mol. C8AA /au·bohr⁸  :     124354.670963
 Mol. α(0) /au        :        107.789820


Wiberg/Mayer (AO) data.
largest (>0.10) Wiberg bond orders for each atom

 ---------------------------------------------------------------------------
     #   Z sym  total        # sym  WBO       # sym  WBO       # sym  WBO
 ---------------------------------------------------------------------------
     1   8 O    1.967 --     2 C    1.006    11 H    0.898
     2   6 C    3.958 --     1 O    1.006     3 C    0.973    13 H    0.972
                            12 H    0.970
     3   6 C    3.995 --     4 C    1.018     2 C    0.973    15 H    0.972
                            14 H    0.966
     4   6 C    3.988 --     5 C    1.406     9 C    1.373     3 C    1.018
                             7 C    0.106
     5   6 C    3.990 --     6 C    1.441     4 C    1.406    16 H    0.967
                             8 C    0.108
     6   6 C    3.992 --     5 C    1.441     7 C    1.436    17 H    0.970
                             9 C    0.100
     7   6 C    3.991 --     8 C    1.437     6 C    1.436    18 H    0.970
                             4 C    0.106
     8   6 C    3.989 --     7 C    1.437     9 C    1.413    19 H    0.967
                             5 C    0.108
     9   6 C    3.913 --     8 C    1.413     4 C    1.373    10 Cl   0.965
                             6 C    0.100
    10  17 Cl   1.106 --     9 C    0.965
    11   1 H    0.917 --     1 O    0.898
    12   1 H    0.999 --     2 C    0.970
    13   1 H    0.996 --     2 C    0.972
    14   1 H    0.997 --     3 C    0.966
    15   1 H    0.997 --     3 C    0.972
    16   1 H    0.998 --     5 C    0.967
    17   1 H    0.997 --     6 C    0.970
    18   1 H    0.998 --     7 C    0.970
    19   1 H    0.997 --     8 C    0.967
 ---------------------------------------------------------------------------

Topologies differ in total number of bonds
Writing topology from bond orders to xtbtopo.mol

molecular dipole:
                 x           y           z       tot (Debye)
 q only:        0.709      -0.361       0.245
   full:        0.829      -0.100       0.034       2.125
molecular quadrupole (traceless):
                xx          xy          yy          xz          yz          zz
 q only:        1.463       0.416      -0.186       4.451       3.890      -1.277
  q+dip:        0.180       0.841       2.442       7.333       1.910      -2.622
   full:       -0.362      -0.377       1.391       6.518       2.749      -1.029

           -------------------------------------------------
          |                Geometry Summary                 |
           -------------------------------------------------

      molecular mass/u    :      156.6096964
   center of mass at/Å    :       -0.0179150       0.4051085      -0.3417294
  moments of inertia/u·Å² :        0.3766552E+03   0.4641598E+03   0.7546291E+03
rotational constants/cm⁻¹ :        0.4475613E-01   0.3631860E-01   0.2233896E-01

 * 18 selected distances

     #   Z          #   Z                                           value/Å
     1   8 O        2   6 C                                       1.4048670
     2   6 C        3   6 C                                       1.5397366
     4   6 C        5   6 C                                       1.3911649
     5   6 C        6   6 C                                       1.3836902
     6   6 C        7   6 C                                       1.3839170
     7   6 C        8   6 C                                       1.3837096
     4   6 C        9   6 C                                       1.3931717
     8   6 C        9   6 C                                       1.3850365
     9   6 C       10  17 Cl                                      1.7347587 (max)
     1   8 O       11   1 H                                       0.9648552 (min)
     2   6 C       12   1 H                                       1.0989982
     2   6 C       13   1 H                                       1.0921706
     3   6 C       14   1 H                                       1.0899775
     3   6 C       15   1 H                                       1.0909161
     5   6 C       16   1 H                                       1.0806252
     6   6 C       17   1 H                                       1.0794324
     7   6 C       18   1 H                                       1.0791415
     8   6 C       19   1 H                                       1.0788218

 * 5 distinct bonds (by element types)

   Z      Z             #   av. dist./Å        max./Å        min./Å
   1 H    6 C           8     1.0862604     1.0989982     1.0788218
   6 C    6 C           7     1.4086324     1.5397366     1.3836902
   1 H    8 O           1     0.9648552     0.9648552     0.9648552
   6 C    8 O           1     1.4048670     1.4048670     1.4048670
   6 C   17 Cl          1     1.7347587     1.7347587     1.7347587


optimized geometry written to: xtbopt.xyz


           -------------------------------------------------
          | TOTAL ENERGY              -30.326703440874 Eh   |
          | GRADIENT NORM               0.000200546675 Eh/α |
          | HOMO-LUMO GAP               4.268441428388 eV   |
           -------------------------------------------------

------------------------------------------------------------------------
 * finished run on 2026/07/08 at 06:31:15.054     
------------------------------------------------------------------------
 total:
 * wall-time:     0 d,  0 h,  0 min,  2.364 sec
 *  cpu-time:     0 d,  0 h,  0 min, 37.663 sec
 * ratio c/w:    15.929 speedup
 SCF:
 * wall-time:     0 d,  0 h,  0 min,  0.218 sec
 *  cpu-time:     0 d,  0 h,  0 min,  3.488 sec
 * ratio c/w:    16.009 speedup
 ANC optimizer:
 * wall-time:     0 d,  0 h,  0 min,  2.092 sec
 *  cpu-time:     0 d,  0 h,  0 min, 33.380 sec
 * ratio c/w:    15.954 speedup

