15
DEC_00074 MMFF geometry for GFN2-xTB preoptimization
C   2.156777176085  0.101212864792 -0.130529488518
N   0.707195205832  0.047969930540 -0.038429677677
C   0.067669775153 -1.142131779443 -0.342694267574
C  -1.264569153643 -1.251071050644 -0.275789812164
C  -2.059538599373 -0.117094852647  0.118600335353
C  -1.475324659758  1.049400604765  0.420000488609
C   0.006406489473  1.189829100919  0.351284127946
O   0.516134687098  2.270996488146  0.632999419932
H   2.585007842447 -0.638028105498  0.553935282503
H   2.545977239504  1.088468788312  0.132388509492
H   2.457737950175 -0.132262223015 -1.156815292904
H   0.691968152848 -1.980577719536 -0.637016669401
H  -1.766191139610 -2.183020677657 -0.513993430588
H  -3.137288567453 -0.230554541853  0.165235972233
H  -2.031962398777  1.926863172818  0.720824502759
