32
 energy: -43.531185097118 gnorm: 0.000072656835 xtb: 6.7.1 (edcfbbe)
C            4.14444610977995       -0.13608893503450        0.67012517107824
C            2.82388242387910        0.59045909572874        0.44071448337847
C            1.66175995803505       -0.39683677411912        0.49141679574201
O            1.82161419983419       -1.52924585942367        0.89448265280162
N            0.44871223479220        0.06003062386093        0.04751305516817
C           -0.65425962653933       -0.81908957189948       -0.07425486776850
C           -0.46274887010407       -2.12859699746962       -0.51079459446043
C           -1.53131785314891       -2.99197663233139       -0.64568972882646
C           -2.81558931800439       -2.55874876064146       -0.36300204587597
C           -3.01374903175386       -1.25313514311071        0.04031921569682
C           -1.95122731083323       -0.37048573273725        0.18854663552016
C           -2.24450963731720        1.05124249361430        0.58419024214250
C           -0.97137100179929        1.83785999374436        0.86433265911429
C            0.12568950446205        1.46748631165200       -0.13963730007218
C           -0.27012634203235        1.73504536307189       -1.59205739915399
H            4.31305718109408       -0.86835281755317       -0.11515825040750
H            4.11954471761011       -0.66337941508713        1.61959685339976
H            4.96970702287607        0.57202007759143        0.67627458615307
H            2.84040136628871        1.08998635790233       -0.52998739921719
H            2.68883793780999        1.34345101147049        1.22175508610843
H            0.53210207520874       -2.47189272288227       -0.73839616067888
H           -1.35942921129952       -4.00405671934638       -0.97958169450945
H           -3.65554184528258       -3.22945117996021       -0.46411138922172
H           -4.01341224193233       -0.89794705183555        0.24904692867335
H           -2.80641701545842        1.52895832967791       -0.22464245514026
H           -2.88944708471133        1.05887883880081        1.46594730899637
H           -0.60392730988765        1.59909336107971        1.86522344794114
H           -1.16694041589150        2.91048590586312        0.82315558069923
H            1.00541487912281        2.06896174082761        0.09152109608774
H           -1.08520965946399        1.08649863060687       -1.89986189489088
H            0.57737269551824        1.54766690951033       -2.24782221200163
H           -0.57731853085253        2.77115926842816       -1.70916440647738
