30
REP_00032 MMFF geometry for GFN2-xTB preoptimization
C   4.767635537557 -0.649789327618 -0.330333557199
C   3.292141346902 -0.426743780621 -0.526990192421
O   2.616902242077 -1.185270316631 -1.224549941006
C   2.699738297017  0.801609826151  0.158140816165
O   1.274650952908  0.818736608993  0.104012840200
C   0.678465222193 -0.065715835560  0.950540150657
O   1.275620657001 -0.748766755997  1.778226933697
C  -0.842208316894 -0.154025503205  0.723951796240
O  -1.428127467662 -0.919548909702  1.790771778493
C  -1.493447683657  1.235958412042  0.745222515072
C  -2.983623336495  1.180968292790  0.403760754187
C  -3.228547134510  0.467639734052 -0.922588829670
C  -2.609364705784 -0.926699011394 -0.935918831922
C  -1.118627447075 -0.886095918947 -0.596982351988
H   5.078424229184 -1.553213219604 -0.862270827583
H   4.979829791813 -0.777074834759  0.734034089130
H   5.322574916694  0.203909333202 -0.726835247891
H   3.050303197819  0.864915544992  1.194428684243
H   3.059491748127  1.687117545925 -0.375327340424
H  -0.783138916741 -1.618825050121  2.016408244620
H  -1.378614515842  1.687678251738  1.738560789617
H  -0.996982419514  1.906358101885  0.032788818266
H  -3.385214689182  2.199464617329  0.352943758132
H  -3.529298707385  0.665713823510  1.203534906926
H  -4.306105216209  0.393878456603 -1.107603869301
H  -2.803985189016  1.062785574261 -1.740475776573
H  -2.747852846551 -1.381041768936 -1.923617907384
H  -3.134860907600 -1.567125309891 -0.217086900052
H  -0.746320841231 -1.916824743466 -0.540201333641
H  -0.579457797945 -0.399973837019 -1.420051140385
