      -----------------------------------------------------------      
     |                   =====================                   |     
     |                           x T B                           |     
     |                   =====================                   |     
     |                         S. Grimme                         |     
     |          Mulliken Center for Theoretical Chemistry        |     
     |                    University of Bonn                     |     
      -----------------------------------------------------------      

   * xtb version 6.7.1 (edcfbbe) compiled by 'conda@5dfe00f5fb80' on 2026-06-10

   xtb is free software: you can redistribute it and/or modify it under
   the terms of the GNU Lesser General Public License as published by
   the Free Software Foundation, either version 3 of the License, or
   (at your option) any later version.
   
   xtb is distributed in the hope that it will be useful,
   but WITHOUT ANY WARRANTY; without even the implied warranty of
   MERCHANTABILITY or FITNESS FOR A PARTICULAR PURPOSE.  See the
   GNU Lesser General Public License for more details.
   
   Cite this work as:
   * C. Bannwarth, E. Caldeweyher, S. Ehlert, A. Hansen, P. Pracht,
     J. Seibert, S. Spicher, S. Grimme, WIREs Comput. Mol. Sci., 2020, 11,
     e01493. DOI: 10.1002/wcms.1493
   
   for GFN2-xTB:
   * C. Bannwarth, S. Ehlert and S. Grimme., J. Chem. Theory Comput., 2019,
     15, 1652-1671. DOI: 10.1021/acs.jctc.8b01176
   for GFN1-xTB:
   * S. Grimme, C. Bannwarth, P. Shushkov, J. Chem. Theory Comput., 2017,
     13, 1989-2009. DOI: 10.1021/acs.jctc.7b00118
   for GFN0-xTB:
   * P. Pracht, E. Caldeweyher, S. Ehlert, S. Grimme, ChemRxiv, 2019, preprint.
     DOI: 10.26434/chemrxiv.8326202.v1
   for GFN-FF:
   * S. Spicher and S. Grimme, Angew. Chem. Int. Ed., 2020, 59, 15665-15673.
     DOI: 10.1002/anie.202004239
   
   for ALPB and GBSA implicit solvation:
   * S. Ehlert, M. Stahn, S. Spicher, S. Grimme, J. Chem. Theory Comput.,
     2021, 17, 4250-4261. DOI: 10.1021/acs.jctc.1c00471
   
   for ddCOSMO and CPCM-X implicit solvation:
   * M. Stahn, S. Ehlert, S. Grimme, J. Phys. Chem. A,
     2023, XX, XXXX-XXXX. DOI: 10.1021/acs.jpca.3c04382
   
   for DFT-D4:
   * E. Caldeweyher, C. Bannwarth and S. Grimme, J. Chem. Phys., 2017,
     147, 034112. DOI: 10.1063/1.4993215
   * E. Caldeweyher, S. Ehlert, A. Hansen, H. Neugebauer, S. Spicher,
     C. Bannwarth and S. Grimme, J. Chem. Phys., 2019, 150, 154122.
     DOI: 10.1063/1.5090222
   * E. Caldeweyher, J.-M. Mewes, S. Ehlert and S. Grimme, Phys. Chem. Chem. Phys.
     2020, 22, 8499-8512. DOI: 10.1039/D0CP00502A
   
   for sTDA-xTB:
   * S. Grimme and C. Bannwarth, J. Chem. Phys., 2016, 145, 054103.
     DOI: 10.1063/1.4959605
   
   in the mass-spec context:
   * V. Asgeirsson, C. Bauer and S. Grimme, Chem. Sci., 2017, 8, 4879.
     DOI: 10.1039/c7sc00601b
   * J. Koopman and S. Grimme, ACS Omega 2019, 4, 12, 15120-15133.
     DOI: 10.1021/acsomega.9b02011
   
   for metadynamics refer to:
   * S. Grimme, J. Chem. Theory Comput., 2019, 155, 2847-2862
     DOI: 10.1021/acs.jctc.9b00143
   
   for SPH calculations refer to:
   * S. Spicher and S. Grimme, J. Chem. Theory Comput., 2021, 17, 1701-1714
     DOI: 10.1021/acs.jctc.0c01306
   
   for ONIOM refer to:
   * C. Plett, A. Katbashev, S. Ehlert, S. Grimme, M. Bursch,
     Phys. Chem. Chem. Phys., 2023, 25, 17860-17868. DOI: 10.1039/D3CP02178E
   
   for DIPRO refer to:
   * J. Kohn, N. Gildemeister, S. Grimme, D. Fazzi, A. Hansen,
     J. Chem. Phys., 2023, just accepted.
   
   for PTB refer to:
   * S. Grimme, M. Mueller, A. Hansen, J. Chem. Phys., 2023, 158, 124111.
     DOI: 10.1063/5.0137838
   
   with help from (in alphabetical order)
   P. Atkinson, C. Bannwarth, F. Bohle, G. Brandenburg, E. Caldeweyher
   M. Checinski, S. Dohm, S. Ehlert, S. Ehrlich, I. Gerasimov, C. Hölzer
   A. Katbashev, J. Kohn, J. Koopman, C. Lavigne, S. Lehtola, F. März, M. Müller,
   F. Musil, H. Neugebauer, J. Pisarek, C. Plett, P. Pracht, F. Pultar,
   J. Seibert, P. Shushkov, S. Spicher, M. Stahn, M. Steiner, T. Strunk,
   J. Stückrath, T. Rose, and J. Unsleber
   
 * started run on 2026/07/07 at 15:38:19.907     
   ID    Z sym.   atoms
    1    6 C      1, 2, 4, 6-11
    2    8 O      3, 5
    3    7 N      12
    4    1 H      13-23

           -------------------------------------------------
          |                Calculation Setup                |
           -------------------------------------------------

          program call               : /home/ws/xd2484/miniforge3/envs/p3z_dft/bin/xtb xtb_input.xyz --gfn 2 --opt tight --cycles 500 --chrg 0 --uhf 0
          hostname                   : gpu10
          coordinate file            : xtb_input.xyz
          omp threads                :                    16


           -------------------------------------------------
          |                 G F N 2 - x T B                 |
           -------------------------------------------------

        Reference                      10.1021/acs.jctc.8b01176
      * Hamiltonian:
        H0-scaling (s, p, d)           1.850000    2.230000    2.230000
        zeta-weighting                 0.500000
      * Dispersion:
        s8                             2.700000
        a1                             0.520000
        a2                             5.000000
        s9                             5.000000
      * Repulsion:
        kExp                           1.500000    1.000000
        rExp                           1.000000
      * Coulomb:
        alpha                          2.000000
        third order                    shell-resolved
        anisotropic                    true
        a3                             3.000000
        a5                             4.000000
        cn-shift                       1.200000
        cn-exp                         4.000000
        max-rad                        5.000000


          ...................................................
          :                      SETUP                      :
          :.................................................:
          :  # basis functions                  59          :
          :  # atomic orbitals                  59          :
          :  # shells                           35          :
          :  # electrons                        64          :
          :  max. iterations                   250          :
          :  Hamiltonian                  GFN2-xTB          :
          :  restarted?                      false          :
          :  GBSA solvation                  false          :
          :  PC potential                    false          :
          :  electronic temp.          300.0000000     K    :
          :  accuracy                    1.0000000          :
          :  -> integral cutoff          0.2500000E+02      :
          :  -> integral neglect         0.1000000E-07      :
          :  -> SCF convergence          0.1000000E-05 Eh   :
          :  -> wf. convergence          0.1000000E-03 e    :
          :  Broyden damping             0.4000000          :
          :  net charge                          0          :
          :  unpaired electrons                  0          :
          ...................................................

 iter      E             dE          RMSdq      gap      omega  full diag
   1    -36.3367875 -0.363368E+02  0.465E+00    2.53       0.0  T
   2    -36.3997955 -0.630080E-01  0.265E+00    2.85       1.0  T
   3    -36.4002380 -0.442519E-03  0.136E+00    2.96       1.0  T
   4    -36.4066440 -0.640598E-02  0.328E-01    2.81       1.0  T
   5    -36.4081591 -0.151506E-02  0.110E-01    2.84       1.0  T
   6    -36.4082799 -0.120867E-03  0.484E-02    2.84       1.0  T
   7    -36.4082887 -0.871833E-05  0.206E-02    2.84       1.0  T
   8    -36.4082899 -0.127171E-05  0.759E-03    2.84       2.7  T
   9    -36.4082905 -0.538740E-06  0.368E-03    2.84       5.7  T
  10    -36.4082906 -0.149239E-06  0.125E-03    2.84      16.6  T
  11    -36.4082906 -0.282481E-08  0.610E-04    2.84      34.2  T
  12    -36.4082906 -0.163172E-08  0.280E-04    2.84      74.5  T

   *** convergence criteria satisfied after 12 iterations ***

         #    Occupation            Energy/Eh            Energy/eV
      -------------------------------------------------------------
         1        2.0000           -0.7320559             -19.9203
       ...           ...                  ...                  ...
        26        2.0000           -0.4492561             -12.2249
        27        2.0000           -0.4392715             -11.9532
        28        2.0000           -0.4362926             -11.8721
        29        2.0000           -0.4308205             -11.7232
        30        2.0000           -0.4067097             -11.0671
        31        2.0000           -0.4021619             -10.9434
        32        2.0000           -0.3688838             -10.0378 (HOMO)
        33                         -0.2644945              -7.1973 (LUMO)
        34                         -0.2198191              -5.9816
        35                         -0.1893883              -5.1535
        36                         -0.0908678              -2.4726
        37                          0.0070530               0.1919
       ...                                ...                  ...
        59                          0.6544902              17.8096
      -------------------------------------------------------------
                  HL-Gap            0.1043892 Eh            2.8406 eV
             Fermi-level           -0.3166892 Eh           -8.6176 eV

 SCC (total)                   0 d,  0 h,  0 min,  0.202 sec
 SCC setup                      ...        0 min,  0.002 sec (  1.018%)
 Dispersion                     ...        0 min,  0.008 sec (  3.744%)
 classical contributions        ...        0 min,  0.004 sec (  1.842%)
 integral evaluation            ...        0 min,  0.013 sec (  6.533%)
 iterations                     ...        0 min,  0.140 sec ( 69.641%)
 molecular gradient             ...        0 min,  0.035 sec ( 17.128%)
 printout                       ...        0 min,  0.000 sec (  0.078%)

         :::::::::::::::::::::::::::::::::::::::::::::::::::::
         ::                     SUMMARY                     ::
         :::::::::::::::::::::::::::::::::::::::::::::::::::::
         :: total energy             -35.937960650749 Eh    ::
         :: gradient norm              0.059673424118 Eh/a0 ::
         :: HOMO-LUMO gap              2.840575527059 eV    ::
         ::.................................................::
         :: SCC energy               -36.408289726104 Eh    ::
         :: -> isotropic ES            0.054263423052 Eh    ::
         :: -> anisotropic ES          0.002055225273 Eh    ::
         :: -> anisotropic XC          0.013928990431 Eh    ::
         :: -> dispersion             -0.018661281853 Eh    ::
         :: repulsion energy           0.470329075354 Eh    ::
         :: add. restraining           0.000000000000 Eh    ::
         :: total charge               0.000000000000 e     ::
         :::::::::::::::::::::::::::::::::::::::::::::::::::::

      ----------------------------------------------------------- 
     |                   =====================                   |
     |                        A N C O P T                        |
     |                   =====================                   |
     |               Approximate Normal Coordinate               |
     |                Rational Function Optimizer                |
      ----------------------------------------------------------- 
      ----------------------------------------------------------- 
     |                   =====================                   |
     |                        A N C O P T                        |
     |                   =====================                   |
     |               Approximate Normal Coordinate               |
     |                Rational Function Optimizer                |
      ----------------------------------------------------------- 

          ...................................................
          :                      SETUP                      :
          :.................................................:
          :   optimization level             tight          :
          :   max. optcycles                   500          :
          :   ANC micro-cycles                  20          :
          :   degrees of freedom                63          :
          :.................................................:
          :   RF solver                   davidson          :
          :   write xtbopt.log                true          :
          :   linear?                        false          :
          :   energy convergence         0.1000000E-05 Eh   :
          :   grad. convergence          0.8000000E-03 Eh/α :
          :   maxmium RF displ.          1.0000000          :
          :   Hlow (freq-cutoff)         0.1000000E-01      :
          :   Hmax (freq-cutoff)         5.0000000          :
          :   S6 in model hess.         20.0000000          :
          ...................................................

generating ANC from exact Hessian ...
Using Lindh-Hessian (1995)
 Shifting diagonal of input Hessian by    8.8392656640142141E-003
 Lowest  eigenvalues of input Hessian
    0.000000    0.000000    0.000000    0.000000    0.000000    0.000000
    0.010000    0.010769    0.011283    0.014291    0.018437    0.018965
    0.021978    0.025849    0.027025    0.029019    0.029722    0.032550
 Highest eigenvalues
    1.657712    1.739461    1.840769    1.962896    1.973504    2.298473


........................................................................
.............................. CYCLE    1 ..............................
........................................................................

 iter      E             dE          RMSdq      gap      omega  full diag
   1    -36.4082906 -0.364083E+02  0.777E-05    2.84       0.0  T
   2    -36.4082906 -0.188223E-10  0.475E-05    2.84     439.4  T
   3    -36.4082906 -0.453326E-11  0.315E-05    2.84     662.3  T
     SCC iter.                  ...        0 min,  0.027 sec
     gradient                   ...        0 min,  0.029 sec
 * total energy  :   -35.9379607 Eh     change       -0.8233414E-09 Eh
   gradient norm :     0.0596742 Eh/α   predicted     0.0000000E+00 (-100.00%)
   displ. norm   :     0.1711025 α      lambda       -0.6311115E-02
   maximum displ.:     0.0637326 α      in ANC's #12, #39, #18, ...

........................................................................
.............................. CYCLE    2 ..............................
........................................................................

 iter      E             dE          RMSdq      gap      omega  full diag
   1    -36.4368710 -0.364369E+02  0.203E-01    2.90       0.0  T
   2    -36.4369638 -0.928034E-04  0.120E-01    2.92       1.0  T
   3    -36.4369662 -0.243926E-05  0.674E-02    2.92       1.0  T
   4    -36.4369971 -0.308805E-04  0.110E-02    2.92       1.9  T
   5    -36.4369989 -0.183784E-05  0.382E-03    2.92       5.5  T
   6    -36.4369990 -0.381473E-07  0.202E-03    2.92      10.3  T
   7    -36.4369990 -0.182074E-07  0.691E-04    2.92      30.2  T
   8    -36.4369990 -0.316984E-08  0.328E-04    2.92      63.5  T
     SCC iter.                  ...        0 min,  0.140 sec
     gradient                   ...        0 min,  0.034 sec
 * total energy  :   -35.9421902 Eh     change       -0.4229575E-02 Eh
   gradient norm :     0.0273451 Eh/α   predicted    -0.3247960E-02 ( -23.21%)
   displ. norm   :     0.1354947 α      lambda       -0.1774637E-02
   maximum displ.:     0.0500676 α      in ANC's #1, #8, #19, ...

........................................................................
.............................. CYCLE    3 ..............................
........................................................................

 iter      E             dE          RMSdq      gap      omega  full diag
   1    -36.4492137 -0.364492E+02  0.150E-01    2.89       0.0  T
   2    -36.4493191 -0.105437E-03  0.821E-02    2.93       1.0  T
   3    -36.4493401 -0.209487E-04  0.490E-02    2.93       1.0  T
   4    -36.4493503 -0.102150E-04  0.119E-02    2.94       1.8  T
   5    -36.4493516 -0.124496E-05  0.359E-03    2.94       5.8  T
   6    -36.4493516 -0.537487E-07  0.185E-03    2.94      11.3  T
   7    -36.4493516 -0.196456E-07  0.652E-04    2.94      32.0  T
   8    -36.4493516 -0.274579E-08  0.312E-04    2.94      66.8  T
     SCC iter.                  ...        0 min,  0.104 sec
     gradient                   ...        0 min,  0.041 sec
 * total energy  :   -35.9432823 Eh     change       -0.1092121E-02 Eh
   gradient norm :     0.0113318 Eh/α   predicted    -0.9038113E-03 ( -17.24%)
   displ. norm   :     0.1220223 α      lambda       -0.5022464E-03
   maximum displ.:     0.0642119 α      in ANC's #1, #8, #9, ...

........................................................................
.............................. CYCLE    4 ..............................
........................................................................

 iter      E             dE          RMSdq      gap      omega  full diag
   1    -36.4501494 -0.364501E+02  0.983E-02    2.89       0.0  T
   2    -36.4501871 -0.376942E-04  0.514E-02    2.92       1.0  T
   3    -36.4501929 -0.577138E-05  0.324E-02    2.91       1.0  T
   4    -36.4501991 -0.622105E-05  0.654E-03    2.92       3.2  T
   5    -36.4501994 -0.306796E-06  0.236E-03    2.92       8.9  T
   6    -36.4501994 -0.199314E-07  0.118E-03    2.92      17.7  T
   7    -36.4501994 -0.120502E-07  0.383E-04    2.92      54.4  T
   8    -36.4501994 -0.937895E-09  0.177E-04    2.92     118.1  T
     SCC iter.                  ...        0 min,  0.109 sec
     gradient                   ...        0 min,  0.039 sec
 * total energy  :   -35.9436698 Eh     change       -0.3874289E-03 Eh
   gradient norm :     0.0080154 Eh/α   predicted    -0.2548651E-03 ( -34.22%)
   displ. norm   :     0.2428022 α      lambda       -0.6272031E-03
   maximum displ.:     0.1461846 α      in ANC's #1, #8, #6, ...

........................................................................
.............................. CYCLE    5 ..............................
........................................................................

 iter      E             dE          RMSdq      gap      omega  full diag
   1    -36.4479191 -0.364479E+02  0.159E-01    2.83       0.0  T
   2    -36.4479932 -0.740807E-04  0.858E-02    2.87       1.0  T
   3    -36.4479997 -0.651721E-05  0.528E-02    2.87       1.0  T
   4    -36.4480203 -0.206010E-04  0.911E-03    2.87       2.3  T
   5    -36.4480210 -0.677678E-06  0.388E-03    2.87       5.4  T
   6    -36.4480210 -0.698566E-07  0.195E-03    2.87      10.7  T
   7    -36.4480211 -0.307229E-07  0.667E-04    2.87      31.3  T
   8    -36.4480211 -0.271851E-08  0.293E-04    2.87      71.3  T
     SCC iter.                  ...        0 min,  0.099 sec
     gradient                   ...        0 min,  0.036 sec
 * total energy  :   -35.9440965 Eh     change       -0.4267534E-03 Eh
   gradient norm :     0.0110821 Eh/α   predicted    -0.3320959E-03 ( -22.18%)
   displ. norm   :     0.2099181 α      lambda       -0.3188620E-03
   maximum displ.:     0.1378604 α      in ANC's #1, #6, #8, ...

........................................................................
.............................. CYCLE    6 ..............................
........................................................................

 iter      E             dE          RMSdq      gap      omega  full diag
   1    -36.4463096 -0.364463E+02  0.117E-01    2.82       0.0  T
   2    -36.4463315 -0.219765E-04  0.667E-02    2.84       1.0  T
   3    -36.4463259  0.562185E-05  0.365E-02    2.84       1.0  T
   4    -36.4463408 -0.148796E-04  0.550E-03    2.84       3.8  T
   5    -36.4463411 -0.267784E-06  0.280E-03    2.84       7.5  T
   6    -36.4463411 -0.386589E-07  0.133E-03    2.84      15.7  T
   7    -36.4463411 -0.122886E-07  0.492E-04    2.84      42.3  T
   8    -36.4463411 -0.129732E-08  0.211E-04    2.84      98.7  T
     SCC iter.                  ...        0 min,  0.107 sec
     gradient                   ...        0 min,  0.041 sec
 * total energy  :   -35.9443182 Eh     change       -0.2216857E-03 Eh
   gradient norm :     0.0122280 Eh/α   predicted    -0.1664589E-03 ( -24.91%)
   displ. norm   :     0.1822199 α      lambda       -0.2268782E-03
   maximum displ.:     0.1269581 α      in ANC's #1, #6, #8, ...

........................................................................
.............................. CYCLE    7 ..............................
........................................................................

 iter      E             dE          RMSdq      gap      omega  full diag
   1    -36.4467465 -0.364467E+02  0.900E-02    2.83       0.0  T
   2    -36.4467548 -0.832676E-05  0.527E-02    2.83       1.0  T
   3    -36.4467501  0.465998E-05  0.221E-02    2.83       1.0  T
   4    -36.4467574 -0.726522E-05  0.394E-03    2.83       5.3  T
   5    -36.4467576 -0.207310E-06  0.192E-03    2.83      10.8  T
   6    -36.4467576 -0.104241E-07  0.950E-04    2.83      22.0  T
   7    -36.4467576 -0.683035E-08  0.300E-04    2.83      69.6  T
     SCC iter.                  ...        0 min,  0.099 sec
     gradient                   ...        0 min,  0.040 sec
 * total energy  :   -35.9444801 Eh     change       -0.1618401E-03 Eh
   gradient norm :     0.0088128 Eh/α   predicted    -0.1172074E-03 ( -27.58%)
   displ. norm   :     0.1699966 α      lambda       -0.1724143E-03
   maximum displ.:     0.1175343 α      in ANC's #1, #6, #8, ...

........................................................................
.............................. CYCLE    8 ..............................
........................................................................

 iter      E             dE          RMSdq      gap      omega  full diag
   1    -36.4482373 -0.364482E+02  0.853E-02    2.83       0.0  T
   2    -36.4482393 -0.201168E-05  0.499E-02    2.83       1.0  T
   3    -36.4482379  0.143320E-05  0.106E-02    2.83       2.0  T
   4    -36.4482402 -0.226991E-05  0.257E-03    2.83       8.1  T
   5    -36.4482402 -0.192626E-07  0.141E-03    2.83      14.7  T
   6    -36.4482402 -0.753712E-08  0.480E-04    2.83      43.4  T
   7    -36.4482402 -0.234090E-08  0.186E-04    2.83     111.9  T
     SCC iter.                  ...        0 min,  0.110 sec
     gradient                   ...        0 min,  0.047 sec
 * total energy  :   -35.9445968 Eh     change       -0.1167387E-03 Eh
   gradient norm :     0.0051944 Eh/α   predicted    -0.8869978E-04 ( -24.02%)
   displ. norm   :     0.1400185 α      lambda       -0.8731980E-04
   maximum displ.:     0.1017824 α      in ANC's #1, #6, #8, ...

........................................................................
.............................. CYCLE    9 ..............................
........................................................................

 iter      E             dE          RMSdq      gap      omega  full diag
   1    -36.4495728 -0.364496E+02  0.663E-02    2.84       0.0  T
   2    -36.4495748 -0.206259E-05  0.387E-02    2.83       1.0  T
   3    -36.4495737  0.114631E-05  0.992E-03    2.83       2.1  T
   4    -36.4495755 -0.178794E-05  0.222E-03    2.83       9.4  T
   5    -36.4495755 -0.300921E-07  0.124E-03    2.83      16.8  T
   6    -36.4495755 -0.450990E-08  0.423E-04    2.83      49.3  T
   7    -36.4495755 -0.128375E-08  0.154E-04    2.83     135.6  T
     SCC iter.                  ...        0 min,  0.108 sec
     gradient                   ...        0 min,  0.041 sec
 * total energy  :   -35.9446548 Eh     change       -0.5797162E-04 Eh
   gradient norm :     0.0038416 Eh/α   predicted    -0.4451721E-04 ( -23.21%)
   displ. norm   :     0.1506574 α      lambda       -0.5381732E-04
   maximum displ.:     0.1047270 α      in ANC's #1, #6, #8, ...

........................................................................
.............................. CYCLE   10 ..............................
........................................................................

 iter      E             dE          RMSdq      gap      omega  full diag
   1    -36.4495676 -0.364496E+02  0.734E-02    2.82       0.0  T
   2    -36.4495699 -0.228609E-05  0.428E-02    2.83       1.0  T
   3    -36.4495690  0.880999E-06  0.992E-03    2.83       2.1  T
   4    -36.4495706 -0.157107E-05  0.259E-03    2.83       8.0  T
   5    -36.4495706 -0.382958E-07  0.132E-03    2.83      15.7  T
   6    -36.4495706 -0.142191E-08  0.470E-04    2.83      44.4  T
   7    -36.4495706 -0.226505E-08  0.168E-04    2.83     124.3  T
     SCC iter.                  ...        0 min,  0.104 sec
     gradient                   ...        0 min,  0.041 sec
 * total energy  :   -35.9446859 Eh     change       -0.3115168E-04 Eh
   gradient norm :     0.0033583 Eh/α   predicted    -0.2752512E-04 ( -11.64%)
   displ. norm   :     0.0829022 α      lambda       -0.4047252E-04
   maximum displ.:     0.0632668 α      in ANC's #1, #6, #7, ...

........................................................................
.............................. CYCLE   11 ..............................
........................................................................

 iter      E             dE          RMSdq      gap      omega  full diag
   1    -36.4509770 -0.364510E+02  0.370E-02    2.84       0.0  T
   2    -36.4509781 -0.109102E-05  0.221E-02    2.84       1.0  T
   3    -36.4509775  0.583682E-06  0.699E-03    2.84       3.0  T
   4    -36.4509784 -0.894677E-06  0.148E-03    2.84      14.1  T
   5    -36.4509784 -0.167293E-07  0.852E-04    2.84      24.5  T
   6    -36.4509784 -0.432657E-08  0.295E-04    2.84      70.6  T
     SCC iter.                  ...        0 min,  0.079 sec
     gradient                   ...        0 min,  0.038 sec
 * total energy  :   -35.9447065 Eh     change       -0.2055773E-04 Eh
   gradient norm :     0.0034184 Eh/α   predicted    -0.2037734E-04 (  -0.88%)
   displ. norm   :     0.0876700 α      lambda       -0.2103787E-04
   maximum displ.:     0.0629306 α      in ANC's #1, #6, #4, ...

........................................................................
.............................. CYCLE   12 ..............................
........................................................................

 iter      E             dE          RMSdq      gap      omega  full diag
   1    -36.4503820 -0.364504E+02  0.418E-02    2.83       0.0  T
   2    -36.4503832 -0.126955E-05  0.241E-02    2.83       1.0  T
   3    -36.4503823  0.915864E-06  0.949E-03    2.83       2.2  T
   4    -36.4503837 -0.139963E-05  0.168E-03    2.83      12.4  T
   5    -36.4503837 -0.198767E-07  0.889E-04    2.83      23.5  T
   6    -36.4503837 -0.160172E-08  0.426E-04    2.83      49.0  T
     SCC iter.                  ...        0 min,  0.127 sec
     gradient                   ...        0 min,  0.040 sec
 * total energy  :   -35.9447190 Eh     change       -0.1252462E-04 Eh
   gradient norm :     0.0020355 Eh/α   predicted    -0.1060068E-04 ( -15.36%)
   displ. norm   :     0.0382059 α      lambda       -0.1172507E-04
   maximum displ.:     0.0247264 α      in ANC's #1, #2, #7, ...

........................................................................
.............................. CYCLE   13 ..............................
........................................................................

 iter      E             dE          RMSdq      gap      omega  full diag
   1    -36.4504820 -0.364505E+02  0.151E-02    2.83       0.0  T
   2    -36.4504821 -0.928575E-07  0.899E-03    2.83       2.3  T
   3    -36.4504820  0.118834E-06  0.256E-03    2.83       8.1  T
   4    -36.4504822 -0.159632E-06  0.568E-04    2.83      36.7  T
   5    -36.4504822 -0.161969E-08  0.295E-04    2.83      70.6  T
     SCC iter.                  ...        0 min,  0.069 sec
     gradient                   ...        0 min,  0.040 sec
 * total energy  :   -35.9447266 Eh     change       -0.7626438E-05 Eh
   gradient norm :     0.0008968 Eh/α   predicted    -0.5881717E-05 ( -22.88%)
   displ. norm   :     0.0820107 α      lambda       -0.1000430E-04
   maximum displ.:     0.0557115 α      in ANC's #1, #7, #2, ...

........................................................................
.............................. CYCLE   14 ..............................
........................................................................

 iter      E             dE          RMSdq      gap      omega  full diag
   1    -36.4501332 -0.364501E+02  0.294E-02    2.83       0.0  T
   2    -36.4501335 -0.346327E-06  0.173E-02    2.83       1.2  T
   3    -36.4501333  0.236170E-06  0.397E-03    2.83       5.2  T
   4    -36.4501336 -0.357119E-06  0.111E-03    2.83      18.8  T
   5    -36.4501336 -0.943609E-08  0.574E-04    2.83      36.3  T
   6    -36.4501336 -0.390429E-09  0.238E-04    2.83      87.5  T
     SCC iter.                  ...        0 min,  0.087 sec
     gradient                   ...        0 min,  0.041 sec
 * total energy  :   -35.9447293 Eh     change       -0.2693234E-05 Eh
   gradient norm :     0.0025872 Eh/α   predicted    -0.5020983E-05 (  86.43%)
   displ. norm   :     0.0329508 α      lambda       -0.9378035E-05
   maximum displ.:     0.0158124 α      in ANC's #1, #6, #2, ...

........................................................................
.............................. CYCLE   15 ..............................
........................................................................

 iter      E             dE          RMSdq      gap      omega  full diag
   1    -36.4505283 -0.364505E+02  0.159E-02    2.84       0.0  T
   2    -36.4505285 -0.220586E-06  0.937E-03    2.84       2.2  T
   3    -36.4505284  0.834412E-07  0.286E-03    2.84       7.3  T
   4    -36.4505286 -0.135644E-06  0.655E-04    2.84      31.9  T
   5    -36.4505286 -0.282905E-08  0.351E-04    2.84      59.4  T
     SCC iter.                  ...        0 min,  0.077 sec
     gradient                   ...        0 min,  0.048 sec
 * total energy  :   -35.9447340 Eh     change       -0.4666170E-05 Eh
   gradient norm :     0.0011486 Eh/α   predicted    -0.4695000E-05 (   0.62%)
   displ. norm   :     0.0185601 α      lambda       -0.4116433E-05
   maximum displ.:     0.0104907 α      in ANC's #7, #4, #11, ...

........................................................................
.............................. CYCLE   16 ..............................
........................................................................

 iter      E             dE          RMSdq      gap      omega  full diag
   1    -36.4504276 -0.364504E+02  0.104E-02    2.83       0.0  T
   2    -36.4504278 -0.128105E-06  0.601E-03    2.83       3.5  T
   3    -36.4504277  0.273181E-07  0.223E-03    2.83       9.4  T
   4    -36.4504278 -0.476214E-07  0.545E-04    2.83      38.3  T
   5    -36.4504278 -0.483084E-08  0.220E-04    2.83      95.0  T
     SCC iter.                  ...        0 min,  0.081 sec
     gradient                   ...        0 min,  0.046 sec
 * total energy  :   -35.9447369 Eh     change       -0.2888809E-05 Eh
   gradient norm :     0.0009223 Eh/α   predicted    -0.2059758E-05 ( -28.70%)
   displ. norm   :     0.0179721 α      lambda       -0.1743141E-05
   maximum displ.:     0.0123064 α      in ANC's #2, #1, #8, ...

........................................................................
.............................. CYCLE   17 ..............................
........................................................................

 iter      E             dE          RMSdq      gap      omega  full diag
   1    -36.4504081 -0.364504E+02  0.498E-03    2.83       0.0  T
   2    -36.4504081 -0.973625E-08  0.290E-03    2.83       7.2  T
   3    -36.4504081  0.221169E-08  0.559E-04    2.83      37.3  T
   4    -36.4504081 -0.497016E-08  0.162E-04    2.83     128.6  T
     SCC iter.                  ...        0 min,  0.057 sec
     gradient                   ...        0 min,  0.042 sec
 * total energy  :   -35.9447390 Eh     change       -0.2159414E-05 Eh
   gradient norm :     0.0005214 Eh/α   predicted    -0.8734180E-06 ( -59.55%)
   displ. norm   :     0.0676202 α      lambda       -0.4742635E-05
   maximum displ.:     0.0473747 α      in ANC's #2, #1, #6, ...

........................................................................
.............................. CYCLE   18 ..............................
........................................................................

 iter      E             dE          RMSdq      gap      omega  full diag
   1    -36.4503215 -0.364503E+02  0.204E-02    2.84       0.0  T
   2    -36.4503216 -0.144371E-06  0.118E-02    2.84       1.8  T
   3    -36.4503216 -0.964511E-08  0.185E-03    2.84      11.3  T
   4    -36.4503217 -0.470035E-07  0.758E-04    2.84      27.5  T
   5    -36.4503217 -0.179504E-08  0.319E-04    2.84      65.4  T
     SCC iter.                  ...        0 min,  0.092 sec
     gradient                   ...        0 min,  0.037 sec
 * total energy  :   -35.9447443 Eh     change       -0.5276215E-05 Eh
   gradient norm :     0.0007732 Eh/α   predicted    -0.2379762E-05 ( -54.90%)
   displ. norm   :     0.0811427 α      lambda       -0.4457716E-05
   maximum displ.:     0.0553234 α      in ANC's #2, #1, #3, ...

........................................................................
.............................. CYCLE   19 ..............................
........................................................................

 iter      E             dE          RMSdq      gap      omega  full diag
   1    -36.4501222 -0.364501E+02  0.230E-02    2.84       0.0  T
   2    -36.4501224 -0.176297E-06  0.133E-02    2.84       1.6  T
   3    -36.4501223  0.496082E-08  0.230E-03    2.84       9.0  T
   4    -36.4501224 -0.828244E-07  0.865E-04    2.84      24.1  T
   5    -36.4501224 -0.925219E-09  0.311E-04    2.84      67.1  T
     SCC iter.                  ...        0 min,  0.076 sec
     gradient                   ...        0 min,  0.044 sec
 * total energy  :   -35.9447496 Eh     change       -0.5324361E-05 Eh
   gradient norm :     0.0011512 Eh/α   predicted    -0.2239706E-05 ( -57.93%)
   displ. norm   :     0.1151566 α      lambda       -0.6462596E-05
   maximum displ.:     0.0725398 α      in ANC's #2, #1, #3, ...

........................................................................
.............................. CYCLE   20 ..............................
........................................................................

 iter      E             dE          RMSdq      gap      omega  full diag
   1    -36.4498661 -0.364499E+02  0.330E-02    2.84       0.0  T
   2    -36.4498666 -0.501497E-06  0.191E-02    2.84       1.1  T
   3    -36.4498663  0.317924E-06  0.550E-03    2.84       3.8  T
   4    -36.4498668 -0.530675E-06  0.126E-03    2.84      16.5  T
   5    -36.4498668 -0.362088E-08  0.624E-04    2.84      33.4  T
   6    -36.4498668 -0.136696E-08  0.199E-04    2.84     104.9  T
     SCC iter.                  ...        0 min,  0.079 sec
     gradient                   ...        0 min,  0.042 sec
 * total energy  :   -35.9447571 Eh     change       -0.7488525E-05 Eh
   gradient norm :     0.0016224 Eh/α   predicted    -0.3254763E-05 ( -56.54%)
   displ. norm   :     0.0908526 α      lambda       -0.7162668E-05
   maximum displ.:     0.0595623 α      in ANC's #1, #2, #3, ...
 * RMSD in coord.:     0.3317384 α      energy gain  -0.6796472E-02 Eh

generating ANC from exact Hessian ...
Using Lindh-Hessian (1995)
 Shifting diagonal of input Hessian by    8.7126410751672476E-003
 Lowest  eigenvalues of input Hessian
    0.000000    0.000000    0.000000    0.000000    0.000000    0.000000
    0.010000    0.010721    0.011578    0.014584    0.019227    0.020233
    0.022326    0.027071    0.028951    0.030408    0.030682    0.034045
 Highest eigenvalues
    1.816921    1.871767    1.919639    2.073389    2.138579    2.352930


........................................................................
.............................. CYCLE   21 ..............................
........................................................................

 iter      E             dE          RMSdq      gap      omega  full diag
   1    -36.4499318 -0.364499E+02  0.272E-02    2.84       0.0  T
   2    -36.4499322 -0.353466E-06  0.158E-02    2.84       1.3  T
   3    -36.4499318  0.361481E-06  0.531E-03    2.84       3.9  T
   4    -36.4499323 -0.506566E-06  0.894E-04    2.84      23.3  T
   5    -36.4499323 -0.426773E-08  0.477E-04    2.84      43.7  T
     SCC iter.                  ...        0 min,  0.070 sec
     gradient                   ...        0 min,  0.040 sec
 * total energy  :   -35.9447660 Eh     change       -0.8888030E-05 Eh
   gradient norm :     0.0011285 Eh/α   predicted     0.0000000E+00 (-100.00%)
   displ. norm   :     0.0222301 α      lambda       -0.3148775E-05
   maximum displ.:     0.0180297 α      in ANC's #1, #4, #2, ...

........................................................................
.............................. CYCLE   22 ..............................
........................................................................

 iter      E             dE          RMSdq      gap      omega  full diag
   1    -36.4502683 -0.364503E+02  0.110E-02    2.84       0.0  T
   2    -36.4502684 -0.508571E-07  0.641E-03    2.84       3.3  T
   3    -36.4502684  0.446340E-07  0.185E-03    2.84      11.3  T
   4    -36.4502684 -0.565853E-07  0.305E-04    2.84      68.4  T
   5    -36.4502684 -0.156568E-08  0.114E-04    2.84     183.6  T
     SCC iter.                  ...        0 min,  0.121 sec
     gradient                   ...        0 min,  0.034 sec
 * total energy  :   -35.9447698 Eh     change       -0.3795621E-05 Eh
   gradient norm :     0.0005269 Eh/α   predicted    -0.2121617E-05 ( -44.10%)
   displ. norm   :     0.0268133 α      lambda       -0.2959382E-05
   maximum displ.:     0.0200531 α      in ANC's #1, #4, #2, ...

........................................................................
.............................. CYCLE   23 ..............................
........................................................................

 iter      E             dE          RMSdq      gap      omega  full diag
   1    -36.4504117 -0.364504E+02  0.129E-02    2.84       0.0  T
   2    -36.4504117 -0.425067E-07  0.753E-03    2.84       2.8  T
   3    -36.4504117  0.431838E-07  0.163E-03    2.84      12.8  T
   4    -36.4504117 -0.530377E-07  0.279E-04    2.84      74.7  T
   5    -36.4504117 -0.143361E-08  0.101E-04    2.84     207.3  T
     SCC iter.                  ...        0 min,  0.051 sec
     gradient                   ...        0 min,  0.038 sec
 * total energy  :   -35.9447727 Eh     change       -0.2918491E-05 Eh
   gradient norm :     0.0006629 Eh/α   predicted    -0.1490468E-05 ( -48.93%)
   displ. norm   :     0.0274701 α      lambda       -0.2036311E-05
   maximum displ.:     0.0234578 α      in ANC's #1, #4, #2, ...

........................................................................
.............................. CYCLE   24 ..............................
........................................................................

 iter      E             dE          RMSdq      gap      omega  full diag
   1    -36.4502381 -0.364502E+02  0.122E-02    2.84       0.0  T
   2    -36.4502381 -0.101098E-07  0.717E-03    2.84       2.9  T
   3    -36.4502381  0.186927E-08  0.486E-04    2.84      42.9  T
   4    -36.4502381 -0.479756E-08  0.134E-04    2.84     156.1  T
     SCC iter.                  ...        0 min,  0.049 sec
     gradient                   ...        0 min,  0.033 sec
 * total energy  :   -35.9447751 Eh     change       -0.2367093E-05 Eh
   gradient norm :     0.0004711 Eh/α   predicted    -0.1021539E-05 ( -56.84%)
   displ. norm   :     0.0193526 α      lambda       -0.1287929E-05
   maximum displ.:     0.0180305 α      in ANC's #1, #4, #6, ...

........................................................................
.............................. CYCLE   25 ..............................
........................................................................

 iter      E             dE          RMSdq      gap      omega  full diag
   1    -36.4501413 -0.364501E+02  0.784E-03    2.84       0.0  T
   2    -36.4501413 -0.592043E-08  0.460E-03    2.84       4.5  T
   3    -36.4501413  0.296384E-08  0.508E-04    2.84      41.1  T
   4    -36.4501413 -0.475941E-08  0.123E-04    2.84     169.6  T
     SCC iter.                  ...        0 min,  0.054 sec
     gradient                   ...        0 min,  0.040 sec
 * total energy  :   -35.9447767 Eh     change       -0.1644413E-05 Eh
   gradient norm :     0.0002513 Eh/α   predicted    -0.6451009E-06 ( -60.77%)
   displ. norm   :     0.0169861 α      lambda       -0.1047708E-05
   maximum displ.:     0.0161058 α      in ANC's #1, #6, #5, ...

........................................................................
.............................. CYCLE   26 ..............................
........................................................................

 iter      E             dE          RMSdq      gap      omega  full diag
   1    -36.4501310 -0.364501E+02  0.618E-03    2.84       0.0  T
   2    -36.4501310 -0.595621E-08  0.361E-03    2.84       5.8  T
   3    -36.4501310  0.155310E-08  0.414E-04    2.84      50.4  T
   4    -36.4501310 -0.313978E-08  0.126E-04    2.84     165.8  T
     SCC iter.                  ...        0 min,  0.054 sec
     gradient                   ...        0 min,  0.035 sec
 * total energy  :   -35.9447781 Eh     change       -0.1405496E-05 Eh
   gradient norm :     0.0002290 Eh/α   predicted    -0.5270875E-06 ( -62.50%)
   displ. norm   :     0.0174087 α      lambda       -0.9715599E-06
   maximum displ.:     0.0161016 α      in ANC's #1, #6, #2, ...

........................................................................
.............................. CYCLE   27 ..............................
........................................................................

 iter      E             dE          RMSdq      gap      omega  full diag
   1    -36.4501239 -0.364501E+02  0.582E-03    2.84       0.0  T
   2    -36.4501239 -0.501939E-08  0.340E-03    2.84       6.1  T
   3    -36.4501239  0.391871E-09  0.382E-04    2.84      54.6  T
   4    -36.4501239 -0.236025E-08  0.128E-04    2.84     163.4  T
     SCC iter.                  ...        0 min,  0.049 sec
     gradient                   ...        0 min,  0.036 sec
 * total energy  :   -35.9447795 Eh     change       -0.1329674E-05 Eh
   gradient norm :     0.0002497 Eh/α   predicted    -0.4861913E-06 ( -63.44%)
   displ. norm   :     0.0188578 α      lambda       -0.9385904E-06
   maximum displ.:     0.0170780 α      in ANC's #1, #2, #5, ...

........................................................................
.............................. CYCLE   28 ..............................
........................................................................

 iter      E             dE          RMSdq      gap      omega  full diag
   1    -36.4501460 -0.364501E+02  0.598E-03    2.84       0.0  T
   2    -36.4501460 -0.873285E-08  0.348E-03    2.84       6.0  T
   3    -36.4501460  0.689294E-08  0.762E-04    2.84      27.4  T
   4    -36.4501460 -0.104204E-07  0.150E-04    2.84     138.9  T
     SCC iter.                  ...        0 min,  0.058 sec
     gradient                   ...        0 min,  0.037 sec
 * total energy  :   -35.9447808 Eh     change       -0.1307954E-05 Eh
   gradient norm :     0.0002076 Eh/α   predicted    -0.4728359E-06 ( -63.85%)
   displ. norm   :     0.0204392 α      lambda       -0.9220124E-06
   maximum displ.:     0.0180622 α      in ANC's #1, #2, #8, ...

........................................................................
.............................. CYCLE   29 ..............................
........................................................................

 iter      E             dE          RMSdq      gap      omega  full diag
   1    -36.4501490 -0.364501E+02  0.638E-03    2.84       0.0  T
   2    -36.4501490 -0.123278E-07  0.371E-03    2.84       5.6  T
   3    -36.4501490  0.129531E-07  0.100E-03    2.84      20.9  T
   4    -36.4501490 -0.179431E-07  0.168E-04    2.84     123.9  T
     SCC iter.                  ...        0 min,  0.053 sec
     gradient                   ...        0 min,  0.036 sec
 * total energy  :   -35.9447821 Eh     change       -0.1292166E-05 Eh
   gradient norm :     0.0001471 Eh/α   predicted    -0.4634757E-06 ( -64.13%)
   displ. norm   :     0.0222498 α      lambda       -0.9256853E-06
   maximum displ.:     0.0191023 α      in ANC's #1, #2, #8, ...

........................................................................
.............................. CYCLE   30 ..............................
........................................................................

 iter      E             dE          RMSdq      gap      omega  full diag
   1    -36.4501503 -0.364502E+02  0.670E-03    2.84       0.0  T
   2    -36.4501503 -0.137877E-07  0.391E-03    2.84       5.3  T
   3    -36.4501503  0.164913E-07  0.109E-03    2.84      19.1  T
   4    -36.4501503 -0.220308E-07  0.172E-04    2.84     120.9  T
   5    -36.4501503 -0.162728E-09  0.898E-05    2.84     232.1  T
     SCC iter.                  ...        0 min,  0.066 sec
     gradient                   ...        0 min,  0.037 sec
 * total energy  :   -35.9447834 Eh     change       -0.1315870E-05 Eh
   gradient norm :     0.0001236 Eh/α   predicted    -0.4665151E-06 ( -64.55%)
   displ. norm   :     0.0258991 α      lambda       -0.1022360E-05
   maximum displ.:     0.0215805 α      in ANC's #1, #2, #3, ...

........................................................................
.............................. CYCLE   31 ..............................
........................................................................

 iter      E             dE          RMSdq      gap      omega  full diag
   1    -36.4501385 -0.364501E+02  0.751E-03    2.84       0.0  T
   2    -36.4501385 -0.146312E-07  0.439E-03    2.84       4.7  T
   3    -36.4501385  0.177290E-07  0.111E-03    2.84      18.7  T
   4    -36.4501385 -0.234786E-07  0.180E-04    2.84     116.0  T
   5    -36.4501385 -0.167383E-09  0.917E-05    2.84     227.4  T
     SCC iter.                  ...        0 min,  0.053 sec
     gradient                   ...        0 min,  0.030 sec
 * total energy  :   -35.9447848 Eh     change       -0.1460543E-05 Eh
   gradient norm :     0.0001407 Eh/α   predicted    -0.5116096E-06 ( -64.97%)
   displ. norm   :     0.0313844 α      lambda       -0.1193364E-05
   maximum displ.:     0.0254137 α      in ANC's #1, #2, #6, ...

........................................................................
.............................. CYCLE   32 ..............................
........................................................................

 iter      E             dE          RMSdq      gap      omega  full diag
   1    -36.4501145 -0.364501E+02  0.867E-03    2.84       0.0  T
   2    -36.4501146 -0.142199E-07  0.508E-03    2.84       4.1  T
   3    -36.4501145  0.184656E-07  0.109E-03    2.84      19.1  T
   4    -36.4501146 -0.241909E-07  0.182E-04    2.84     114.3  T
   5    -36.4501146 -0.152269E-09  0.935E-05    2.84     223.0  T
     SCC iter.                  ...        0 min,  0.119 sec
     gradient                   ...        0 min,  0.040 sec
 * total energy  :   -35.9447866 Eh     change       -0.1703741E-05 Eh
   gradient norm :     0.0001552 Eh/α   predicted    -0.5974114E-06 ( -64.94%)
   displ. norm   :     0.0394986 α      lambda       -0.1446159E-05
   maximum displ.:     0.0311817 α      in ANC's #1, #2, #6, ...

........................................................................
.............................. CYCLE   33 ..............................
........................................................................

 iter      E             dE          RMSdq      gap      omega  full diag
   1    -36.4500891 -0.364501E+02  0.104E-02    2.84       0.0  T
   2    -36.4500891 -0.143405E-07  0.613E-03    2.84       3.4  T
   3    -36.4500891  0.178128E-07  0.105E-03    2.84      19.9  T
   4    -36.4500891 -0.237841E-07  0.197E-04    2.84     106.1  T
   5    -36.4500891 -0.150990E-09  0.101E-04    2.84     207.1  T
     SCC iter.                  ...        0 min,  0.072 sec
     gradient                   ...        0 min,  0.041 sec
 * total energy  :   -35.9447886 Eh     change       -0.2059862E-05 Eh
   gradient norm :     0.0001658 Eh/α   predicted    -0.7245754E-06 ( -64.82%)
   displ. norm   :     0.0509350 α      lambda       -0.1788757E-05
   maximum displ.:     0.0394166 α      in ANC's #1, #2, #6, ...

........................................................................
.............................. CYCLE   34 ..............................
........................................................................

 iter      E             dE          RMSdq      gap      omega  full diag
   1    -36.4500477 -0.364500E+02  0.131E-02    2.84       0.0  T
   2    -36.4500478 -0.145258E-07  0.770E-03    2.84       2.7  T
   3    -36.4500477  0.122952E-07  0.924E-04    2.84      22.6  T
   4    -36.4500478 -0.184780E-07  0.218E-04    2.84      95.7  T
     SCC iter.                  ...        0 min,  0.049 sec
     gradient                   ...        0 min,  0.034 sec
 * total energy  :   -35.9447911 Eh     change       -0.2532906E-05 Eh
   gradient norm :     0.0001795 Eh/α   predicted    -0.8972478E-06 ( -64.58%)
   displ. norm   :     0.0658466 α      lambda       -0.2199086E-05
   maximum displ.:     0.0503037 α      in ANC's #1, #2, #6, ...

........................................................................
.............................. CYCLE   35 ..............................
........................................................................

 iter      E             dE          RMSdq      gap      omega  full diag
   1    -36.4500086 -0.364500E+02  0.165E-02    2.84       0.0  T
   2    -36.4500087 -0.157322E-07  0.971E-03    2.84       2.1  T
   3    -36.4500086  0.656797E-08  0.795E-04    2.84      26.2  T
   4    -36.4500087 -0.139513E-07  0.258E-04    2.84      80.8  T
     SCC iter.                  ...        0 min,  0.058 sec
     gradient                   ...        0 min,  0.039 sec
 * total energy  :   -35.9447942 Eh     change       -0.3063648E-05 Eh
   gradient norm :     0.0002275 Eh/α   predicted    -0.1103991E-05 ( -63.96%)
   displ. norm   :     0.0821154 α      lambda       -0.2525961E-05
   maximum displ.:     0.0622661 α      in ANC's #1, #2, #6, ...

........................................................................
.............................. CYCLE   36 ..............................
........................................................................

 iter      E             dE          RMSdq      gap      omega  full diag
   1    -36.4499598 -0.364500E+02  0.205E-02    2.84       0.0  T
   2    -36.4499598 -0.189202E-07  0.121E-02    2.84       1.7  T
   3    -36.4499598 -0.417860E-08  0.570E-04    2.84      36.6  T
   4    -36.4499598 -0.443269E-08  0.298E-04    2.84      69.9  T
     SCC iter.                  ...        0 min,  0.051 sec
     gradient                   ...        0 min,  0.046 sec
 * total energy  :   -35.9447976 Eh     change       -0.3415282E-05 Eh
   gradient norm :     0.0002902 Eh/α   predicted    -0.1268879E-05 ( -62.85%)
   displ. norm   :     0.0958453 α      lambda       -0.2629960E-05
   maximum displ.:     0.0726401 α      in ANC's #1, #2, #6, ...

........................................................................
.............................. CYCLE   37 ..............................
........................................................................

 iter      E             dE          RMSdq      gap      omega  full diag
   1    -36.4499223 -0.364499E+02  0.236E-02    2.84       0.0  T
   2    -36.4499224 -0.217609E-07  0.139E-02    2.84       1.5  T
   3    -36.4499224 -0.895454E-08  0.540E-04    2.84      38.6  T
   4    -36.4499224 -0.162899E-08  0.322E-04    2.84      64.7  T
     SCC iter.                  ...        0 min,  0.050 sec
     gradient                   ...        0 min,  0.038 sec
 * total energy  :   -35.9448010 Eh     change       -0.3404175E-05 Eh
   gradient norm :     0.0003711 Eh/α   predicted    -0.1322470E-05 ( -61.15%)
   displ. norm   :     0.1033829 α      lambda       -0.2363092E-05
   maximum displ.:     0.0785180 α      in ANC's #1, #2, #3, ...

........................................................................
.............................. CYCLE   38 ..............................
........................................................................

 iter      E             dE          RMSdq      gap      omega  full diag
   1    -36.4499038 -0.364499E+02  0.256E-02    2.84       0.0  T
   2    -36.4499038 -0.259533E-07  0.151E-02    2.84       1.4  T
   3    -36.4499038 -0.428966E-08  0.792E-04    2.84      26.3  T
   4    -36.4499038 -0.823491E-08  0.343E-04    2.84      60.7  T
     SCC iter.                  ...        0 min,  0.129 sec
     gradient                   ...        0 min,  0.045 sec
 * total energy  :   -35.9448039 Eh     change       -0.2896908E-05 Eh
   gradient norm :     0.0004234 Eh/α   predicted    -0.1188358E-05 ( -58.98%)
   displ. norm   :     0.1098985 α      lambda       -0.2066859E-05
   maximum displ.:     0.0840915 α      in ANC's #1, #2, #3, ...

........................................................................
.............................. CYCLE   39 ..............................
........................................................................

 iter      E             dE          RMSdq      gap      omega  full diag
   1    -36.4499166 -0.364499E+02  0.271E-02    2.84       0.0  T
   2    -36.4499167 -0.315220E-07  0.160E-02    2.84       1.3  T
   3    -36.4499167  0.116379E-07  0.119E-03    2.84      17.5  T
   4    -36.4499167 -0.268438E-07  0.358E-04    2.84      58.2  T
   5    -36.4499167 -0.191868E-09  0.151E-04    2.84     137.8  T
     SCC iter.                  ...        0 min,  0.100 sec
     gradient                   ...        0 min,  0.045 sec
 * total energy  :   -35.9448063 Eh     change       -0.2336978E-05 Eh
   gradient norm :     0.0004272 Eh/α   predicted    -0.1041772E-05 ( -55.42%)
   displ. norm   :     0.1108934 α      lambda       -0.1542677E-05
   maximum displ.:     0.0853223 α      in ANC's #1, #2, #3, ...

........................................................................
.............................. CYCLE   40 ..............................
........................................................................

 iter      E             dE          RMSdq      gap      omega  full diag
   1    -36.4499505 -0.364500E+02  0.278E-02    2.84       0.0  T
   2    -36.4499505 -0.381412E-07  0.164E-02    2.84       1.3  T
   3    -36.4499505  0.266506E-07  0.146E-03    2.84      14.2  T
   4    -36.4499505 -0.438147E-07  0.363E-04    2.84      57.4  T
   5    -36.4499505 -0.276600E-09  0.172E-04    2.84     121.0  T
     SCC iter.                  ...        0 min,  0.074 sec
     gradient                   ...        0 min,  0.041 sec
 * total energy  :   -35.9448079 Eh     change       -0.1589111E-05 Eh
   gradient norm :     0.0004051 Eh/α   predicted    -0.7772622E-06 ( -51.09%)
   displ. norm   :     0.0702655 α      lambda       -0.1041016E-05
   maximum displ.:     0.0545888 α      in ANC's #1, #2, #3, ...

........................................................................
.............................. CYCLE   41 ..............................
........................................................................

 iter      E             dE          RMSdq      gap      omega  full diag
   1    -36.4501590 -0.364502E+02  0.180E-02    2.84       0.0  T
   2    -36.4501590 -0.252067E-07  0.106E-02    2.84       2.0  T
   3    -36.4501590  0.256879E-07  0.132E-03    2.84      15.7  T
   4    -36.4501591 -0.358139E-07  0.272E-04    2.84      76.6  T
   5    -36.4501591 -0.249209E-09  0.137E-04    2.84     152.1  T
     SCC iter.                  ...        0 min,  0.073 sec
     gradient                   ...        0 min,  0.042 sec
 * total energy  :   -35.9448089 Eh     change       -0.1020750E-05 Eh
   gradient norm :     0.0002135 Eh/α   predicted    -0.5238124E-06 ( -48.68%)
   displ. norm   :     0.1145179 α      lambda       -0.8675901E-06
   maximum displ.:     0.0866943 α      in ANC's #1, #2, #3, ...

........................................................................
.............................. CYCLE   42 ..............................
........................................................................

 iter      E             dE          RMSdq      gap      omega  full diag
   1    -36.4499718 -0.364500E+02  0.289E-02    2.84       0.0  T
   2    -36.4499719 -0.514411E-07  0.171E-02    2.84       1.2  T
   3    -36.4499718  0.385631E-07  0.171E-03    2.84      12.2  T
   4    -36.4499719 -0.599609E-07  0.422E-04    2.84      49.4  T
   5    -36.4499719 -0.481975E-09  0.204E-04    2.84     102.1  T
     SCC iter.                  ...        0 min,  0.106 sec
     gradient                   ...        0 min,  0.053 sec
 * total energy  :   -35.9448092 Eh     change       -0.3772514E-06 Eh
   gradient norm :     0.0004316 Eh/α   predicted    -0.4381853E-06 (  16.15%)
   displ. norm   :     0.0220116 α      lambda       -0.8246732E-06
   maximum displ.:     0.0158447 α      in ANC's #1, #2, #6, ...

   *** GEOMETRY OPTIMIZATION CONVERGED AFTER 42 ITERATIONS ***

------------------------------------------------------------------------
 total energy gain   :        -0.0068486 Eh       -4.2976 kcal/mol
 total RMSD          :         0.4953815 a0        0.2621 Å
 total power (kW/mol):        -0.4281188 (step)   -2.7634 (real)
------------------------------------------------------------------------

 ANCopt (total)                0 d,  0 h,  0 min,  6.507 sec
 optimizer setup                ...        0 min,  0.001 sec (  0.010%)
 model hessian                  ...        0 min,  0.008 sec (  0.118%)
 ANC generation                 ...        0 min,  0.002 sec (  0.027%)
 coordinate transformation      ...        0 min,  0.000 sec (  0.006%)
 single point calculation       ...        0 min,  6.313 sec ( 97.018%)
 optimization log               ...        0 min,  0.005 sec (  0.075%)
 hessian update                 ...        0 min,  0.169 sec (  2.591%)
 rational function              ...        0 min,  0.004 sec (  0.056%)

================
 final structure:
================
23
 xtb: 6.7.1 (edcfbbe)
C           -3.89403730551775       -0.65494346647507        0.02532167250492
C           -2.87129261417299        0.46562427084314        0.00004035466009
O           -1.57369496472973       -0.11390146321950       -0.10506639765773
C           -0.54420391153319        0.74513721765701       -0.14398363670565
O           -0.72026334445022        1.95103746711326       -0.09146932125027
C            0.75744987810174        0.07971909220689       -0.24128981962718
C            0.83355331737775       -1.31670117298930       -0.25377857144011
C            2.04412193221089       -1.96638172336967       -0.31924332983239
C            3.21922521496880       -1.22096688960568       -0.37074402026863
C            3.17373833560066        0.15181038868369       -0.36198881837670
C            1.95042249508658        0.83929555765431       -0.30244587574145
N            1.92697548339103        2.18927990938426       -0.33427496208631
H           -3.71061828949440       -1.30963561199551        0.87352622581552
H           -4.89277407138072       -0.23614658018825        0.10824045606527
H           -3.82839960692151       -1.24194696686883       -0.88722292219248
H           -2.91774633455947        1.06949343370302        0.91436324569745
H           -3.03248169604450        1.13462379855255       -0.85389490697025
H           -0.08540546788917       -1.87939857305271       -0.20769696441660
H            2.08513737868411       -3.04449270997915       -0.32783319742845
H            4.17396009183018       -1.72450250808678       -0.41726754780598
H            4.08656770373524        0.72945077247814       -0.40269585860164
H            2.78407956907049        2.70620224148601       -0.26305822869576
H            1.03568620663643        2.64734351606731       -0.20830172590567

 Bond Distances (Angstroems)
 ---------------------------
C1-C2=1.5173         C1-H13=1.0871        C1-H14=1.0862        C1-H15=1.0870        C2-C1=1.5173         C2-O3=1.4250         
C2-H16=1.0967        C2-H17=1.0967        O3-C2=1.4250         O3-C4=1.3414         C4-O3=1.3414         C4-O5=1.2198         
C4-C6=1.4651         O5-C4=1.2198         C6-C4=1.4651         C6-C7=1.3985         C6-C11=1.4156        C7-C6=1.3985         
C7-C8=1.3754         C7-H18=1.0785        C8-C7=1.3754         C8-C9=1.3925         C8-H19=1.0789        C9-C8=1.3925         
C9-C10=1.3736        C9-H20=1.0804        C10-C9=1.3736        C10-C11=1.4045       C10-H21=1.0810       C11-C6=1.4156        
C11-C10=1.4045       C11-N12=1.3506       N12-C11=1.3506       N12-H22=1.0034       N12-H23=1.0100       H13-C1=1.0871        
H14-C1=1.0862        H15-C1=1.0870        H16-C2=1.0967        H17-C2=1.0967        H18-C7=1.0785        H19-C8=1.0789        
H20-C9=1.0804        H21-C10=1.0810       H22-N12=1.0034       H23-N12=1.0100       
 C  H  Rav=1.0858 sigma=0.0066  Rmin=1.0785  Rmax=1.0967     9
 C  C  Rav=1.4178 sigma=0.0462  Rmin=1.3736  Rmax=1.5173     8
 N  H  Rav=1.0067 sigma=0.0033  Rmin=1.0034  Rmax=1.0100     2
 N  C  Rav=1.3506 sigma=0.0000  Rmin=1.3506  Rmax=1.3506     1
 O  C  Rav=1.3287 sigma=0.0842  Rmin=1.2198  Rmax=1.4250     3

 selected bond angles (degree)
 --------------------
H13-C1-C2=110.12               H14-C1-C2=109.65               H14-C1-H13=109.14              H15-C1-C2=110.13               
H15-C1-H13=108.64              H15-C1-H14=109.14              O3-C2-C1=108.34                H16-C2-C1=111.36               
H16-C2-O3=108.90               H17-C2-C1=111.37               H17-C2-O3=108.93               H17-C2-H16=107.88              
C4-O3-C2=116.14                O5-C4-O3=121.40                C6-C4-O3=113.14                C6-C4-O5=125.46                
C7-C6-C4=120.16                C11-C6-C4=120.52               C11-C6-C7=119.31               C8-C7-C6=121.33                
H18-C7-C6=118.31               H18-C7-C8=120.37               C9-C8-C7=119.45                H19-C8-C7=120.39               
H19-C8-C9=120.17               C10-C9-C8=120.45               H20-C9-C8=119.86               H20-C9-C10=119.69              
C11-C10-C9=121.22              H21-C10-C9=120.39              H21-C10-C11=118.39             

 selected dihedral angles (degree)
 ---------------------------------
O3-C2-C1-H13= 59.73           O3-C2-C1-H14=179.83           O3-C2-C1-H15=299.94           H16-C2-C1-H13=299.99          
H16-C2-C1-H14= 60.09          H16-C2-C1-H15=180.20          H17-C2-C1-H13=179.52          H17-C2-C1-H14=299.62          
H17-C2-C1-H15= 59.73          C4-O3-C2-C1=179.83            C4-O3-C2-H16=301.10           C4-O3-C2-H17= 58.52           
O5-C4-O3-C2=  0.00            C6-C4-O3-C2=179.53            C7-C6-C4-O3=358.56            C7-C6-C4-O5=178.06            
C11-C6-C4-O3=179.55           C11-C6-C4-O5=359.05           C8-C7-C6-C4=181.23            C8-C7-C6-C11=  0.25           
H18-C7-C6-C4=  1.05           H18-C7-C6-C11=180.07          C9-C8-C7-C6=  0.17            C9-C8-C7-H18=180.35           
H19-C8-C7-C6=179.99           H19-C8-C7-H18=  0.17          C10-C9-C8-C7=359.73           C10-C9-C8-H19=179.91          
H20-C9-C8-C7=179.69           H20-C9-C8-H19=359.87          C11-C10-C9-C8=359.95          C11-C10-C9-H20=179.99         
H21-C10-C9-C8=180.04          H21-C10-C9-H20=  0.08         
           -------------------------------------------------
          |                Final Singlepoint                |
           -------------------------------------------------

          ...................................................
          :                      SETUP                      :
          :.................................................:
          :  # basis functions                  59          :
          :  # atomic orbitals                  59          :
          :  # shells                           35          :
          :  # electrons                        64          :
          :  max. iterations                   250          :
          :  Hamiltonian                  GFN2-xTB          :
          :  restarted?                      false          :
          :  GBSA solvation                  false          :
          :  PC potential                    false          :
          :  electronic temp.          300.0000000     K    :
          :  accuracy                    1.0000000          :
          :  -> integral cutoff          0.2500000E+02      :
          :  -> integral neglect         0.1000000E-07      :
          :  -> SCF convergence          0.1000000E-05 Eh   :
          :  -> wf. convergence          0.1000000E-03 e    :
          :  Broyden damping             0.4000000          :
          :  net charge                          0          :
          :  unpaired electrons                  0          :
          ...................................................

 iter      E             dE          RMSdq      gap      omega  full diag
   1    -36.4499719 -0.364500E+02  0.606E-05    2.84       0.0  T
   2    -36.4499719 -0.305462E-10  0.403E-05    2.84     516.8  T
   3    -36.4499719 -0.271925E-10  0.167E-05    2.84    1249.1  T

   *** convergence criteria satisfied after 3 iterations ***

         #    Occupation            Energy/Eh            Energy/eV
      -------------------------------------------------------------
         1        2.0000           -0.7297254             -19.8568
       ...           ...                  ...                  ...
        26        2.0000           -0.4451861             -12.1141
        27        2.0000           -0.4428405             -12.0503
        28        2.0000           -0.4316011             -11.7445
        29        2.0000           -0.4270985             -11.6219
        30        2.0000           -0.4049953             -11.0205
        31        2.0000           -0.3974691             -10.8157
        32        2.0000           -0.3625498              -9.8655 (HOMO)
        33                         -0.2582492              -7.0273 (LUMO)
        34                         -0.2077768              -5.6539
        35                         -0.1757185              -4.7815
        36                         -0.0743784              -2.0239
        37                          0.0162546               0.4423
       ...                                ...                  ...
        59                          0.6891904              18.7538
      -------------------------------------------------------------
                  HL-Gap            0.1043006 Eh            2.8382 eV
             Fermi-level           -0.3103995 Eh           -8.4464 eV

 SCC (total)                   0 d,  0 h,  0 min,  0.151 sec
 SCC setup                      ...        0 min,  0.005 sec (  3.443%)
 Dispersion                     ...        0 min,  0.010 sec (  6.328%)
 classical contributions        ...        0 min,  0.005 sec (  3.381%)
 integral evaluation            ...        0 min,  0.016 sec ( 10.466%)
 iterations                     ...        0 min,  0.069 sec ( 45.440%)
 molecular gradient             ...        0 min,  0.047 sec ( 30.840%)
 printout                       ...        0 min,  0.000 sec (  0.084%)

         :::::::::::::::::::::::::::::::::::::::::::::::::::::
         ::                     SUMMARY                     ::
         :::::::::::::::::::::::::::::::::::::::::::::::::::::
         :: total energy             -35.944809248797 Eh    ::
         :: gradient norm              0.000431666185 Eh/a0 ::
         :: HOMO-LUMO gap              2.838164494669 eV    ::
         ::.................................................::
         :: SCC energy               -36.449983815598 Eh    ::
         :: -> isotropic ES            0.055920754601 Eh    ::
         :: -> anisotropic ES          0.000487433438 Eh    ::
         :: -> anisotropic XC          0.011709461739 Eh    ::
         :: -> dispersion             -0.018813907131 Eh    ::
         :: repulsion energy           0.505174566801 Eh    ::
         :: add. restraining           0.000000000000 Eh    ::
         :: total charge              -0.000000000000 e     ::
         :::::::::::::::::::::::::::::::::::::::::::::::::::::

           -------------------------------------------------
          |                Property Printout                |
           -------------------------------------------------

    * Orbital Energies and Occupations

         #    Occupation            Energy/Eh            Energy/eV
      -------------------------------------------------------------
         1        2.0000           -0.7297254             -19.8568
       ...           ...                  ...                  ...
        20        2.0000           -0.4884368             -13.2910
        21        2.0000           -0.4804803             -13.0745
        22        2.0000           -0.4775556             -12.9949
        23        2.0000           -0.4755183             -12.9395
        24        2.0000           -0.4679642             -12.7340
        25        2.0000           -0.4607090             -12.5365
        26        2.0000           -0.4451861             -12.1141
        27        2.0000           -0.4428405             -12.0503
        28        2.0000           -0.4316011             -11.7445
        29        2.0000           -0.4270985             -11.6219
        30        2.0000           -0.4049953             -11.0205
        31        2.0000           -0.3974691             -10.8157
        32        2.0000           -0.3625498              -9.8655 (HOMO)
        33                         -0.2582492              -7.0273 (LUMO)
        34                         -0.2077768              -5.6539
        35                         -0.1757185              -4.7815
        36                         -0.0743784              -2.0239
        37                          0.0162546               0.4423
        38                          0.0343851               0.9357
        39                          0.1078702               2.9353
        40                          0.1291468               3.5143
        41                          0.1401762               3.8144
        42                          0.1476932               4.0189
        43                          0.1509160               4.1066
       ...                                ...                  ...
        59                          0.6891904              18.7538
      -------------------------------------------------------------
                  HL-Gap            0.1043006 Eh            2.8382 eV
             Fermi-level           -0.3103995 Eh           -8.4464 eV

     #   Z          covCN         q      C6AA      α(0)
     1   6 C        3.751    -0.115    22.758     6.803
     2   6 C        3.703     0.089    19.249     6.273
     3   8 O        1.705    -0.271    18.498     5.807
     4   6 C        2.729     0.347    21.111     7.522
     5   8 O        0.856    -0.459    22.907     6.417
     6   6 C        2.972    -0.059    29.462     8.903
     7   6 C        2.922    -0.025    28.620     8.773
     8   6 C        2.916    -0.047    29.160     8.855
     9   6 C        2.918    -0.023    28.568     8.765
    10   6 C        2.922    -0.063    29.559     8.916
    11   6 C        2.898     0.095    25.886     8.342
    12   7 N        2.643    -0.256    26.660     7.668
    13   1 H        0.925     0.057     2.240     2.341
    14   1 H        0.925     0.050     2.321     2.382
    15   1 H        0.925     0.057     2.239     2.340
    16   1 H        0.924     0.047     2.352     2.398
    17   1 H        0.924     0.048     2.345     2.395
    18   1 H        0.926     0.050     2.323     2.383
    19   1 H        0.926     0.032     2.562     2.503
    20   1 H        0.926     0.034     2.524     2.485
    21   1 H        0.926     0.030     2.588     2.516
    22   1 H        0.861     0.168     1.282     1.774
    23   1 H        0.860     0.214     1.038     1.596

 Mol. C6AA /au·bohr⁶  :       5766.216377
 Mol. C8AA /au·bohr⁸  :     134268.547548
 Mol. α(0) /au        :        118.157532


Wiberg/Mayer (AO) data.
largest (>0.10) Wiberg bond orders for each atom

 ---------------------------------------------------------------------------
     #   Z sym  total        # sym  WBO       # sym  WBO       # sym  WBO
 ---------------------------------------------------------------------------
     1   6 C    3.992 --     2 C    1.019    15 H    0.986    13 H    0.986
                            14 H    0.984
     2   6 C    3.932 --     1 C    1.019    16 H    0.968    17 H    0.968
                             3 O    0.943
     3   8 O    2.295 --     4 C    1.116     2 C    0.943     5 O    0.153
     4   6 C    3.916 --     5 O    1.648     3 O    1.116     6 C    1.059
     5   8 O    2.004 --     4 C    1.648     3 O    0.153
     6   6 C    3.975 --     7 C    1.363    11 C    1.269     4 C    1.059
     7   6 C    3.990 --     8 C    1.484     6 C    1.363    18 H    0.966
                            10 C    0.105
     8   6 C    3.991 --     7 C    1.484     9 C    1.375    19 H    0.971
     9   6 C    3.991 --    10 C    1.503     8 C    1.375    20 H    0.971
    10   6 C    3.986 --     9 C    1.503    11 C    1.302    21 H    0.968
                             7 C    0.105
    11   6 C    3.974 --    10 C    1.302     6 C    1.269    12 N    1.258
    12   7 N    3.368 --    11 C    1.258    22 H    0.951    23 H    0.907
    13   1 H    0.997 --     1 C    0.986
    14   1 H    0.997 --     1 C    0.984
    15   1 H    0.997 --     1 C    0.986
    16   1 H    0.997 --     2 C    0.968
    17   1 H    0.997 --     2 C    0.968
    18   1 H    0.997 --     7 C    0.966
    19   1 H    0.998 --     8 C    0.971
    20   1 H    0.998 --     9 C    0.971
    21   1 H    0.999 --    10 C    0.968
    22   1 H    0.971 --    12 N    0.951
    23   1 H    0.954 --    12 N    0.907
 ---------------------------------------------------------------------------

Topologies differ in total number of bonds
Writing topology from bond orders to xtbtopo.mol

molecular dipole:
                 x           y           z       tot (Debye)
 q only:        0.157      -0.171       0.023
   full:        0.166      -0.104       0.091       0.549
molecular quadrupole (traceless):
                xx          xy          yy          xz          yz          zz
 q only:        8.997       6.323      -3.285      -0.543      -0.057      -5.712
  q+dip:       10.344       6.485      -2.793      -0.278       0.326      -7.551
   full:        9.345       6.628      -4.093      -0.106       0.300      -5.252

           -------------------------------------------------
          |                Geometry Summary                 |
           -------------------------------------------------

      molecular mass/u    :      165.1894844
   center of mass at/Å    :        0.2544369       0.1473446      -0.2006795
  moments of inertia/u·Å² :        0.2708209E+03   0.8572215E+03   0.1121571E+04
rotational constants/cm⁻¹ :        0.6224643E-01   0.1966543E-01   0.1503037E-01

 * 22 selected distances

     #   Z          #   Z                                           value/Å
     1   6 C        2   6 C                                       1.5173392 (max)
     2   6 C        3   8 O                                       1.4250114
     3   8 O        4   6 C                                       1.3413852
     4   6 C        5   8 O                                       1.2198157
     6   6 C        7   6 C                                       1.3985484
     7   6 C        8   6 C                                       1.3754444
     8   6 C        9   6 C                                       1.3925386
     9   6 C       10   6 C                                       1.3735587
     6   6 C       11   6 C                                       1.4155849
    10   6 C       11   6 C                                       1.4045224
    11   6 C       12   7 N                                       1.3505632
     1   6 C       13   1 H                                       1.0870674
     1   6 C       14   1 H                                       1.0861592
     1   6 C       15   1 H                                       1.0870231
     2   6 C       16   1 H                                       1.0967235
     2   6 C       17   1 H                                       1.0966987
     7   6 C       18   1 H                                       1.0785348
     8   6 C       19   1 H                                       1.0789252
     9   6 C       20   1 H                                       1.0803849
    10   6 C       21   1 H                                       1.0810102
    12   7 N       22   1 H                                       1.0034481 (min)
    12   7 N       23   1 H                                       1.0099942

 * 5 distinct bonds (by element types)

   Z      Z             #   av. dist./Å        max./Å        min./Å
   1 H    6 C           9     1.0858363     1.0967235     1.0785348
   6 C    6 C           7     1.4110766     1.5173392     1.3735587
   1 H    7 N           2     1.0067212     1.0099942     1.0034481
   6 C    7 N           1     1.3505632     1.3505632     1.3505632
   6 C    8 O           3     1.3287374     1.4250114     1.2198157


optimized geometry written to: xtbopt.xyz


           -------------------------------------------------
          | TOTAL ENERGY              -35.944809248797 Eh   |
          | GRADIENT NORM               0.000431666185 Eh/α |
          | HOMO-LUMO GAP               2.838164494669 eV   |
           -------------------------------------------------

------------------------------------------------------------------------
 * finished run on 2026/07/07 at 15:38:26.828     
------------------------------------------------------------------------
 total:
 * wall-time:     0 d,  0 h,  0 min,  6.921 sec
 *  cpu-time:     0 d,  0 h,  1 min, 50.196 sec
 * ratio c/w:    15.922 speedup
 SCF:
 * wall-time:     0 d,  0 h,  0 min,  0.202 sec
 *  cpu-time:     0 d,  0 h,  0 min,  3.227 sec
 * ratio c/w:    16.002 speedup
 ANC optimizer:
 * wall-time:     0 d,  0 h,  0 min,  6.663 sec
 *  cpu-time:     0 d,  0 h,  1 min, 46.158 sec
 * ratio c/w:    15.931 speedup

