29
REP_00157 MMFF geometry for GFN2-xTB preoptimization
O  -0.107076961182 -0.618043403093  2.863171909985
C   0.310902987542 -0.894238735681  1.745086574367
C   1.753506114383 -1.185458024072  1.435039691944
N   2.307705742136 -0.245862251300  0.476529092975
C   2.495738148626 -0.490689540407 -0.858926527978
C   3.052556169170  0.636956564395 -1.421664392982
C   3.215103824316  1.589305556015 -0.387794339108
C   2.752484694386  1.015936311304  0.776404933203
O  -0.461843653878 -1.011065338002  0.629217768896
C  -1.850103490804 -0.677174245302  0.789276301299
C  -2.052180371633  0.833472240164  0.728202711659
C  -1.912017265873  1.170293930324 -0.754047568468
C  -2.302240544494 -0.098011281542 -1.512505020510
C  -2.598318880207 -1.155747643493 -0.450139129776
H   1.852736385616 -2.203008394767  1.044088332696
H   2.348396473142 -1.113331116170  2.351848491907
H   2.212741521329 -1.435433196901 -1.305125266996
H   3.314147326868  0.759529789249 -2.464728052525
H   3.626811368866  2.585944518407 -0.481225459610
H   2.701278747574  1.407762360290  1.784668966799
H  -2.254968749222 -1.134280551815  1.698672100445
H  -1.329248880591  1.395708025213  1.326326711971
H  -3.061710678980  1.090892787174  1.069747765149
H  -2.539458098568  2.022957976863 -1.032100253220
H  -0.874183625428  1.436372080560 -0.987089545182
H  -3.170855496745  0.065989043157 -2.158417871283
H  -1.473050589831 -0.418245556914 -2.153914515878
H  -2.280504453608 -2.148729863649 -0.782938403778
H  -3.676347762909 -1.181802040007 -0.251866069482
