25
REP_00276 MMFF geometry for GFN2-xTB preoptimization
O   4.775099026562  0.628965843637  0.409751305033
C   3.847115509480  1.198751708436 -0.502222499090
C   2.511556592291  0.656472584214 -0.251415564250
C   1.420929881346  0.198469218593 -0.038164263820
C   0.090024294985 -0.372785458182  0.242729634781
O   0.243543905917 -1.389818736390  1.233984218590
C  -0.490329521868 -1.022836841275 -1.022237062524
C  -1.915079802769 -1.537832452164 -0.809737019467
C  -2.834647456329 -0.444122261858 -0.276394657867
C  -2.277417156896  0.188474153014  0.994661403900
C  -0.854914324449  0.710794463597  0.786792421236
H   4.659430565069 -0.335157736104  0.355027384315
H   3.861438006863  2.284217378895 -0.369026162884
H   4.180527221527  0.975170333141 -1.519985977459
H   0.726343372284 -0.987865921668  1.976522754182
H  -0.492468034118 -0.301604614695 -1.850488748628
H   0.137110067241 -1.867103214706 -1.336625423344
H  -2.310878957375 -1.920930659230 -1.757236379676
H  -1.903167734118 -2.380755927105 -0.108065975820
H  -2.963269040281  0.330026441759 -1.042896920690
H  -3.827362070399 -0.862415348002 -0.075578551910
H  -2.927444968082  1.012461155930  1.310353293564
H  -2.285727972544 -0.549864695189  1.805695586608
H  -0.886143974864  1.564884813145  0.097065568099
H  -0.484267429471  1.091365514353  1.747491637121
