32
DEC_00364 MMFF geometry for GFN2-xTB preoptimization
C  -5.115943974870  0.234028844347  0.717126227286
C  -4.601311800781 -0.113461452739 -0.671191546744
C  -3.204724763105  0.440223983061 -0.961641260911
C  -2.112994272587 -0.178025219945 -0.085407931268
C  -0.726373064854  0.329707996920 -0.487614107471
C   0.366754272991 -0.284120001896  0.388666516389
C   1.750529096299  0.222142948286 -0.013122325247
C   2.845088644488 -0.385060448513  0.859312676701
O   4.124442892414  0.151603148016  0.487454051630
C   4.766635926872 -0.496915513399 -0.522365665040
C   6.081745410938  0.165528421563 -0.798112785293
O   4.345642378462 -1.472515326995 -1.127037408980
H  -4.524104514631 -0.252197541169  1.498027988419
H  -5.092172057907  1.315185457761  0.886118485145
H  -6.151426419341 -0.103438165275  0.828763021849
H  -4.605620910181 -1.202057445803 -0.799991498789
H  -5.297758609792  0.295872628195 -1.412751512166
H  -2.971794458873  0.244875028600 -2.015792361188
H  -3.207753606262  1.529818290336 -0.835753804944
H  -2.143934565462 -1.270541718911 -0.175477786248
H  -2.292711593028  0.067178722301  0.967330690405
H  -0.535246154235  0.083036465141 -1.539104851408
H  -0.696342951590  1.422700542737 -0.400994949849
H   0.336442760200 -1.377074103714  0.302078533463
H   0.176357065294 -0.037466367036  1.440256682765
H   1.792397476756  1.315782724206  0.063891405295
H   1.944515430907 -0.011379377812 -1.066930753966
H   2.846833632998 -1.480505652545  0.808490246474
H   2.682025989332 -0.114643433541  1.908305054072
H   6.594352526930 -0.367867439474 -1.603777454178
H   6.709272355085  0.130760648614  0.095981213650
H   5.917177857534  1.198823358681 -1.113643848144
