39
REP_00016 MMFF geometry for GFN2-xTB preoptimization
C   2.592442104070 -1.843370912552  1.500268689398
C   2.855533385371 -0.798930235891  0.426920817552
C   2.278721768273 -1.227389986189 -0.924000824742
C   2.594255915340 -0.223723429796 -2.032453985046
O   2.076477495849  1.077894989542 -1.718919954657
C   0.763307025105  1.281394664398 -2.016703708209
O   0.026267472213  0.466240078841 -2.553070523812
C   0.356099458053  2.669815176356 -1.600873971198
C  -1.129110979931  2.716869695091 -1.272752920769
O  -1.572662371310  4.071842315447 -1.448084227827
C  -1.421512027939  2.262661643382  0.161191864066
O  -2.232189161361  2.830817976488  0.885567008005
O  -0.723523800404  1.144004147904  0.488523744746
C  -0.983171439692  0.590148190857  1.787016691939
C  -2.157789473618 -0.383845966821  1.734279215221
C  -1.902930310963 -1.544916494351  0.770175270002
C  -3.067736471425 -2.522159134580  0.757400750543
H   3.007045054820 -1.514724658224  2.458365746468
H   3.057075009107 -2.799541060324  1.239240629827
H   1.518970602055 -2.008474926496  1.633579744419
H   2.413892090717  0.153559251453  0.741341538206
H   3.936633608998 -0.641965412251  0.336846117142
H   2.682877161139 -2.206321142551 -1.206843261591
H   1.192685213164 -1.338662485953 -0.823325057576
H   2.211036699328 -0.572245589748 -2.998873055431
H   3.678968695085 -0.117834533899 -2.143561522280
H   0.945939394685  2.984159545325 -0.731401528149
H   0.598384529216  3.347786640921 -2.427176061933
H  -1.732811776993  2.099458832139 -1.945867626846
H  -2.397388842741  4.160297167059 -0.929166211523
H  -1.162001253785  1.381418619846  2.524428417522
H  -0.073654531006  0.066912481836  2.100681321811
H  -2.343898406284 -0.772697623336  2.742087734287
H  -3.061631810206  0.148403600731  1.414984852836
H  -0.991080349841 -2.077621862779  1.062939022142
H  -1.745340763316 -1.166516945695 -0.246289537157
H  -2.864927191848 -3.344271284081  0.063913692622
H  -3.990768271540 -2.027935978461  0.437918565803
H  -3.232483448395 -2.949404478915  1.751692544192
