      -----------------------------------------------------------      
     |                   =====================                   |     
     |                           x T B                           |     
     |                   =====================                   |     
     |                         S. Grimme                         |     
     |          Mulliken Center for Theoretical Chemistry        |     
     |                    University of Bonn                     |     
      -----------------------------------------------------------      

   * xtb version 6.7.1 (edcfbbe) compiled by 'conda@5dfe00f5fb80' on 2026-06-10

   xtb is free software: you can redistribute it and/or modify it under
   the terms of the GNU Lesser General Public License as published by
   the Free Software Foundation, either version 3 of the License, or
   (at your option) any later version.
   
   xtb is distributed in the hope that it will be useful,
   but WITHOUT ANY WARRANTY; without even the implied warranty of
   MERCHANTABILITY or FITNESS FOR A PARTICULAR PURPOSE.  See the
   GNU Lesser General Public License for more details.
   
   Cite this work as:
   * C. Bannwarth, E. Caldeweyher, S. Ehlert, A. Hansen, P. Pracht,
     J. Seibert, S. Spicher, S. Grimme, WIREs Comput. Mol. Sci., 2020, 11,
     e01493. DOI: 10.1002/wcms.1493
   
   for GFN2-xTB:
   * C. Bannwarth, S. Ehlert and S. Grimme., J. Chem. Theory Comput., 2019,
     15, 1652-1671. DOI: 10.1021/acs.jctc.8b01176
   for GFN1-xTB:
   * S. Grimme, C. Bannwarth, P. Shushkov, J. Chem. Theory Comput., 2017,
     13, 1989-2009. DOI: 10.1021/acs.jctc.7b00118
   for GFN0-xTB:
   * P. Pracht, E. Caldeweyher, S. Ehlert, S. Grimme, ChemRxiv, 2019, preprint.
     DOI: 10.26434/chemrxiv.8326202.v1
   for GFN-FF:
   * S. Spicher and S. Grimme, Angew. Chem. Int. Ed., 2020, 59, 15665-15673.
     DOI: 10.1002/anie.202004239
   
   for ALPB and GBSA implicit solvation:
   * S. Ehlert, M. Stahn, S. Spicher, S. Grimme, J. Chem. Theory Comput.,
     2021, 17, 4250-4261. DOI: 10.1021/acs.jctc.1c00471
   
   for ddCOSMO and CPCM-X implicit solvation:
   * M. Stahn, S. Ehlert, S. Grimme, J. Phys. Chem. A,
     2023, XX, XXXX-XXXX. DOI: 10.1021/acs.jpca.3c04382
   
   for DFT-D4:
   * E. Caldeweyher, C. Bannwarth and S. Grimme, J. Chem. Phys., 2017,
     147, 034112. DOI: 10.1063/1.4993215
   * E. Caldeweyher, S. Ehlert, A. Hansen, H. Neugebauer, S. Spicher,
     C. Bannwarth and S. Grimme, J. Chem. Phys., 2019, 150, 154122.
     DOI: 10.1063/1.5090222
   * E. Caldeweyher, J.-M. Mewes, S. Ehlert and S. Grimme, Phys. Chem. Chem. Phys.
     2020, 22, 8499-8512. DOI: 10.1039/D0CP00502A
   
   for sTDA-xTB:
   * S. Grimme and C. Bannwarth, J. Chem. Phys., 2016, 145, 054103.
     DOI: 10.1063/1.4959605
   
   in the mass-spec context:
   * V. Asgeirsson, C. Bauer and S. Grimme, Chem. Sci., 2017, 8, 4879.
     DOI: 10.1039/c7sc00601b
   * J. Koopman and S. Grimme, ACS Omega 2019, 4, 12, 15120-15133.
     DOI: 10.1021/acsomega.9b02011
   
   for metadynamics refer to:
   * S. Grimme, J. Chem. Theory Comput., 2019, 155, 2847-2862
     DOI: 10.1021/acs.jctc.9b00143
   
   for SPH calculations refer to:
   * S. Spicher and S. Grimme, J. Chem. Theory Comput., 2021, 17, 1701-1714
     DOI: 10.1021/acs.jctc.0c01306
   
   for ONIOM refer to:
   * C. Plett, A. Katbashev, S. Ehlert, S. Grimme, M. Bursch,
     Phys. Chem. Chem. Phys., 2023, 25, 17860-17868. DOI: 10.1039/D3CP02178E
   
   for DIPRO refer to:
   * J. Kohn, N. Gildemeister, S. Grimme, D. Fazzi, A. Hansen,
     J. Chem. Phys., 2023, just accepted.
   
   for PTB refer to:
   * S. Grimme, M. Mueller, A. Hansen, J. Chem. Phys., 2023, 158, 124111.
     DOI: 10.1063/5.0137838
   
   with help from (in alphabetical order)
   P. Atkinson, C. Bannwarth, F. Bohle, G. Brandenburg, E. Caldeweyher
   M. Checinski, S. Dohm, S. Ehlert, S. Ehrlich, I. Gerasimov, C. Hölzer
   A. Katbashev, J. Kohn, J. Koopman, C. Lavigne, S. Lehtola, F. März, M. Müller,
   F. Musil, H. Neugebauer, J. Pisarek, C. Plett, P. Pracht, F. Pultar,
   J. Seibert, P. Shushkov, S. Spicher, M. Stahn, M. Steiner, T. Strunk,
   J. Stückrath, T. Rose, and J. Unsleber
   
 * started run on 2026/07/08 at 20:33:56.868     
   ID    Z sym.   atoms
    1    6 C      1, 3, 5, 6, 9
    2    8 O      2, 4, 7, 8
    3    1 H      10-17

           -------------------------------------------------
          |                Calculation Setup                |
           -------------------------------------------------

          program call               : /home/ws/xd2484/miniforge3/envs/p3z_dft/bin/xtb xtb_input.xyz --gfn 2 --opt tight --cycles 500 --chrg 0 --uhf 0
          hostname                   : gpu10
          coordinate file            : xtb_input.xyz
          omp threads                :                    16


           -------------------------------------------------
          |                 G F N 2 - x T B                 |
           -------------------------------------------------

        Reference                      10.1021/acs.jctc.8b01176
      * Hamiltonian:
        H0-scaling (s, p, d)           1.850000    2.230000    2.230000
        zeta-weighting                 0.500000
      * Dispersion:
        s8                             2.700000
        a1                             0.520000
        a2                             5.000000
        s9                             5.000000
      * Repulsion:
        kExp                           1.500000    1.000000
        rExp                           1.000000
      * Coulomb:
        alpha                          2.000000
        third order                    shell-resolved
        anisotropic                    true
        a3                             3.000000
        a5                             4.000000
        cn-shift                       1.200000
        cn-exp                         4.000000
        max-rad                        5.000000


          ...................................................
          :                      SETUP                      :
          :.................................................:
          :  # basis functions                  44          :
          :  # atomic orbitals                  44          :
          :  # shells                           26          :
          :  # electrons                        52          :
          :  max. iterations                   250          :
          :  Hamiltonian                  GFN2-xTB          :
          :  restarted?                      false          :
          :  GBSA solvation                  false          :
          :  PC potential                    false          :
          :  electronic temp.          300.0000000     K    :
          :  accuracy                    1.0000000          :
          :  -> integral cutoff          0.2500000E+02      :
          :  -> integral neglect         0.1000000E-07      :
          :  -> SCF convergence          0.1000000E-05 Eh   :
          :  -> wf. convergence          0.1000000E-03 e    :
          :  Broyden damping             0.4000000          :
          :  net charge                          0          :
          :  unpaired electrons                  0          :
          ...................................................

 iter      E             dE          RMSdq      gap      omega  full diag
   1    -31.2294111 -0.312294E+02  0.506E+00    5.70       0.0  T
   2    -31.3092636 -0.798525E-01  0.257E+00    4.44       1.0  T
   3    -31.3151652 -0.590159E-02  0.153E+00    5.01       1.0  T
   4    -31.3206829 -0.551766E-02  0.165E-01    4.71       1.0  T
   5    -31.3209225 -0.239573E-03  0.758E-02    4.76       1.0  T
   6    -31.3209243 -0.187448E-05  0.252E-02    4.76       1.0  T
   7    -31.3209260 -0.164214E-05  0.598E-03    4.76       4.1  T
   8    -31.3209260 -0.283684E-07  0.218E-03    4.76      11.1  T
   9    -31.3209260 -0.247567E-07  0.773E-04    4.76      31.4  T
  10    -31.3209260 -0.243144E-08  0.279E-04    4.76      86.8  T

   *** convergence criteria satisfied after 10 iterations ***

         #    Occupation            Energy/Eh            Energy/eV
      -------------------------------------------------------------
         1        2.0000           -0.7544185             -20.5288
       ...           ...                  ...                  ...
        20        2.0000           -0.4966100             -13.5134
        21        2.0000           -0.4872000             -13.2574
        22        2.0000           -0.4808806             -13.0854
        23        2.0000           -0.4601595             -12.5216
        24        2.0000           -0.4543359             -12.3631
        25        2.0000           -0.4380758             -11.9207
        26        2.0000           -0.4299801             -11.7004 (HOMO)
        27                         -0.2550800              -6.9411 (LUMO)
        28                         -0.2519244              -6.8552
        29                         -0.0082408              -0.2242
        30                          0.0135198               0.3679
        31                          0.1023397               2.7848
       ...                                ...                  ...
        44                          0.5812338              15.8162
      -------------------------------------------------------------
                  HL-Gap            0.1749001 Eh            4.7593 eV
             Fermi-level           -0.3425300 Eh           -9.3207 eV

 SCC (total)                   0 d,  0 h,  0 min,  0.263 sec
 SCC setup                      ...        0 min,  0.006 sec (  2.134%)
 Dispersion                     ...        0 min,  0.012 sec (  4.454%)
 classical contributions        ...        0 min,  0.006 sec (  2.219%)
 integral evaluation            ...        0 min,  0.018 sec (  6.834%)
 iterations                     ...        0 min,  0.174 sec ( 66.160%)
 molecular gradient             ...        0 min,  0.048 sec ( 18.126%)
 printout                       ...        0 min,  0.000 sec (  0.060%)

         :::::::::::::::::::::::::::::::::::::::::::::::::::::
         ::                     SUMMARY                     ::
         :::::::::::::::::::::::::::::::::::::::::::::::::::::
         :: total energy             -31.057346823674 Eh    ::
         :: gradient norm              0.084531654598 Eh/a0 ::
         :: HOMO-LUMO gap              4.759272827146 eV    ::
         ::.................................................::
         :: SCC energy               -31.320934296589 Eh    ::
         :: -> isotropic ES            0.084976001355 Eh    ::
         :: -> anisotropic ES          0.002084304250 Eh    ::
         :: -> anisotropic XC          0.001711771657 Eh    ::
         :: -> dispersion             -0.010150142566 Eh    ::
         :: repulsion energy           0.263587472915 Eh    ::
         :: add. restraining           0.000000000000 Eh    ::
         :: total charge              -0.000000000000 e     ::
         :::::::::::::::::::::::::::::::::::::::::::::::::::::

      ----------------------------------------------------------- 
     |                   =====================                   |
     |                        A N C O P T                        |
     |                   =====================                   |
     |               Approximate Normal Coordinate               |
     |                Rational Function Optimizer                |
      ----------------------------------------------------------- 
      ----------------------------------------------------------- 
     |                   =====================                   |
     |                        A N C O P T                        |
     |                   =====================                   |
     |               Approximate Normal Coordinate               |
     |                Rational Function Optimizer                |
      ----------------------------------------------------------- 

          ...................................................
          :                      SETUP                      :
          :.................................................:
          :   optimization level             tight          :
          :   max. optcycles                   500          :
          :   ANC micro-cycles                  20          :
          :   degrees of freedom                45          :
          :.................................................:
          :   RF solver                   davidson          :
          :   write xtbopt.log                true          :
          :   linear?                        false          :
          :   energy convergence         0.1000000E-05 Eh   :
          :   grad. convergence          0.8000000E-03 Eh/α :
          :   maxmium RF displ.          1.0000000          :
          :   Hlow (freq-cutoff)         0.1000000E-01      :
          :   Hmax (freq-cutoff)         5.0000000          :
          :   S6 in model hess.         20.0000000          :
          ...................................................

generating ANC from exact Hessian ...
Using Lindh-Hessian (1995)
 Shifting diagonal of input Hessian by    8.6941979776273860E-003
 Lowest  eigenvalues of input Hessian
    0.000000    0.000000    0.000000    0.000000    0.000000    0.000000
    0.010000    0.011068    0.012783    0.015300    0.020019    0.025872
    0.030032    0.032510    0.036202    0.041074    0.049344    0.067516
 Highest eigenvalues
    1.270794    1.326566    1.666666    1.740045    2.255099    2.260603


........................................................................
.............................. CYCLE    1 ..............................
........................................................................

 iter      E             dE          RMSdq      gap      omega  full diag
   1    -31.3209260 -0.313209E+02  0.862E-05    4.76       0.0  T
   2    -31.3209260 -0.208331E-10  0.483E-05    4.76     502.4  T
   3    -31.3209260 -0.387956E-11  0.312E-05    4.76     777.8  T
     SCC iter.                  ...        0 min,  0.041 sec
     gradient                   ...        0 min,  0.034 sec
 * total energy  :   -31.0573468 Eh     change       -0.2190070E-09 Eh
   gradient norm :     0.0845345 Eh/α   predicted     0.0000000E+00 (-100.00%)
   displ. norm   :     0.1431146 α      lambda       -0.7266394E-02
   maximum displ.:     0.0949553 α      in ANC's #15, #32, #24, ...

........................................................................
.............................. CYCLE    2 ..............................
........................................................................

 iter      E             dE          RMSdq      gap      omega  full diag
   1    -31.3414936 -0.313415E+02  0.201E-01    5.03       0.0  T
   2    -31.3416024 -0.108842E-03  0.122E-01    4.99       1.0  T
   3    -31.3416085 -0.604038E-05  0.592E-02    5.01       1.0  T
   4    -31.3416157 -0.726283E-05  0.752E-03    5.00       3.2  T
   5    -31.3416160 -0.316102E-06  0.449E-03    5.00       5.4  T
   6    -31.3416161 -0.487926E-07  0.112E-03    5.00      21.6  T
   7    -31.3416161 -0.507423E-09  0.418E-04    5.00      58.1  T
   8    -31.3416161 -0.184855E-09  0.574E-05    5.00     422.8  T
     SCC iter.                  ...        0 min,  0.116 sec
     gradient                   ...        0 min,  0.045 sec
 * total energy  :   -31.0618847 Eh     change       -0.4537855E-02 Eh
   gradient norm :     0.0217566 Eh/α   predicted    -0.3707611E-02 ( -18.30%)
   displ. norm   :     0.0905222 α      lambda       -0.8748872E-03
   maximum displ.:     0.0485859 α      in ANC's #15, #1, #9, ...

........................................................................
.............................. CYCLE    3 ..............................
........................................................................

 iter      E             dE          RMSdq      gap      omega  full diag
   1    -31.3463106 -0.313463E+02  0.944E-02    5.07       0.0  T
   2    -31.3463308 -0.201690E-04  0.571E-02    5.05       1.0  T
   3    -31.3463312 -0.447777E-06  0.250E-02    5.06       1.0  T
   4    -31.3463327 -0.143218E-05  0.312E-03    5.05       7.8  T
   5    -31.3463327 -0.845801E-07  0.151E-03    5.05      16.1  T
   6    -31.3463327 -0.431555E-08  0.566E-04    5.05      42.9  T
   7    -31.3463327 -0.465558E-09  0.202E-04    5.05     120.3  T
     SCC iter.                  ...        0 min,  0.111 sec
     gradient                   ...        0 min,  0.040 sec
 * total energy  :   -31.0623851 Eh     change       -0.5004286E-03 Eh
   gradient norm :     0.0086310 Eh/α   predicted    -0.4410290E-03 ( -11.87%)
   displ. norm   :     0.0578220 α      lambda       -0.1062758E-03
   maximum displ.:     0.0355626 α      in ANC's #1, #9, #6, ...

........................................................................
.............................. CYCLE    4 ..............................
........................................................................

 iter      E             dE          RMSdq      gap      omega  full diag
   1    -31.3459838 -0.313460E+02  0.367E-02    5.05       0.0  T
   2    -31.3459877 -0.385681E-05  0.216E-02    5.04       1.1  T
   3    -31.3459877 -0.414352E-07  0.899E-03    5.04       2.7  T
   4    -31.3459878 -0.403095E-07  0.165E-03    5.04      14.7  T
   5    -31.3459878 -0.309273E-07  0.485E-04    5.04      50.0  T
   6    -31.3459878 -0.251475E-09  0.133E-04    5.04     182.6  T
     SCC iter.                  ...        0 min,  0.072 sec
     gradient                   ...        0 min,  0.040 sec
 * total energy  :   -31.0624581 Eh     change       -0.7303374E-04 Eh
   gradient norm :     0.0031562 Eh/α   predicted    -0.5331557E-04 ( -27.00%)
   displ. norm   :     0.0639945 α      lambda       -0.4817333E-04
   maximum displ.:     0.0448295 α      in ANC's #1, #2, #9, ...

........................................................................
.............................. CYCLE    5 ..............................
........................................................................

 iter      E             dE          RMSdq      gap      omega  full diag
   1    -31.3456016 -0.313456E+02  0.322E-02    5.04       0.0  T
   2    -31.3456030 -0.144886E-05  0.190E-02    5.03       1.3  T
   3    -31.3456030  0.425766E-08  0.585E-03    5.03       4.1  T
   4    -31.3456031 -0.619694E-07  0.123E-03    5.03      19.7  T
   5    -31.3456031 -0.139193E-07  0.470E-04    5.03      51.6  T
   6    -31.3456031 -0.182215E-09  0.113E-04    5.03     215.3  T
     SCC iter.                  ...        0 min,  0.081 sec
     gradient                   ...        0 min,  0.032 sec
 * total energy  :   -31.0624892 Eh     change       -0.3104040E-04 Eh
   gradient norm :     0.0015904 Eh/α   predicted    -0.2418694E-04 ( -22.08%)
   displ. norm   :     0.0727939 α      lambda       -0.1667737E-04
   maximum displ.:     0.0531614 α      in ANC's #1, #2, #9, ...

........................................................................
.............................. CYCLE    6 ..............................
........................................................................

 iter      E             dE          RMSdq      gap      omega  full diag
   1    -31.3455306 -0.313455E+02  0.360E-02    5.03       0.0  T
   2    -31.3455308 -0.224691E-06  0.214E-02    5.03       1.1  T
   3    -31.3455308  0.200458E-07  0.268E-03    5.03       9.0  T
   4    -31.3455308 -0.685606E-07  0.874E-04    5.03      27.7  T
   5    -31.3455308 -0.201864E-08  0.451E-04    5.03      53.8  T
     SCC iter.                  ...        0 min,  0.068 sec
     gradient                   ...        0 min,  0.035 sec
 * total energy  :   -31.0625052 Eh     change       -0.1601350E-04 Eh
   gradient norm :     0.0024338 Eh/α   predicted    -0.8358958E-05 ( -47.80%)
   displ. norm   :     0.0354785 α      lambda       -0.1079043E-04
   maximum displ.:     0.0252434 α      in ANC's #1, #2, #3, ...

........................................................................
.............................. CYCLE    7 ..............................
........................................................................

 iter      E             dE          RMSdq      gap      omega  full diag
   1    -31.3457124 -0.313457E+02  0.185E-02    5.03       0.0  T
   2    -31.3457125 -0.121158E-06  0.110E-02    5.03       2.2  T
   3    -31.3457125 -0.695172E-08  0.116E-03    5.03      20.8  T
   4    -31.3457125 -0.285659E-08  0.390E-04    5.03      62.2  T
   5    -31.3457125 -0.286583E-09  0.223E-04    5.03     108.5  T
     SCC iter.                  ...        0 min,  0.049 sec
     gradient                   ...        0 min,  0.028 sec
 * total energy  :   -31.0625143 Eh     change       -0.9117142E-05 Eh
   gradient norm :     0.0014992 Eh/α   predicted    -0.5400662E-05 ( -40.76%)
   displ. norm   :     0.1130098 α      lambda       -0.1778159E-04
   maximum displ.:     0.0746522 α      in ANC's #1, #2, #3, ...

........................................................................
.............................. CYCLE    8 ..............................
........................................................................

 iter      E             dE          RMSdq      gap      omega  full diag
   1    -31.3459180 -0.313459E+02  0.608E-02    5.03       0.0  T
   2    -31.3459188 -0.786149E-06  0.361E-02    5.03       1.0  T
   3    -31.3459188 -0.634172E-07  0.311E-03    5.04       7.8  T
   4    -31.3459189 -0.385197E-07  0.138E-03    5.04      17.5  T
   5    -31.3459189 -0.531738E-08  0.762E-04    5.04      31.8  T
   6    -31.3459189 -0.718028E-09  0.133E-04    5.04     181.7  T
     SCC iter.                  ...        0 min,  0.070 sec
     gradient                   ...        0 min,  0.032 sec
 * total energy  :   -31.0625298 Eh     change       -0.1550900E-04 Eh
   gradient norm :     0.0014301 Eh/α   predicted    -0.8941289E-05 ( -42.35%)
   displ. norm   :     0.0520118 α      lambda       -0.4592567E-05
   maximum displ.:     0.0346132 α      in ANC's #2, #1, #3, ...

........................................................................
.............................. CYCLE    9 ..............................
........................................................................

 iter      E             dE          RMSdq      gap      omega  full diag
   1    -31.3458534 -0.313459E+02  0.276E-02    5.03       0.0  T
   2    -31.3458535 -0.165918E-06  0.164E-02    5.03       1.5  T
   3    -31.3458535 -0.139963E-07  0.147E-03    5.03      16.5  T
   4    -31.3458535 -0.889116E-08  0.631E-04    5.03      38.4  T
   5    -31.3458535 -0.983153E-09  0.366E-04    5.03      66.3  T
     SCC iter.                  ...        0 min,  0.058 sec
     gradient                   ...        0 min,  0.033 sec
 * total energy  :   -31.0625342 Eh     change       -0.4370898E-05 Eh
   gradient norm :     0.0006785 Eh/α   predicted    -0.2299200E-05 ( -47.40%)
   displ. norm   :     0.0241425 α      lambda       -0.1663294E-05
   maximum displ.:     0.0196529 α      in ANC's #2, #1, #6, ...

........................................................................
.............................. CYCLE   10 ..............................
........................................................................

 iter      E             dE          RMSdq      gap      omega  full diag
   1    -31.3458821 -0.313459E+02  0.123E-02    5.03       0.0  T
   2    -31.3458822 -0.615967E-07  0.726E-03    5.03       3.3  T
   3    -31.3458822 -0.311211E-08  0.910E-04    5.03      26.6  T
   4    -31.3458822 -0.272685E-08  0.316E-04    5.03      76.8  T
     SCC iter.                  ...        0 min,  0.045 sec
     gradient                   ...        0 min,  0.034 sec
 * total energy  :   -31.0625358 Eh     change       -0.1565406E-05 Eh
   gradient norm :     0.0002761 Eh/α   predicted    -0.8306737E-06 ( -46.94%)
   displ. norm   :     0.0168534 α      lambda       -0.9612788E-06
   maximum displ.:     0.0132406 α      in ANC's #2, #7, #4, ...

........................................................................
.............................. CYCLE   11 ..............................
........................................................................

 iter      E             dE          RMSdq      gap      omega  full diag
   1    -31.3458748 -0.313459E+02  0.870E-03    5.03       0.0  T
   2    -31.3458748 -0.285671E-07  0.509E-03    5.03       4.8  T
   3    -31.3458748  0.367177E-09  0.810E-04    5.03      29.9  T
   4    -31.3458748 -0.408563E-08  0.247E-04    5.03      98.3  T
     SCC iter.                  ...        0 min,  0.039 sec
     gradient                   ...        0 min,  0.026 sec
 * total energy  :   -31.0625371 Eh     change       -0.1294332E-05 Eh
   gradient norm :     0.0004145 Eh/α   predicted    -0.4806326E-06 ( -62.87%)
   displ. norm   :     0.0555911 α      lambda       -0.3185275E-05
   maximum displ.:     0.0405821 α      in ANC's #2, #7, #4, ...

........................................................................
.............................. CYCLE   12 ..............................
........................................................................

 iter      E             dE          RMSdq      gap      omega  full diag
   1    -31.3458163 -0.313458E+02  0.276E-02    5.03       0.0  T
   2    -31.3458165 -0.209566E-06  0.161E-02    5.03       1.5  T
   3    -31.3458165 -0.328032E-08  0.216E-03    5.03      11.2  T
   4    -31.3458165 -0.316376E-07  0.760E-04    5.03      31.9  T
   5    -31.3458165 -0.180658E-08  0.418E-04    5.03      58.1  T
     SCC iter.                  ...        0 min,  0.047 sec
     gradient                   ...        0 min,  0.026 sec
 * total energy  :   -31.0625410 Eh     change       -0.3918261E-05 Eh
   gradient norm :     0.0007326 Eh/α   predicted    -0.1594955E-05 ( -59.29%)
   displ. norm   :     0.0997361 α      lambda       -0.4473794E-05
   maximum displ.:     0.0720649 α      in ANC's #2, #7, #4, ...

........................................................................
.............................. CYCLE   13 ..............................
........................................................................

 iter      E             dE          RMSdq      gap      omega  full diag
   1    -31.3455846 -0.313456E+02  0.489E-02    5.03       0.0  T
   2    -31.3455850 -0.453632E-06  0.286E-02    5.03       1.0  T
   3    -31.3455851 -0.480415E-07  0.292E-03    5.03       8.3  T
   4    -31.3455851 -0.507053E-07  0.127E-03    5.03      19.1  T
   5    -31.3455851 -0.372524E-08  0.678E-04    5.03      35.8  T
   6    -31.3455851 -0.662471E-09  0.130E-04    5.03     186.0  T
     SCC iter.                  ...        0 min,  0.057 sec
     gradient                   ...        0 min,  0.021 sec
 * total energy  :   -31.0625456 Eh     change       -0.4644705E-05 Eh
   gradient norm :     0.0012442 Eh/α   predicted    -0.2246411E-05 ( -51.64%)
   displ. norm   :     0.0937716 α      lambda       -0.3531693E-05
   maximum displ.:     0.0673417 α      in ANC's #2, #7, #4, ...

........................................................................
.............................. CYCLE   14 ..............................
........................................................................

 iter      E             dE          RMSdq      gap      omega  full diag
   1    -31.3455647 -0.313456E+02  0.425E-02    5.03       0.0  T
   2    -31.3455650 -0.258495E-06  0.249E-02    5.03       1.0  T
   3    -31.3455651 -0.482961E-07  0.224E-03    5.03      10.8  T
   4    -31.3455651 -0.279254E-07  0.112E-03    5.03      21.7  T
   5    -31.3455651 -0.239935E-08  0.544E-04    5.03      44.6  T
   6    -31.3455651 -0.471641E-09  0.108E-04    5.03     225.6  T
     SCC iter.                  ...        0 min,  0.044 sec
     gradient                   ...        0 min,  0.021 sec
 * total energy  :   -31.0625489 Eh     change       -0.3320136E-05 Eh
   gradient norm :     0.0011442 Eh/α   predicted    -0.1773231E-05 ( -46.59%)
   displ. norm   :     0.0587421 α      lambda       -0.3260661E-05
   maximum displ.:     0.0411875 α      in ANC's #2, #7, #4, ...

........................................................................
.............................. CYCLE   15 ..............................
........................................................................

 iter      E             dE          RMSdq      gap      omega  full diag
   1    -31.3458378 -0.313458E+02  0.261E-02    5.03       0.0  T
   2    -31.3458379 -0.687848E-07  0.154E-02    5.03       1.6  T
   3    -31.3458379 -0.161103E-07  0.133E-03    5.03      18.2  T
   4    -31.3458379 -0.121638E-07  0.678E-04    5.03      35.8  T
   5    -31.3458379 -0.637471E-09  0.253E-04    5.03      96.0  T
     SCC iter.                  ...        0 min,  0.047 sec
     gradient                   ...        0 min,  0.026 sec
 * total energy  :   -31.0625523 Eh     change       -0.3372324E-05 Eh
   gradient norm :     0.0003870 Eh/α   predicted    -0.1634097E-05 ( -51.54%)
   displ. norm   :     0.0901173 α      lambda       -0.2797074E-05
   maximum displ.:     0.0650588 α      in ANC's #2, #4, #7, ...

........................................................................
.............................. CYCLE   16 ..............................
........................................................................

 iter      E             dE          RMSdq      gap      omega  full diag
   1    -31.3456681 -0.313457E+02  0.351E-02    5.03       0.0  T
   2    -31.3456682 -0.918144E-07  0.207E-02    5.03       1.2  T
   3    -31.3456682 -0.508842E-07  0.139E-03    5.03      17.4  T
   4    -31.3456682 -0.793985E-09  0.556E-04    5.03      43.6  T
   5    -31.3456682 -0.123096E-08  0.183E-04    5.03     132.5  T
     SCC iter.                  ...        0 min,  0.047 sec
     gradient                   ...        0 min,  0.027 sec
 * total energy  :   -31.0625552 Eh     change       -0.2931161E-05 Eh
   gradient norm :     0.0006038 Eh/α   predicted    -0.1405432E-05 ( -52.05%)
   displ. norm   :     0.0778182 α      lambda       -0.3931315E-05
   maximum displ.:     0.0510094 α      in ANC's #2, #4, #1, ...

........................................................................
.............................. CYCLE   17 ..............................
........................................................................

 iter      E             dE          RMSdq      gap      omega  full diag
   1    -31.3459502 -0.313460E+02  0.265E-02    5.04       0.0  T
   2    -31.3459504 -0.160489E-06  0.156E-02    5.04       1.6  T
   3    -31.3459504 -0.925798E-08  0.191E-03    5.04      12.7  T
   4    -31.3459504 -0.261462E-07  0.772E-04    5.04      31.4  T
   5    -31.3459504 -0.142737E-08  0.400E-04    5.04      60.7  T
     SCC iter.                  ...        0 min,  0.047 sec
     gradient                   ...        0 min,  0.026 sec
 * total energy  :   -31.0625591 Eh     change       -0.3821375E-05 Eh
   gradient norm :     0.0011705 Eh/α   predicted    -0.1972394E-05 ( -48.39%)
   displ. norm   :     0.1494928 α      lambda       -0.4997093E-05
   maximum displ.:     0.1058987 α      in ANC's #2, #4, #7, ...

........................................................................
.............................. CYCLE   18 ..............................
........................................................................

 iter      E             dE          RMSdq      gap      omega  full diag
   1    -31.3452749 -0.313453E+02  0.565E-02    5.03       0.0  T
   2    -31.3452751 -0.255978E-06  0.334E-02    5.03       1.0  T
   3    -31.3452752 -0.115294E-06  0.250E-03    5.03       9.7  T
   4    -31.3452753 -0.204737E-07  0.146E-03    5.03      16.6  T
   5    -31.3452753 -0.306933E-08  0.365E-04    5.03      66.4  T
   6    -31.3452753 -0.300023E-09  0.135E-04    5.03     179.4  T
     SCC iter.                  ...        0 min,  0.076 sec
     gradient                   ...        0 min,  0.034 sec
 * total energy  :   -31.0625637 Eh     change       -0.4599540E-05 Eh
   gradient norm :     0.0017387 Eh/α   predicted    -0.2522636E-05 ( -45.15%)
   displ. norm   :     0.1199588 α      lambda       -0.1015357E-04
   maximum displ.:     0.0693124 α      in ANC's #2, #4, #1, ...

........................................................................
.............................. CYCLE   19 ..............................
........................................................................

 iter      E             dE          RMSdq      gap      omega  full diag
   1    -31.3452509 -0.313453E+02  0.518E-02    5.03       0.0  T
   2    -31.3452511 -0.196590E-06  0.305E-02    5.03       1.0  T
   3    -31.3452512 -0.867080E-07  0.209E-03    5.03      11.6  T
   4    -31.3452512 -0.149887E-07  0.128E-03    5.03      19.0  T
   5    -31.3452512 -0.220014E-08  0.392E-04    5.03      61.9  T
   6    -31.3452512 -0.455881E-09  0.827E-05    5.03     293.3  T
     SCC iter.                  ...        0 min,  0.085 sec
     gradient                   ...        0 min,  0.033 sec
 * total energy  :   -31.0625763 Eh     change       -0.1266420E-04 Eh
   gradient norm :     0.0018414 Eh/α   predicted    -0.5110113E-05 ( -59.65%)
   displ. norm   :     0.2028597 α      lambda       -0.2197753E-04
   maximum displ.:     0.1160287 α      in ANC's #1, #2, #4, ...

........................................................................
.............................. CYCLE   20 ..............................
........................................................................

 iter      E             dE          RMSdq      gap      omega  full diag
   1    -31.3454596 -0.313455E+02  0.947E-02    5.04       0.0  T
   2    -31.3454602 -0.587714E-06  0.557E-02    5.03       1.0  T
   3    -31.3454604 -0.286637E-06  0.369E-03    5.03       6.6  T
   4    -31.3454605 -0.411190E-07  0.222E-03    5.03      10.9  T
   5    -31.3454605 -0.701966E-08  0.601E-04    5.03      40.4  T
   6    -31.3454605 -0.745171E-09  0.172E-04    5.03     141.2  T
     SCC iter.                  ...        0 min,  0.069 sec
     gradient                   ...        0 min,  0.034 sec
 * total energy  :   -31.0626010 Eh     change       -0.2467813E-04 Eh
   gradient norm :     0.0019456 Eh/α   predicted    -0.1118933E-04 ( -54.66%)
   displ. norm   :     0.2515356 α      lambda       -0.1843510E-04
   maximum displ.:     0.1586688 α      in ANC's #2, #1, #4, ...
 * RMSD in coord.:     0.3222405 α      energy gain  -0.5254179E-02 Eh

generating ANC from exact Hessian ...
Using Lindh-Hessian (1995)
 Shifting diagonal of input Hessian by    8.6272337829792715E-003
 Lowest  eigenvalues of input Hessian
    0.000000    0.000000    0.000000    0.000000    0.000000    0.000000
    0.010000    0.010972    0.012764    0.015349    0.020493    0.026949
    0.031693    0.034537    0.036257    0.042286    0.048407    0.065978
 Highest eigenvalues
    1.277631    1.323253    1.763802    1.814476    2.370335    2.386504


........................................................................
.............................. CYCLE   21 ..............................
........................................................................

 iter      E             dE          RMSdq      gap      omega  full diag
   1    -31.3439164 -0.313439E+02  0.100E-01    5.02       0.0  T
   2    -31.3439173 -0.875839E-06  0.592E-02    5.02       1.0  T
   3    -31.3439175 -0.219402E-06  0.537E-03    5.02       4.5  T
   4    -31.3439177 -0.221327E-06  0.271E-03    5.02       9.0  T
   5    -31.3439177 -0.692016E-08  0.753E-04    5.02      32.2  T
   6    -31.3439177 -0.896016E-09  0.209E-04    5.02     116.0  T
     SCC iter.                  ...        0 min,  0.059 sec
     gradient                   ...        0 min,  0.027 sec
 * total energy  :   -31.0626114 Eh     change       -0.1039906E-04 Eh
   gradient norm :     0.0045927 Eh/α   predicted     0.0000000E+00 (-100.00%)
   displ. norm   :     0.0230754 α      lambda       -0.3724394E-04
   maximum displ.:     0.0145051 α      in ANC's #2, #1, #4, ...

........................................................................
.............................. CYCLE   22 ..............................
........................................................................

 iter      E             dE          RMSdq      gap      omega  full diag
   1    -31.3456791 -0.313457E+02  0.154E-02    5.03       0.0  T
   2    -31.3456795 -0.366271E-06  0.892E-03    5.03       2.7  T
   3    -31.3456795  0.904767E-08  0.368E-03    5.03       6.6  T
   4    -31.3456795 -0.564191E-07  0.528E-04    5.03      46.0  T
   5    -31.3456795 -0.830649E-09  0.293E-04    5.03      82.7  T
     SCC iter.                  ...        0 min,  0.049 sec
     gradient                   ...        0 min,  0.032 sec
 * total energy  :   -31.0626349 Eh     change       -0.2346996E-04 Eh
   gradient norm :     0.0010673 Eh/α   predicted    -0.1863043E-04 ( -20.62%)
   displ. norm   :     0.0383174 α      lambda       -0.7665518E-05
   maximum displ.:     0.0258272 α      in ANC's #1, #2, #4, ...

........................................................................
.............................. CYCLE   23 ..............................
........................................................................

 iter      E             dE          RMSdq      gap      omega  full diag
   1    -31.3464873 -0.313465E+02  0.190E-02    5.04       0.0  T
   2    -31.3464875 -0.141757E-06  0.111E-02    5.04       2.2  T
   3    -31.3464874  0.317988E-07  0.248E-03    5.04       9.8  T
   4    -31.3464875 -0.543633E-07  0.402E-04    5.04      60.3  T
   5    -31.3464875 -0.567159E-09  0.222E-04    5.04     109.4  T
     SCC iter.                  ...        0 min,  0.066 sec
     gradient                   ...        0 min,  0.041 sec
 * total energy  :   -31.0626416 Eh     change       -0.6774794E-05 Eh
   gradient norm :     0.0011211 Eh/α   predicted    -0.3836012E-05 ( -43.38%)
   displ. norm   :     0.0345005 α      lambda       -0.4158748E-05
   maximum displ.:     0.0231348 α      in ANC's #2, #1, #3, ...

........................................................................
.............................. CYCLE   24 ..............................
........................................................................

 iter      E             dE          RMSdq      gap      omega  full diag
   1    -31.3463128 -0.313463E+02  0.163E-02    5.04       0.0  T
   2    -31.3463129 -0.490326E-07  0.955E-03    5.04       2.5  T
   3    -31.3463129 -0.464433E-08  0.713E-04    5.04      34.0  T
   4    -31.3463129 -0.281246E-08  0.318E-04    5.04      76.2  T
     SCC iter.                  ...        0 min,  0.047 sec
     gradient                   ...        0 min,  0.037 sec
 * total energy  :   -31.0626471 Eh     change       -0.5472583E-05 Eh
   gradient norm :     0.0008055 Eh/α   predicted    -0.2079602E-05 ( -62.00%)
   displ. norm   :     0.0685586 α      lambda       -0.7467217E-05
   maximum displ.:     0.0443494 α      in ANC's #1, #2, #3, ...

........................................................................
.............................. CYCLE   25 ..............................
........................................................................

 iter      E             dE          RMSdq      gap      omega  full diag
   1    -31.3458536 -0.313459E+02  0.344E-02    5.03       0.0  T
   2    -31.3458538 -0.180178E-06  0.202E-02    5.03       1.2  T
   3    -31.3458538 -0.307905E-07  0.147E-03    5.03      16.5  T
   4    -31.3458538 -0.101775E-07  0.747E-04    5.03      32.5  T
   5    -31.3458538 -0.952440E-09  0.421E-04    5.03      57.7  T
     SCC iter.                  ...        0 min,  0.060 sec
     gradient                   ...        0 min,  0.027 sec
 * total energy  :   -31.0626561 Eh     change       -0.8955855E-05 Eh
   gradient norm :     0.0007912 Eh/α   predicted    -0.3741089E-05 ( -58.23%)
   displ. norm   :     0.1165559 α      lambda       -0.9828980E-05
   maximum displ.:     0.0749197 α      in ANC's #2, #1, #3, ...

........................................................................
.............................. CYCLE   26 ..............................
........................................................................

 iter      E             dE          RMSdq      gap      omega  full diag
   1    -31.3453375 -0.313453E+02  0.566E-02    5.03       0.0  T
   2    -31.3453379 -0.453782E-06  0.332E-02    5.03       1.0  T
   3    -31.3453380 -0.855790E-07  0.269E-03    5.02       9.0  T
   4    -31.3453380 -0.447002E-07  0.137E-03    5.03      17.8  T
   5    -31.3453380 -0.362800E-08  0.749E-04    5.02      32.4  T
   6    -31.3453380 -0.106659E-08  0.122E-04    5.02     198.5  T
     SCC iter.                  ...        0 min,  0.055 sec
     gradient                   ...        0 min,  0.026 sec
 * total energy  :   -31.0626674 Eh     change       -0.1129240E-04 Eh
   gradient norm :     0.0017331 Eh/α   predicted    -0.4943034E-05 ( -56.23%)
   displ. norm   :     0.2319969 α      lambda       -0.1617344E-04
   maximum displ.:     0.1463086 α      in ANC's #2, #1, #3, ...

........................................................................
.............................. CYCLE   27 ..............................
........................................................................

 iter      E             dE          RMSdq      gap      omega  full diag
   1    -31.3442307 -0.313442E+02  0.115E-01    5.01       0.0  T
   2    -31.3442324 -0.167012E-05  0.676E-02    5.01       1.0  T
   3    -31.3442326 -0.224246E-06  0.651E-03    5.00       3.7  T
   4    -31.3442330 -0.366947E-06  0.291E-03    5.01       8.3  T
   5    -31.3442330 -0.124158E-07  0.147E-03    5.01      16.5  T
   6    -31.3442330 -0.351189E-08  0.255E-04    5.01      95.0  T
   7    -31.3442330 -0.138368E-09  0.108E-04    5.01     224.1  T
     SCC iter.                  ...        0 min,  0.071 sec
     gradient                   ...        0 min,  0.032 sec
 * total energy  :   -31.0626788 Eh     change       -0.1147544E-04 Eh
   gradient norm :     0.0046942 Eh/α   predicted    -0.8277455E-05 ( -27.87%)
   displ. norm   :     0.0317246 α      lambda       -0.1443499E-04
   maximum displ.:     0.0180971 α      in ANC's #1, #2, #9, ...

........................................................................
.............................. CYCLE   28 ..............................
........................................................................

 iter      E             dE          RMSdq      gap      omega  full diag
   1    -31.3446454 -0.313446E+02  0.152E-02    5.01       0.0  T
   2    -31.3446455 -0.950330E-07  0.894E-03    5.01       2.7  T
   3    -31.3446455  0.983254E-08  0.180E-03    5.01      13.5  T
   4    -31.3446455 -0.287769E-07  0.472E-04    5.01      51.4  T
   5    -31.3446455 -0.339313E-09  0.276E-04    5.01      87.9  T
     SCC iter.                  ...        0 min,  0.048 sec
     gradient                   ...        0 min,  0.028 sec
 * total energy  :   -31.0626918 Eh     change       -0.1293780E-04 Eh
   gradient norm :     0.0032603 Eh/α   predicted    -0.7224876E-05 ( -44.16%)
   displ. norm   :     0.2684157 α      lambda       -0.7169686E-04
   maximum displ.:     0.1601863 α      in ANC's #2, #1, #9, ...

........................................................................
.............................. CYCLE   29 ..............................
........................................................................

 iter      E             dE          RMSdq      gap      omega  full diag
   1    -31.3453147 -0.313453E+02  0.135E-01    5.02       0.0  T
   2    -31.3453165 -0.172453E-05  0.791E-02    5.02       1.0  T
   3    -31.3453173 -0.824823E-06  0.556E-03    5.02       4.4  T
   4    -31.3453173 -0.413996E-07  0.328E-03    5.02       7.4  T
   5    -31.3453173 -0.999250E-08  0.110E-03    5.02      22.1  T
   6    -31.3453173 -0.497887E-08  0.303E-04    5.02      80.0  T
   7    -31.3453173 -0.212317E-09  0.961E-05    5.02     252.4  T
     SCC iter.                  ...        0 min,  0.066 sec
     gradient                   ...        0 min,  0.029 sec
 * total energy  :   -31.0627507 Eh     change       -0.5890901E-04 Eh
   gradient norm :     0.0021668 Eh/α   predicted    -0.3843415E-04 ( -34.76%)
   displ. norm   :     0.4875549 α      lambda       -0.1016262E-03
   maximum displ.:     0.2973791 α      in ANC's #2, #1, #9, ...

........................................................................
.............................. CYCLE   30 ..............................
........................................................................

 iter      E             dE          RMSdq      gap      omega  full diag
   1    -31.3421170 -0.313421E+02  0.252E-01    4.95       0.0  T
   2    -31.3421253 -0.830887E-05  0.148E-01    4.96       1.0  T
   3    -31.3421253  0.624117E-07  0.189E-02    4.96       1.3  T
   4    -31.3421290 -0.375427E-05  0.729E-03    4.96       3.3  T
   5    -31.3421291 -0.414265E-07  0.216E-03    4.96      11.2  T
   6    -31.3421291 -0.119017E-07  0.619E-04    4.96      39.2  T
   7    -31.3421291 -0.835932E-09  0.197E-04    4.96     123.0  T
     SCC iter.                  ...        0 min,  0.081 sec
     gradient                   ...        0 min,  0.030 sec
 * total energy  :   -31.0627575 Eh     change       -0.6846823E-05 Eh
   gradient norm :     0.0121602 Eh/α   predicted    -0.6289543E-04 ( 818.61%)
   displ. norm   :     0.1533360 α      lambda       -0.2188055E-03
   maximum displ.:     0.0954180 α      in ANC's #1, #2, #3, ...

........................................................................
.............................. CYCLE   31 ..............................
........................................................................

 iter      E             dE          RMSdq      gap      omega  full diag
   1    -31.3470062 -0.313470E+02  0.827E-02    5.04       0.0  T
   2    -31.3470166 -0.103341E-04  0.491E-02    5.03       1.0  T
   3    -31.3470165  0.635082E-07  0.213E-02    5.03       1.1  T
   4    -31.3470185 -0.195637E-05  0.252E-03    5.03       9.6  T
   5    -31.3470185 -0.125911E-07  0.158E-03    5.03      15.4  T
   6    -31.3470185 -0.292707E-08  0.435E-04    5.03      55.8  T
   7    -31.3470185 -0.524643E-09  0.165E-04    5.03     147.0  T
     SCC iter.                  ...        0 min,  0.054 sec
     gradient                   ...        0 min,  0.027 sec
 * total energy  :   -31.0628226 Eh     change       -0.6507894E-04 Eh
   gradient norm :     0.0033369 Eh/α   predicted    -0.1119770E-03 (  72.06%)
   displ. norm   :     0.1064188 α      lambda       -0.4363559E-04
   maximum displ.:     0.0785869 α      in ANC's #2, #1, #9, ...

........................................................................
.............................. CYCLE   32 ..............................
........................................................................

 iter      E             dE          RMSdq      gap      omega  full diag
   1    -31.3458453 -0.313458E+02  0.549E-02    5.01       0.0  T
   2    -31.3458460 -0.707548E-06  0.324E-02    5.01       1.0  T
   3    -31.3458458  0.144285E-06  0.566E-03    5.01       4.3  T
   4    -31.3458462 -0.356346E-06  0.155E-03    5.01      15.7  T
   5    -31.3458462 -0.242009E-08  0.817E-04    5.01      29.7  T
   6    -31.3458462 -0.818670E-09  0.120E-04    5.01     202.4  T
     SCC iter.                  ...        0 min,  0.065 sec
     gradient                   ...        0 min,  0.029 sec
 * total energy  :   -31.0628558 Eh     change       -0.3317815E-04 Eh
   gradient norm :     0.0022363 Eh/α   predicted    -0.2206598E-04 ( -33.49%)
   displ. norm   :     0.2770809 α      lambda       -0.5645216E-04
   maximum displ.:     0.1991478 α      in ANC's #2, #1, #9, ...

........................................................................
.............................. CYCLE   33 ..............................
........................................................................

 iter      E             dE          RMSdq      gap      omega  full diag
   1    -31.3433455 -0.313433E+02  0.147E-01    4.97       0.0  T
   2    -31.3433481 -0.260217E-05  0.868E-02    4.97       1.0  T
   3    -31.3433482 -0.725102E-07  0.105E-02    4.97       2.3  T
   4    -31.3433494 -0.114062E-05  0.418E-03    4.97       5.8  T
   5    -31.3433494 -0.136002E-07  0.109E-03    4.97      22.2  T
   6    -31.3433494 -0.339515E-08  0.297E-04    4.97      81.7  T
   7    -31.3433494 -0.183203E-09  0.107E-04    4.97     227.1  T
     SCC iter.                  ...        0 min,  0.077 sec
     gradient                   ...        0 min,  0.032 sec
 * total energy  :   -31.0628729 Eh     change       -0.1707719E-04 Eh
   gradient norm :     0.0085892 Eh/α   predicted    -0.3039429E-04 (  77.98%)
   displ. norm   :     0.0705776 α      lambda       -0.4961735E-04
   maximum displ.:     0.0363014 α      in ANC's #1, #9, #3, ...

........................................................................
.............................. CYCLE   34 ..............................
........................................................................

 iter      E             dE          RMSdq      gap      omega  full diag
   1    -31.3450647 -0.313451E+02  0.396E-02    5.00       0.0  T
   2    -31.3450658 -0.106345E-05  0.235E-02    4.99       1.0  T
   3    -31.3450656  0.195732E-06  0.767E-03    5.00       3.2  T
   4    -31.3450660 -0.435000E-06  0.125E-03    4.99      19.4  T
   5    -31.3450660 -0.137728E-08  0.685E-04    4.99      35.4  T
   6    -31.3450660 -0.636920E-09  0.134E-04    4.99     180.9  T
     SCC iter.                  ...        0 min,  0.062 sec
     gradient                   ...        0 min,  0.027 sec
 * total energy  :   -31.0629021 Eh     change       -0.2920628E-04 Eh
   gradient norm :     0.0038105 Eh/α   predicted    -0.2493396E-04 ( -14.63%)
   displ. norm   :     0.0977751 α      lambda       -0.3654561E-04
   maximum displ.:     0.0817816 α      in ANC's #2, #1, #9, ...

........................................................................
.............................. CYCLE   35 ..............................
........................................................................

 iter      E             dE          RMSdq      gap      omega  full diag
   1    -31.3455388 -0.313455E+02  0.575E-02    5.00       0.0  T
   2    -31.3455396 -0.735813E-06  0.338E-02    5.00       1.0  T
   3    -31.3455394  0.140768E-06  0.575E-03    5.00       4.2  T
   4    -31.3455398 -0.349542E-06  0.156E-03    5.00      15.6  T
   5    -31.3455398 -0.299903E-08  0.820E-04    5.00      29.6  T
   6    -31.3455398 -0.669974E-09  0.117E-04    5.00     206.6  T
     SCC iter.                  ...        0 min,  0.057 sec
     gradient                   ...        0 min,  0.026 sec
 * total energy  :   -31.0629337 Eh     change       -0.3164787E-04 Eh
   gradient norm :     0.0025059 Eh/α   predicted    -0.1844860E-04 ( -41.71%)
   displ. norm   :     0.3981562 α      lambda       -0.1067465E-03
   maximum displ.:     0.3239675 α      in ANC's #2, #1, #9, ...

........................................................................
.............................. CYCLE   36 ..............................
........................................................................

 iter      E             dE          RMSdq      gap      omega  full diag
   1    -31.3438358 -0.313438E+02  0.224E-01    4.97       0.0  T
   2    -31.3438408 -0.498502E-05  0.132E-01    4.97       1.0  T
   3    -31.3438424 -0.163499E-05  0.102E-02    4.97       2.4  T
   4    -31.3438430 -0.564686E-06  0.581E-03    4.96       4.2  T
   5    -31.3438431 -0.497388E-07  0.254E-03    4.97       9.6  T
   6    -31.3438431 -0.133389E-07  0.368E-04    4.97      65.9  T
   7    -31.3438431 -0.336353E-09  0.161E-04    4.97     151.0  T
     SCC iter.                  ...        0 min,  0.079 sec
     gradient                   ...        0 min,  0.031 sec
 * total energy  :   -31.0630050 Eh     change       -0.7130634E-04 Eh
   gradient norm :     0.0067709 Eh/α   predicted    -0.6183092E-04 ( -13.29%)
   displ. norm   :     0.1567048 α      lambda       -0.6524711E-04
   maximum displ.:     0.1313720 α      in ANC's #2, #5, #9, ...

........................................................................
.............................. CYCLE   37 ..............................
........................................................................

 iter      E             dE          RMSdq      gap      omega  full diag
   1    -31.3446253 -0.313446E+02  0.871E-02    4.96       0.0  T
   2    -31.3446272 -0.190859E-05  0.512E-02    4.96       1.0  T
   3    -31.3446272 -0.436742E-07  0.653E-03    4.97       3.7  T
   4    -31.3446276 -0.345630E-06  0.237E-03    4.96      10.2  T
   5    -31.3446276 -0.155402E-07  0.135E-03    4.96      18.0  T
   6    -31.3446276 -0.204034E-08  0.199E-04    4.96     121.8  T
   7    -31.3446276 -0.701768E-10  0.525E-05    4.96     461.6  T
     SCC iter.                  ...        0 min,  0.065 sec
     gradient                   ...        0 min,  0.028 sec
 * total energy  :   -31.0630495 Eh     change       -0.4443996E-04 Eh
   gradient norm :     0.0056885 Eh/α   predicted    -0.3342397E-04 ( -24.79%)
   displ. norm   :     0.2736908 α      lambda       -0.6796065E-04
   maximum displ.:     0.2348417 α      in ANC's #2, #1, #5, ...

........................................................................
.............................. CYCLE   38 ..............................
........................................................................

 iter      E             dE          RMSdq      gap      omega  full diag
   1    -31.3440648 -0.313441E+02  0.155E-01    4.94       0.0  T
   2    -31.3440670 -0.214696E-05  0.913E-02    4.94       1.0  T
   3    -31.3440679 -0.925462E-06  0.566E-03    4.94       4.3  T
   4    -31.3440680 -0.454179E-07  0.351E-03    4.94       6.9  T
   5    -31.3440680 -0.782453E-08  0.129E-03    4.94      18.8  T
   6    -31.3440680 -0.838020E-08  0.237E-04    4.94     102.5  T
   7    -31.3440680 -0.144571E-09  0.869E-05    4.94     279.2  T
     SCC iter.                  ...        0 min,  0.077 sec
     gradient                   ...        0 min,  0.034 sec
 * total energy  :   -31.0630924 Eh     change       -0.4296985E-04 Eh
   gradient norm :     0.0071308 Eh/α   predicted    -0.3652955E-04 ( -14.99%)
   displ. norm   :     0.1671099 α      lambda       -0.1169388E-03
   maximum displ.:     0.1487370 α      in ANC's #2, #5, #32, ...

........................................................................
.............................. CYCLE   39 ..............................
........................................................................

 iter      E             dE          RMSdq      gap      omega  full diag
   1    -31.3489915 -0.313490E+02  0.937E-02    4.98       0.0  T
   2    -31.3489983 -0.679881E-05  0.551E-02    4.97       1.0  T
   3    -31.3489974  0.942432E-06  0.174E-02    4.98       1.4  T
   4    -31.3489994 -0.203241E-05  0.248E-03    4.97       9.8  T
   5    -31.3489994 -0.111749E-07  0.153E-03    4.97      15.8  T
   6    -31.3489994 -0.202749E-08  0.336E-04    4.97      72.1  T
   7    -31.3489994 -0.331877E-09  0.109E-04    4.97     221.5  T
     SCC iter.                  ...        0 min,  0.088 sec
     gradient                   ...        0 min,  0.035 sec
 * total energy  :   -31.0630928 Eh     change       -0.3740298E-06 Eh
   gradient norm :     0.0073370 Eh/α   predicted    -0.6010310E-04 (*******%)
   displ. norm   :     0.3262033 α      lambda       -0.1515974E-03
   maximum displ.:     0.2706430 α      in ANC's #2, #1, #9, ...

........................................................................
.............................. CYCLE   40 ..............................
........................................................................

 iter      E             dE          RMSdq      gap      omega  full diag
   1    -31.3441862 -0.313442E+02  0.174E-01    4.90       0.0  T
   2    -31.3441928 -0.654371E-05  0.102E-01    4.91       1.0  T
   3    -31.3441915  0.131641E-05  0.173E-02    4.91       1.4  T
   4    -31.3441949 -0.339159E-05  0.489E-03    4.91       5.0  T
   5    -31.3441949 -0.198800E-07  0.239E-03    4.91      10.2  T
   6    -31.3441949 -0.678744E-08  0.439E-04    4.91      55.2  T
   7    -31.3441949 -0.635659E-09  0.166E-04    4.91     146.2  T
     SCC iter.                  ...        0 min,  0.082 sec
     gradient                   ...        0 min,  0.034 sec
 * total energy  :   -31.0631554 Eh     change       -0.6254311E-04 Eh
   gradient norm :     0.0074058 Eh/α   predicted    -0.8386110E-04 (  34.09%)
   displ. norm   :     0.1216571 α      lambda       -0.6077193E-04
   maximum displ.:     0.1130918 α      in ANC's #2, #1, #6, ...

........................................................................
.............................. CYCLE   41 ..............................
........................................................................

 iter      E             dE          RMSdq      gap      omega  full diag
   1    -31.3459937 -0.313460E+02  0.655E-02    4.94       0.0  T
   2    -31.3459964 -0.270121E-05  0.387E-02    4.94       1.0  T
   3    -31.3459960  0.393625E-06  0.104E-02    4.94       2.3  T
   4    -31.3459969 -0.808973E-06  0.190E-03    4.94      12.8  T
   5    -31.3459969 -0.143160E-07  0.110E-03    4.94      22.0  T
   6    -31.3459969 -0.119588E-08  0.137E-04    4.94     176.6  T
   7    -31.3459969 -0.652101E-10  0.706E-05    4.94     343.5  T
     SCC iter.                  ...        0 min,  0.087 sec
     gradient                   ...        0 min,  0.041 sec
 * total energy  :   -31.0631784 Eh     change       -0.2307316E-04 Eh
   gradient norm :     0.0032402 Eh/α   predicted    -0.3083433E-04 (  33.64%)
   displ. norm   :     0.1453614 α      lambda       -0.2486464E-04
   maximum displ.:     0.1208940 α      in ANC's #2, #1, #5, ...

........................................................................
.............................. CYCLE   42 ..............................
........................................................................

 iter      E             dE          RMSdq      gap      omega  full diag
   1    -31.3454784 -0.313455E+02  0.760E-02    4.93       0.0  T
   2    -31.3454790 -0.521887E-06  0.446E-02    4.93       1.0  T
   3    -31.3454792 -0.192979E-06  0.334E-03    4.93       7.3  T
   4    -31.3454792 -0.560951E-07  0.191E-03    4.93      12.7  T
   5    -31.3454792 -0.535444E-08  0.802E-04    4.93      30.3  T
   6    -31.3454792 -0.112255E-08  0.115E-04    4.93     211.5  T
     SCC iter.                  ...        0 min,  0.081 sec
     gradient                   ...        0 min,  0.038 sec
 * total energy  :   -31.0631989 Eh     change       -0.2048245E-04 Eh
   gradient norm :     0.0032280 Eh/α   predicted    -0.1269633E-04 ( -38.01%)
   displ. norm   :     0.4042266 α      lambda       -0.7446221E-04
   maximum displ.:     0.3348892 α      in ANC's #2, #1, #5, ...
 * RMSD in coord.:     0.7684564 α      energy gain  -0.5979111E-03 Eh

generating ANC from exact Hessian ...
Using Lindh-Hessian (1995)
 Shifting diagonal of input Hessian by    8.7707544987710266E-003
 Lowest  eigenvalues of input Hessian
    0.000000    0.000000    0.000000    0.000000    0.000000    0.000000
    0.010000    0.010955    0.012928    0.014966    0.023740    0.026539
    0.029356    0.035569    0.036019    0.042271    0.045642    0.066906
 Highest eigenvalues
    1.269656    1.333069    1.759692    1.809015    2.357008    2.380925


........................................................................
.............................. CYCLE   43 ..............................
........................................................................

 iter      E             dE          RMSdq      gap      omega  full diag
   1    -31.3430862 -0.313431E+02  0.203E-01    4.89       0.0  T
   2    -31.3430906 -0.441941E-05  0.119E-01    4.89       1.0  T
   3    -31.3430911 -0.466529E-06  0.126E-02    4.89       1.9  T
   4    -31.3430926 -0.157039E-05  0.534E-03    4.89       4.5  T
   5    -31.3430927 -0.300203E-07  0.198E-03    4.89      12.2  T
   6    -31.3430927 -0.533874E-08  0.325E-04    4.89      74.5  T
   7    -31.3430927 -0.218030E-09  0.134E-04    4.89     180.3  T
     SCC iter.                  ...        0 min,  0.081 sec
     gradient                   ...        0 min,  0.033 sec
 * total energy  :   -31.0632119 Eh     change       -0.1298290E-04 Eh
   gradient norm :     0.0096492 Eh/α   predicted     0.0000000E+00 (-100.00%)
   displ. norm   :     0.0356939 α      lambda       -0.1189801E-03
   maximum displ.:     0.0214287 α      in ANC's #3, #6, #7, ...

........................................................................
.............................. CYCLE   44 ..............................
........................................................................

 iter      E             dE          RMSdq      gap      omega  full diag
   1    -31.3461056 -0.313461E+02  0.332E-02    4.92       0.0  T
   2    -31.3461075 -0.193784E-05  0.200E-02    4.92       1.2  T
   3    -31.3461075 -0.319852E-07  0.921E-03    4.92       2.6  T
   4    -31.3461079 -0.330116E-06  0.110E-03    4.92      22.1  T
   5    -31.3461079 -0.188812E-08  0.648E-04    4.92      37.4  T
   6    -31.3461079 -0.551108E-09  0.187E-04    4.92     129.7  T
     SCC iter.                  ...        0 min,  0.062 sec
     gradient                   ...        0 min,  0.026 sec
 * total energy  :   -31.0632886 Eh     change       -0.7666660E-04 Eh
   gradient norm :     0.0026118 Eh/α   predicted    -0.5956593E-04 ( -22.31%)
   displ. norm   :     0.0454881 α      lambda       -0.3553864E-04
   maximum displ.:     0.0311949 α      in ANC's #3, #6, #2, ...

........................................................................
.............................. CYCLE   45 ..............................
........................................................................

 iter      E             dE          RMSdq      gap      omega  full diag
   1    -31.3471662 -0.313472E+02  0.330E-02    4.93       0.0  T
   2    -31.3471669 -0.734080E-06  0.196E-02    4.93       1.2  T
   3    -31.3471668  0.101883E-06  0.561E-03    4.93       4.3  T
   4    -31.3471671 -0.218869E-06  0.989E-04    4.93      24.5  T
   5    -31.3471671 -0.317787E-08  0.565E-04    4.93      42.9  T
     SCC iter.                  ...        0 min,  0.062 sec
     gradient                   ...        0 min,  0.034 sec
 * total energy  :   -31.0633152 Eh     change       -0.2668711E-04 Eh
   gradient norm :     0.0017634 Eh/α   predicted    -0.1780525E-04 ( -33.28%)
   displ. norm   :     0.1398433 α      lambda       -0.4388091E-04
   maximum displ.:     0.0955798 α      in ANC's #3, #2, #6, ...

........................................................................
.............................. CYCLE   46 ..............................
........................................................................

 iter      E             dE          RMSdq      gap      omega  full diag
   1    -31.3475616 -0.313476E+02  0.963E-02    4.93       0.0  T
   2    -31.3475645 -0.288368E-05  0.573E-02    4.92       1.0  T
   3    -31.3475646 -0.105168E-06  0.745E-03    4.92       3.3  T
   4    -31.3475649 -0.360370E-06  0.277E-03    4.92       8.8  T
   5    -31.3475650 -0.275697E-07  0.157E-03    4.92      15.4  T
   6    -31.3475650 -0.233027E-08  0.231E-04    4.92     105.0  T
   7    -31.3475650 -0.196625E-09  0.904E-05    4.92     268.1  T
     SCC iter.                  ...        0 min,  0.081 sec
     gradient                   ...        0 min,  0.034 sec
 * total energy  :   -31.0633589 Eh     change       -0.4366125E-04 Eh
   gradient norm :     0.0031168 Eh/α   predicted    -0.2213128E-04 ( -49.31%)
   displ. norm   :     0.0979170 α      lambda       -0.3341904E-04
   maximum displ.:     0.0638065 α      in ANC's #3, #2, #7, ...

........................................................................
.............................. CYCLE   47 ..............................
........................................................................

 iter      E             dE          RMSdq      gap      omega  full diag
   1    -31.3468878 -0.313469E+02  0.603E-02    4.91       0.0  T
   2    -31.3468883 -0.475927E-06  0.357E-02    4.91       1.0  T
   3    -31.3468883 -0.526828E-07  0.419E-03    4.91       5.8  T
   4    -31.3468885 -0.167016E-06  0.181E-03    4.91      13.4  T
   5    -31.3468885 -0.258486E-08  0.546E-04    4.91      44.4  T
   6    -31.3468885 -0.380926E-09  0.113E-04    4.91     215.3  T
     SCC iter.                  ...        0 min,  0.068 sec
     gradient                   ...        0 min,  0.035 sec
 * total energy  :   -31.0633851 Eh     change       -0.2619237E-04 Eh
   gradient norm :     0.0029210 Eh/α   predicted    -0.1686836E-04 ( -35.60%)
   displ. norm   :     0.1421149 α      lambda       -0.3637664E-04
   maximum displ.:     0.0868053 α      in ANC's #3, #2, #7, ...

........................................................................
.............................. CYCLE   48 ..............................
........................................................................

 iter      E             dE          RMSdq      gap      omega  full diag
   1    -31.3456624 -0.313457E+02  0.842E-02    4.89       0.0  T
   2    -31.3456639 -0.147177E-05  0.496E-02    4.89       1.0  T
   3    -31.3456636  0.244254E-06  0.854E-03    4.89       2.8  T
   4    -31.3456644 -0.776961E-06  0.256E-03    4.89       9.5  T
   5    -31.3456644 -0.527585E-08  0.101E-03    4.89      24.1  T
   6    -31.3456644 -0.114785E-08  0.177E-04    4.89     137.2  T
   7    -31.3456644 -0.810765E-10  0.752E-05    4.89     322.3  T
     SCC iter.                  ...        0 min,  0.073 sec
     gradient                   ...        0 min,  0.033 sec
 * total energy  :   -31.0634040 Eh     change       -0.1888038E-04 Eh
   gradient norm :     0.0041729 Eh/α   predicted    -0.1855700E-04 (  -1.71%)
   displ. norm   :     0.0282374 α      lambda       -0.1712217E-04
   maximum displ.:     0.0198605 α      in ANC's #1, #2, #6, ...

........................................................................
.............................. CYCLE   49 ..............................
........................................................................

 iter      E             dE          RMSdq      gap      omega  full diag
   1    -31.3460479 -0.313460E+02  0.137E-02    4.90       0.0  T
   2    -31.3460482 -0.339156E-06  0.790E-03    4.90       3.1  T
   3    -31.3460482 -0.486050E-08  0.263E-03    4.90       9.2  T
   4    -31.3460482 -0.413330E-08  0.346E-04    4.90      70.2  T
   5    -31.3460482 -0.555687E-09  0.167E-04    4.90     144.9  T
     SCC iter.                  ...        0 min,  0.057 sec
     gradient                   ...        0 min,  0.033 sec
 * total energy  :   -31.0634180 Eh     change       -0.1400964E-04 Eh
   gradient norm :     0.0021882 Eh/α   predicted    -0.8569324E-05 ( -38.83%)
   displ. norm   :     0.0819701 α      lambda       -0.2932571E-04
   maximum displ.:     0.0555866 α      in ANC's #2, #1, #9, ...

........................................................................
.............................. CYCLE   50 ..............................
........................................................................

 iter      E             dE          RMSdq      gap      omega  full diag
   1    -31.3465726 -0.313466E+02  0.364E-02    4.89       0.0  T
   2    -31.3465732 -0.574975E-06  0.211E-02    4.89       1.2  T
   3    -31.3465732 -0.307582E-07  0.299E-03    4.89       8.1  T
   4    -31.3465732 -0.257196E-07  0.905E-04    4.89      26.8  T
   5    -31.3465732 -0.268329E-08  0.490E-04    4.89      49.5  T
     SCC iter.                  ...        0 min,  0.055 sec
     gradient                   ...        0 min,  0.034 sec
 * total energy  :   -31.0634399 Eh     change       -0.2192542E-04 Eh
   gradient norm :     0.0016452 Eh/α   predicted    -0.1476029E-04 ( -32.68%)
   displ. norm   :     0.1720190 α      lambda       -0.2385064E-04
   maximum displ.:     0.1192002 α      in ANC's #2, #1, #3, ...

........................................................................
.............................. CYCLE   51 ..............................
........................................................................

 iter      E             dE          RMSdq      gap      omega  full diag
   1    -31.3466005 -0.313466E+02  0.726E-02    4.88       0.0  T
   2    -31.3466015 -0.102674E-05  0.423E-02    4.88       1.0  T
   3    -31.3466015 -0.451037E-07  0.536E-03    4.88       4.5  T
   4    -31.3466018 -0.260588E-06  0.202E-03    4.88      12.0  T
   5    -31.3466018 -0.848760E-08  0.102E-03    4.88      23.8  T
   6    -31.3466018 -0.121308E-08  0.198E-04    4.88     122.6  T
   7    -31.3466018 -0.928928E-10  0.676E-05    4.88     358.7  T
     SCC iter.                  ...        0 min,  0.080 sec
     gradient                   ...        0 min,  0.041 sec
 * total energy  :   -31.0634672 Eh     change       -0.2732769E-04 Eh
   gradient norm :     0.0037149 Eh/α   predicted    -0.1208465E-04 ( -55.78%)
   displ. norm   :     0.1089318 α      lambda       -0.2570337E-04
   maximum displ.:     0.0751735 α      in ANC's #2, #1, #3, ...

........................................................................
.............................. CYCLE   52 ..............................
........................................................................

 iter      E             dE          RMSdq      gap      omega  full diag
   1    -31.3466753 -0.313467E+02  0.454E-02    4.87       0.0  T
   2    -31.3466756 -0.216676E-06  0.268E-02    4.87       1.0  T
   3    -31.3466756 -0.712103E-07  0.195E-03    4.87      12.5  T
   4    -31.3466756 -0.181539E-07  0.110E-03    4.87      22.0  T
   5    -31.3466756 -0.182195E-08  0.529E-04    4.87      45.8  T
   6    -31.3466756 -0.582101E-09  0.727E-05    4.87     333.7  T
     SCC iter.                  ...        0 min,  0.071 sec
     gradient                   ...        0 min,  0.031 sec
 * total energy  :   -31.0634909 Eh     change       -0.2364623E-04 Eh
   gradient norm :     0.0036189 Eh/α   predicted    -0.1300456E-04 ( -45.00%)
   displ. norm   :     0.2781986 α      lambda       -0.6622833E-04
   maximum displ.:     0.1947123 α      in ANC's #2, #1, #3, ...

........................................................................
.............................. CYCLE   53 ..............................
........................................................................

 iter      E             dE          RMSdq      gap      omega  full diag
   1    -31.3458551 -0.313459E+02  0.116E-01    4.85       0.0  T
   2    -31.3458565 -0.144814E-05  0.683E-02    4.85       1.0  T
   3    -31.3458571 -0.580321E-06  0.435E-03    4.85       5.6  T
   4    -31.3458571 -0.298608E-07  0.267E-03    4.85       9.1  T
   5    -31.3458571 -0.540754E-08  0.836E-04    4.85      29.0  T
   6    -31.3458571 -0.208946E-08  0.184E-04    4.85     132.0  T
     SCC iter.                  ...        0 min,  0.057 sec
     gradient                   ...        0 min,  0.034 sec
 * total energy  :   -31.0635439 Eh     change       -0.5299397E-04 Eh
   gradient norm :     0.0044196 Eh/α   predicted    -0.3567704E-04 ( -32.68%)
   displ. norm   :     0.3848944 α      lambda       -0.9586591E-04
   maximum displ.:     0.2647753 α      in ANC's #1, #2, #9, ...

........................................................................
.............................. CYCLE   54 ..............................
........................................................................

 iter      E             dE          RMSdq      gap      omega  full diag
   1    -31.3450088 -0.313450E+02  0.171E-01    4.82       0.0  T
   2    -31.3450122 -0.340759E-05  0.101E-01    4.82       1.0  T
   3    -31.3450123 -0.563974E-07  0.107E-02    4.82       2.3  T
   4    -31.3450134 -0.116241E-05  0.413E-03    4.82       5.9  T
   5    -31.3450135 -0.200918E-07  0.202E-03    4.82      12.0  T
   6    -31.3450135 -0.477402E-08  0.302E-04    4.82      80.4  T
   7    -31.3450135 -0.266787E-09  0.131E-04    4.82     184.6  T
     SCC iter.                  ...        0 min,  0.082 sec
     gradient                   ...        0 min,  0.028 sec
 * total energy  :   -31.0635916 Eh     change       -0.4768445E-04 Eh
   gradient norm :     0.0054314 Eh/α   predicted    -0.5503399E-04 (  15.41%)
   displ. norm   :     0.0542023 α      lambda       -0.3427385E-04
   maximum displ.:     0.0343162 α      in ANC's #2, #1, #6, ...

........................................................................
.............................. CYCLE   55 ..............................
........................................................................

 iter      E             dE          RMSdq      gap      omega  full diag
   1    -31.3457930 -0.313458E+02  0.282E-02    4.82       0.0  T
   2    -31.3457935 -0.563419E-06  0.166E-02    4.82       1.5  T
   3    -31.3457935 -0.151228E-07  0.320E-03    4.82       7.6  T
   4    -31.3457936 -0.271547E-07  0.847E-04    4.82      28.6  T
   5    -31.3457936 -0.363086E-08  0.476E-04    4.82      50.9  T
     SCC iter.                  ...        0 min,  0.050 sec
     gradient                   ...        0 min,  0.028 sec
 * total energy  :   -31.0636164 Eh     change       -0.2485856E-04 Eh
   gradient norm :     0.0042461 Eh/α   predicted    -0.1718803E-04 ( -30.86%)
   displ. norm   :     0.0980406 α      lambda       -0.3725339E-04
   maximum displ.:     0.0634454 α      in ANC's #2, #1, #6, ...

........................................................................
.............................. CYCLE   56 ..............................
........................................................................

 iter      E             dE          RMSdq      gap      omega  full diag
   1    -31.3473108 -0.313473E+02  0.454E-02    4.83       0.0  T
   2    -31.3473116 -0.811717E-06  0.268E-02    4.82       1.0  T
   3    -31.3473114  0.225644E-06  0.654E-03    4.82       3.7  T
   4    -31.3473118 -0.417236E-06  0.127E-03    4.82      19.0  T
   5    -31.3473118 -0.168772E-08  0.613E-04    4.82      39.6  T
   6    -31.3473118 -0.449706E-09  0.180E-04    4.82     134.5  T
     SCC iter.                  ...        0 min,  0.057 sec
     gradient                   ...        0 min,  0.028 sec
 * total energy  :   -31.0636367 Eh     change       -0.2028873E-04 Eh
   gradient norm :     0.0015987 Eh/α   predicted    -0.1880726E-04 (  -7.30%)
   displ. norm   :     0.4704651 α      lambda       -0.4483202E-04
   maximum displ.:     0.3318294 α      in ANC's #2, #1, #3, ...

........................................................................
.............................. CYCLE   57 ..............................
........................................................................

 iter      E             dE          RMSdq      gap      omega  full diag
   1    -31.3421510 -0.313422E+02  0.204E-01    4.73       0.0  T
   2    -31.3421617 -0.107755E-04  0.121E-01    4.74       1.0  T
   3    -31.3421579  0.386549E-05  0.255E-02    4.73       1.0  T
   4    -31.3421654 -0.750248E-05  0.593E-03    4.74       4.1  T
   5    -31.3421654 -0.234009E-07  0.237E-03    4.74      10.2  T
   6    -31.3421654 -0.909643E-08  0.469E-04    4.74      51.8  T
   7    -31.3421654 -0.518071E-09  0.174E-04    4.74     139.7  T
     SCC iter.                  ...        0 min,  0.067 sec
     gradient                   ...        0 min,  0.033 sec
 * total energy  :   -31.0634877 Eh     change        0.1489979E-03 Eh
   gradient norm :     0.0168476 Eh/α   predicted    -0.2462129E-04 (-116.52%)
   displ. norm   :     0.1903712 α      lambda       -0.2965023E-03
   maximum displ.:     0.1314415 α      in ANC's #2, #1, #3, ...

........................................................................
.............................. CYCLE   58 ..............................
........................................................................

 iter      E             dE          RMSdq      gap      omega  full diag
   1    -31.3456205 -0.313456E+02  0.887E-02    4.79       0.0  T
   2    -31.3456266 -0.607967E-05  0.522E-02    4.79       1.0  T
   3    -31.3456254  0.113592E-05  0.189E-02    4.79       1.3  T
   4    -31.3456281 -0.267476E-05  0.280E-03    4.79       8.7  T
   5    -31.3456281 -0.568792E-08  0.141E-03    4.79      17.2  T
   6    -31.3456281 -0.210362E-08  0.300E-04    4.79      81.0  T
   7    -31.3456281 -0.277801E-09  0.114E-04    4.79     213.0  T
     SCC iter.                  ...        0 min,  0.078 sec
     gradient                   ...        0 min,  0.035 sec
 * total energy  :   -31.0636524 Eh     change       -0.1646929E-03 Eh
   gradient norm :     0.0054513 Eh/α   predicted    -0.1536246E-03 (  -6.72%)
   displ. norm   :     0.0124071 α      lambda       -0.2435434E-04
   maximum displ.:     0.0078459 α      in ANC's #1, #4, #6, ...

........................................................................
.............................. CYCLE   59 ..............................
........................................................................

 iter      E             dE          RMSdq      gap      omega  full diag
   1    -31.3465778 -0.313466E+02  0.109E-02    4.80       0.0  T
   2    -31.3465781 -0.287579E-06  0.665E-03    4.80       3.6  T
   3    -31.3465781 -0.229666E-07  0.333E-03    4.80       7.3  T
   4    -31.3465782 -0.337035E-07  0.412E-04    4.80      58.9  T
   5    -31.3465782 -0.275872E-09  0.254E-04    4.80      95.4  T
     SCC iter.                  ...        0 min,  0.063 sec
     gradient                   ...        0 min,  0.032 sec
 * total energy  :   -31.0636698 Eh     change       -0.1735279E-04 Eh
   gradient norm :     0.0024842 Eh/α   predicted    -0.1217987E-04 ( -29.81%)
   displ. norm   :     0.0307216 α      lambda       -0.1661947E-04
   maximum displ.:     0.0199130 α      in ANC's #2, #7, #4, ...

........................................................................
.............................. CYCLE   60 ..............................
........................................................................

 iter      E             dE          RMSdq      gap      omega  full diag
   1    -31.3472554 -0.313473E+02  0.170E-02    4.80       0.0  T
   2    -31.3472555 -0.131559E-06  0.101E-02    4.80       2.4  T
   3    -31.3472555  0.409379E-07  0.275E-03    4.80       8.8  T
   4    -31.3472556 -0.734546E-07  0.490E-04    4.80      49.5  T
   5    -31.3472556 -0.135763E-09  0.272E-04    4.80      89.2  T
     SCC iter.                  ...        0 min,  0.066 sec
     gradient                   ...        0 min,  0.040 sec
 * total energy  :   -31.0636820 Eh     change       -0.1220587E-04 Eh
   gradient norm :     0.0011648 Eh/α   predicted    -0.8317878E-05 ( -31.85%)
   displ. norm   :     0.1181279 α      lambda       -0.1935898E-04
   maximum displ.:     0.0860413 α      in ANC's #2, #3, #7, ...

........................................................................
.............................. CYCLE   61 ..............................
........................................................................

 iter      E             dE          RMSdq      gap      omega  full diag
   1    -31.3476850 -0.313477E+02  0.553E-02    4.80       0.0  T
   2    -31.3476854 -0.356604E-06  0.326E-02    4.80       1.0  T
   3    -31.3476855 -0.113160E-06  0.290E-03    4.80       8.4  T
   4    -31.3476855 -0.524566E-07  0.159E-03    4.80      15.3  T
   5    -31.3476855 -0.304648E-08  0.589E-04    4.80      41.2  T
   6    -31.3476855 -0.797545E-09  0.101E-04    4.80     239.7  T
     SCC iter.                  ...        0 min,  0.075 sec
     gradient                   ...        0 min,  0.028 sec
 * total energy  :   -31.0637039 Eh     change       -0.2188588E-04 Eh
   gradient norm :     0.0017027 Eh/α   predicted    -0.9737858E-05 ( -55.51%)
   displ. norm   :     0.3656279 α      lambda       -0.4063325E-04
   maximum displ.:     0.2826426 α      in ANC's #2, #3, #1, ...

........................................................................
.............................. CYCLE   62 ..............................
........................................................................

 iter      E             dE          RMSdq      gap      omega  full diag
   1    -31.3451937 -0.313452E+02  0.159E-01    4.76       0.0  T
   2    -31.3451979 -0.419205E-05  0.936E-02    4.77       1.0  T
   3    -31.3451976  0.297861E-06  0.138E-02    4.76       1.8  T
   4    -31.3451997 -0.209160E-05  0.487E-03    4.76       5.0  T
   5    -31.3451997 -0.186149E-07  0.130E-03    4.76      18.7  T
   6    -31.3451997 -0.316332E-08  0.348E-04    4.76      69.6  T
   7    -31.3451997 -0.310923E-09  0.110E-04    4.76     219.6  T
     SCC iter.                  ...        0 min,  0.070 sec
     gradient                   ...        0 min,  0.028 sec
 * total energy  :   -31.0637260 Eh     change       -0.2211422E-04 Eh
   gradient norm :     0.0064924 Eh/α   predicted    -0.2152069E-04 (  -2.68%)
   displ. norm   :     0.0702610 α      lambda       -0.3066607E-04
   maximum displ.:     0.0506135 α      in ANC's #2, #3, #7, ...

........................................................................
.............................. CYCLE   63 ..............................
........................................................................

 iter      E             dE          RMSdq      gap      omega  full diag
   1    -31.3465191 -0.313465E+02  0.350E-02    4.78       0.0  T
   2    -31.3465199 -0.742245E-06  0.207E-02    4.78       1.2  T
   3    -31.3465197  0.150019E-06  0.595E-03    4.78       4.1  T
   4    -31.3465200 -0.308743E-06  0.110E-03    4.78      22.0  T
   5    -31.3465200 -0.141684E-08  0.617E-04    4.78      39.3  T
   6    -31.3465200 -0.332921E-09  0.151E-04    4.78     160.2  T
     SCC iter.                  ...        0 min,  0.077 sec
     gradient                   ...        0 min,  0.032 sec
 * total energy  :   -31.0637428 Eh     change       -0.1678126E-04 Eh
   gradient norm :     0.0021754 Eh/α   predicted    -0.1540865E-04 (  -8.18%)
   displ. norm   :     0.0736469 α      lambda       -0.1242620E-04
   maximum displ.:     0.0587767 α      in ANC's #2, #1, #4, ...

........................................................................
.............................. CYCLE   64 ..............................
........................................................................

 iter      E             dE          RMSdq      gap      omega  full diag
   1    -31.3467413 -0.313467E+02  0.315E-02    4.78       0.0  T
   2    -31.3467414 -0.127450E-06  0.186E-02    4.78       1.3  T
   3    -31.3467414 -0.361627E-08  0.227E-03    4.78      10.7  T
   4    -31.3467414 -0.519237E-07  0.889E-04    4.78      27.3  T
   5    -31.3467414 -0.701490E-09  0.257E-04    4.78      94.3  T
     SCC iter.                  ...        0 min,  0.064 sec
     gradient                   ...        0 min,  0.036 sec
 * total energy  :   -31.0637529 Eh     change       -0.1019416E-04 Eh
   gradient norm :     0.0012374 Eh/α   predicted    -0.6245057E-05 ( -38.74%)
   displ. norm   :     0.3084897 α      lambda       -0.2229867E-04
   maximum displ.:     0.2485475 α      in ANC's #2, #1, #3, ...

........................................................................
.............................. CYCLE   65 ..............................
........................................................................

 iter      E             dE          RMSdq      gap      omega  full diag
   1    -31.3457943 -0.313458E+02  0.132E-01    4.75       0.0  T
   2    -31.3457959 -0.159675E-05  0.777E-02    4.75       1.0  T
   3    -31.3457966 -0.750351E-06  0.561E-03    4.75       4.3  T
   4    -31.3457967 -0.893305E-07  0.337E-03    4.75       7.2  T
   5    -31.3457967 -0.124916E-07  0.111E-03    4.75      21.9  T
   6    -31.3457967 -0.421745E-08  0.253E-04    4.75      95.7  T
   7    -31.3457967 -0.201617E-09  0.994E-05    4.75     244.1  T
     SCC iter.                  ...        0 min,  0.083 sec
     gradient                   ...        0 min,  0.029 sec
 * total energy  :   -31.0637649 Eh     change       -0.1198746E-04 Eh
   gradient norm :     0.0038442 Eh/α   predicted    -0.1162004E-04 (  -3.07%)
   displ. norm   :     0.0369531 α      lambda       -0.1405546E-04
   maximum displ.:     0.0272118 α      in ANC's #2, #1, #4, ...

........................................................................
.............................. CYCLE   66 ..............................
........................................................................

 iter      E             dE          RMSdq      gap      omega  full diag
   1    -31.3469047 -0.313469E+02  0.172E-02    4.77       0.0  T
   2    -31.3469050 -0.347403E-06  0.101E-02    4.76       2.4  T
   3    -31.3469050  0.198915E-07  0.413E-03    4.77       5.9  T
   4    -31.3469051 -0.922834E-07  0.582E-04    4.76      41.7  T
   5    -31.3469051 -0.406995E-09  0.342E-04    4.76      70.9  T
     SCC iter.                  ...        0 min,  0.061 sec
     gradient                   ...        0 min,  0.038 sec
 * total energy  :   -31.0637730 Eh     change       -0.8084010E-05 Eh
   gradient norm :     0.0018319 Eh/α   predicted    -0.7037761E-05 ( -12.94%)
   displ. norm   :     0.0678274 α      lambda       -0.8092487E-05
   maximum displ.:     0.0571277 α      in ANC's #2, #4, #1, ...
 * RMSD in coord.:     0.6046523 α      energy gain  -0.5741059E-03 Eh

generating ANC from exact Hessian ...
Using Lindh-Hessian (1995)
 Shifting diagonal of input Hessian by    8.9879069496897439E-003
 Lowest  eigenvalues of input Hessian
    0.000000    0.000000    0.000000    0.000000    0.000000    0.000000
    0.010000    0.011827    0.013177    0.014846    0.025613    0.026733
    0.028181    0.035889    0.036606    0.044111    0.045827    0.069571
 Highest eigenvalues
    1.275560    1.335478    1.779682    1.814157    2.380598    2.391880


........................................................................
.............................. CYCLE   67 ..............................
........................................................................

 iter      E             dE          RMSdq      gap      omega  full diag
   1    -31.3470927 -0.313471E+02  0.282E-02    4.77       0.0  T
   2    -31.3470929 -0.249989E-06  0.166E-02    4.77       1.5  T
   3    -31.3470930 -0.293630E-07  0.180E-03    4.77      13.5  T
   4    -31.3470930 -0.125348E-07  0.748E-04    4.77      32.4  T
   5    -31.3470930 -0.636859E-09  0.387E-04    4.77      62.7  T
     SCC iter.                  ...        0 min,  0.057 sec
     gradient                   ...        0 min,  0.029 sec
 * total energy  :   -31.0637809 Eh     change       -0.7927526E-05 Eh
   gradient norm :     0.0014955 Eh/α   predicted     0.0000000E+00 (-100.00%)
   displ. norm   :     0.0099735 α      lambda       -0.3482281E-05
   maximum displ.:     0.0047682 α      in ANC's #2, #9, #4, ...

........................................................................
.............................. CYCLE   68 ..............................
........................................................................

 iter      E             dE          RMSdq      gap      omega  full diag
   1    -31.3472859 -0.313473E+02  0.825E-03    4.77       0.0  T
   2    -31.3472860 -0.779480E-07  0.492E-03    4.77       4.9  T
   3    -31.3472860 -0.192961E-08  0.123E-03    4.77      19.7  T
   4    -31.3472860 -0.175196E-08  0.231E-04    4.77     105.2  T
   5    -31.3472860 -0.195801E-09  0.129E-04    4.77     187.9  T
     SCC iter.                  ...        0 min,  0.050 sec
     gradient                   ...        0 min,  0.030 sec
 * total energy  :   -31.0637833 Eh     change       -0.2314843E-05 Eh
   gradient norm :     0.0005642 Eh/α   predicted    -0.1741891E-05 ( -24.75%)
   displ. norm   :     0.0124165 α      lambda       -0.1305122E-05
   maximum displ.:     0.0103538 α      in ANC's #2, #3, #7, ...

........................................................................
.............................. CYCLE   69 ..............................
........................................................................

 iter      E             dE          RMSdq      gap      omega  full diag
   1    -31.3473300 -0.313473E+02  0.566E-03    4.76       0.0  T
   2    -31.3473300 -0.883088E-08  0.334E-03    4.77       7.3  T
   3    -31.3473300 -0.109668E-08  0.385E-04    4.77      63.0  T
   4    -31.3473300 -0.724228E-09  0.170E-04    4.77     142.4  T
     SCC iter.                  ...        0 min,  0.055 sec
     gradient                   ...        0 min,  0.033 sec
 * total energy  :   -31.0637846 Eh     change       -0.1308525E-05 Eh
   gradient norm :     0.0004754 Eh/α   predicted    -0.6528874E-06 ( -50.11%)
   displ. norm   :     0.0192115 α      lambda       -0.1223012E-05
   maximum displ.:     0.0153326 α      in ANC's #2, #3, #9, ...

........................................................................
.............................. CYCLE   70 ..............................
........................................................................

 iter      E             dE          RMSdq      gap      omega  full diag
   1    -31.3472665 -0.313473E+02  0.855E-03    4.77       0.0  T
   2    -31.3472665 -0.178456E-07  0.502E-03    4.77       4.8  T
   3    -31.3472665 -0.213177E-08  0.584E-04    4.77      41.5  T
   4    -31.3472665 -0.211590E-08  0.261E-04    4.77      93.1  T
     SCC iter.                  ...        0 min,  0.050 sec
     gradient                   ...        0 min,  0.035 sec
 * total energy  :   -31.0637861 Eh     change       -0.1502560E-05 Eh
   gradient norm :     0.0004097 Eh/α   predicted    -0.6113339E-06 ( -59.31%)
   displ. norm   :     0.0348240 α      lambda       -0.1772023E-05
   maximum displ.:     0.0266825 α      in ANC's #2, #3, #9, ...

........................................................................
.............................. CYCLE   71 ..............................
........................................................................

 iter      E             dE          RMSdq      gap      omega  full diag
   1    -31.3471764 -0.313472E+02  0.155E-02    4.76       0.0  T
   2    -31.3471764 -0.381641E-07  0.913E-03    4.77       2.7  T
   3    -31.3471765 -0.679790E-08  0.923E-04    4.76      26.3  T
   4    -31.3471765 -0.577594E-08  0.449E-04    4.77      54.1  T
     SCC iter.                  ...        0 min,  0.051 sec
     gradient                   ...        0 min,  0.035 sec
 * total energy  :   -31.0637884 Eh     change       -0.2368778E-05 Eh
   gradient norm :     0.0006662 Eh/α   predicted    -0.8879120E-06 ( -62.52%)
   displ. norm   :     0.0692577 α      lambda       -0.3274451E-05
   maximum displ.:     0.0527590 α      in ANC's #2, #3, #9, ...

........................................................................
.............................. CYCLE   72 ..............................
........................................................................

 iter      E             dE          RMSdq      gap      omega  full diag
   1    -31.3470599 -0.313471E+02  0.301E-02    4.76       0.0  T
   2    -31.3470600 -0.101792E-06  0.177E-02    4.76       1.4  T
   3    -31.3470600 -0.306876E-07  0.159E-03    4.76      15.3  T
   4    -31.3470601 -0.150270E-07  0.848E-04    4.76      28.6  T
   5    -31.3470601 -0.883748E-09  0.344E-04    4.76      70.4  T
     SCC iter.                  ...        0 min,  0.056 sec
     gradient                   ...        0 min,  0.030 sec
 * total energy  :   -31.0637927 Eh     change       -0.4279028E-05 Eh
   gradient norm :     0.0009802 Eh/α   predicted    -0.1640552E-05 ( -61.66%)
   displ. norm   :     0.0948653 α      lambda       -0.4115370E-05
   maximum displ.:     0.0724504 α      in ANC's #2, #3, #9, ...

........................................................................
.............................. CYCLE   73 ..............................
........................................................................

 iter      E             dE          RMSdq      gap      omega  full diag
   1    -31.3469205 -0.313469E+02  0.416E-02    4.76       0.0  T
   2    -31.3469207 -0.161227E-06  0.245E-02    4.76       1.0  T
   3    -31.3469207 -0.585413E-07  0.206E-03    4.76      11.8  T
   4    -31.3469207 -0.233046E-07  0.113E-03    4.76      21.5  T
   5    -31.3469207 -0.136479E-08  0.367E-04    4.76      66.1  T
   6    -31.3469207 -0.285098E-09  0.737E-05    4.76     328.9  T
     SCC iter.                  ...        0 min,  0.061 sec
     gradient                   ...        0 min,  0.029 sec
 * total energy  :   -31.0637978 Eh     change       -0.5048475E-05 Eh
   gradient norm :     0.0011699 Eh/α   predicted    -0.2066441E-05 ( -59.07%)
   displ. norm   :     0.0909015 α      lambda       -0.3998278E-05
   maximum displ.:     0.0709866 α      in ANC's #2, #3, #9, ...

........................................................................
.............................. CYCLE   74 ..............................
........................................................................

 iter      E             dE          RMSdq      gap      omega  full diag
   1    -31.3469376 -0.313469E+02  0.388E-02    4.76       0.0  T
   2    -31.3469378 -0.145531E-06  0.228E-02    4.76       1.1  T
   3    -31.3469378 -0.550939E-07  0.184E-03    4.76      13.2  T
   4    -31.3469378 -0.157632E-07  0.103E-03    4.76      23.5  T
   5    -31.3469378 -0.121963E-08  0.383E-04    4.76      63.3  T
   6    -31.3469378 -0.368271E-09  0.684E-05    4.76     354.7  T
     SCC iter.                  ...        0 min,  0.059 sec
     gradient                   ...        0 min,  0.028 sec
 * total energy  :   -31.0638025 Eh     change       -0.4717034E-05 Eh
   gradient norm :     0.0010301 Eh/α   predicted    -0.2005479E-05 ( -57.48%)
   displ. norm   :     0.0835138 α      lambda       -0.3778473E-05
   maximum displ.:     0.0659632 α      in ANC's #2, #3, #9, ...

........................................................................
.............................. CYCLE   75 ..............................
........................................................................

 iter      E             dE          RMSdq      gap      omega  full diag
   1    -31.3471165 -0.313471E+02  0.368E-02    4.76       0.0  T
   2    -31.3471166 -0.137923E-06  0.217E-02    4.76       1.1  T
   3    -31.3471167 -0.377388E-07  0.192E-03    4.76      12.7  T
   4    -31.3471167 -0.254657E-07  0.976E-04    4.76      24.8  T
   5    -31.3471167 -0.119373E-08  0.377E-04    4.76      64.3  T
     SCC iter.                  ...        0 min,  0.065 sec
     gradient                   ...        0 min,  0.030 sec
 * total energy  :   -31.0638067 Eh     change       -0.4201788E-05 Eh
   gradient norm :     0.0005570 Eh/α   predicted    -0.1895490E-05 ( -54.89%)
   displ. norm   :     0.0748899 α      lambda       -0.2199255E-05
   maximum displ.:     0.0597506 α      in ANC's #2, #3, #9, ...

........................................................................
.............................. CYCLE   76 ..............................
........................................................................

 iter      E             dE          RMSdq      gap      omega  full diag
   1    -31.3471880 -0.313472E+02  0.310E-02    4.76       0.0  T
   2    -31.3471881 -0.113255E-06  0.182E-02    4.76       1.3  T
   3    -31.3471881 -0.347245E-07  0.144E-03    4.76      16.9  T
   4    -31.3471881 -0.928062E-08  0.801E-04    4.76      30.3  T
   5    -31.3471881 -0.884462E-09  0.373E-04    4.76      64.9  T
     SCC iter.                  ...        0 min,  0.053 sec
     gradient                   ...        0 min,  0.035 sec
 * total energy  :   -31.0638092 Eh     change       -0.2466242E-05 Eh
   gradient norm :     0.0003303 Eh/α   predicted    -0.1100921E-05 ( -55.36%)
   displ. norm   :     0.0843872 α      lambda       -0.1347146E-05
   maximum displ.:     0.0663684 α      in ANC's #2, #3, #9, ...

........................................................................
.............................. CYCLE   77 ..............................
........................................................................

 iter      E             dE          RMSdq      gap      omega  full diag
   1    -31.3471036 -0.313471E+02  0.353E-02    4.76       0.0  T
   2    -31.3471037 -0.110449E-06  0.208E-02    4.76       1.2  T
   3    -31.3471037 -0.439389E-07  0.161E-03    4.76      15.1  T
   4    -31.3471037 -0.120265E-07  0.911E-04    4.76      26.6  T
   5    -31.3471037 -0.107994E-08  0.315E-04    4.76      77.0  T
     SCC iter.                  ...        0 min,  0.055 sec
     gradient                   ...        0 min,  0.028 sec
 * total energy  :   -31.0638105 Eh     change       -0.1364965E-05 Eh
   gradient norm :     0.0005464 Eh/α   predicted    -0.6743608E-06 ( -50.60%)
   displ. norm   :     0.0417281 α      lambda       -0.7462480E-06
   maximum displ.:     0.0326684 α      in ANC's #2, #3, #9, ...

........................................................................
.............................. CYCLE   78 ..............................
........................................................................

 iter      E             dE          RMSdq      gap      omega  full diag
   1    -31.3473719 -0.313474E+02  0.168E-02    4.76       0.0  T
   2    -31.3473719 -0.277886E-07  0.993E-03    4.76       2.4  T
   3    -31.3473719 -0.708937E-08  0.910E-04    4.76      26.7  T
   4    -31.3473719 -0.633602E-08  0.452E-04    4.76      53.7  T
     SCC iter.                  ...        0 min,  0.046 sec
     gradient                   ...        0 min,  0.034 sec
 * total energy  :   -31.0638111 Eh     change       -0.6058803E-06 Eh
   gradient norm :     0.0002705 Eh/α   predicted    -0.3720929E-06 ( -38.59%)
   displ. norm   :     0.0441509 α      lambda       -0.3388919E-06
   maximum displ.:     0.0328412 α      in ANC's #2, #3, #9, ...

   *** GEOMETRY OPTIMIZATION CONVERGED AFTER 78 ITERATIONS ***

------------------------------------------------------------------------
 total energy gain   :        -0.0064643 Eh       -4.0564 kcal/mol
 total RMSD          :         1.6588384 a0        0.8778 Å
 total power (kW/mol):        -0.2175900 (step)   -1.7425 (real)
------------------------------------------------------------------------

 ANCopt (total)                0 d,  0 h,  0 min,  9.740 sec
 optimizer setup                ...        0 min,  0.001 sec (  0.008%)
 model hessian                  ...        0 min,  0.011 sec (  0.112%)
 ANC generation                 ...        0 min,  0.002 sec (  0.019%)
 coordinate transformation      ...        0 min,  0.001 sec (  0.006%)
 single point calculation       ...        0 min,  9.445 sec ( 96.970%)
 optimization log               ...        0 min,  0.007 sec (  0.074%)
 hessian update                 ...        0 min,  0.252 sec (  2.588%)
 rational function              ...        0 min,  0.012 sec (  0.125%)

================
 final structure:
================
17
 xtb: 6.7.1 (edcfbbe)
C            3.24232864289292        0.27334564969377        0.34056872901300
O            2.03358558093185        0.00925450761727        1.04286944850184
C            1.08840800925641       -0.64212039149720        0.37033983845200
O            1.20647137768451       -1.03871887144711       -0.75602181368773
C           -0.16515285036154       -0.79729613776108        1.21797335205375
C           -1.18134787752275        0.20951627869431        0.70015280576331
O           -1.14316225815799        1.38990928378163        0.91244787418074
O           -2.11093919377716       -0.39753999913593       -0.03233385316449
C           -3.09390476770945        0.43502770932016       -0.63659975283419
H            3.91944997917719        0.72360455993041        1.06134529988159
H            3.05442792084162        0.95880959494882       -0.48773333751939
H            3.65980269266323       -0.65421816471676       -0.05595929773343
H           -0.56519274398736       -1.80205754974093        1.09570344760567
H            0.07583641906450       -0.57207164382537        2.25510521000573
H           -3.89312611601022       -0.22442673000493       -0.96456813829433
H           -3.46447287000493        1.16672999678742        0.08368118302860
H           -2.66301194498040        0.96225190735438       -1.48962545288570

 Bond Distances (Angstroems)
 ---------------------------
C1-O2=1.4227         C1-H10=1.0866        C1-H11=1.0914        C1-H12=1.0917        O2-C1=1.4227         O2-C3=1.3304         
C3-O2=1.3304         C3-O4=1.2000         C3-C5=1.5212         O4-C3=1.2000         C5-C3=1.5212         C5-C6=1.5213         
C5-H13=1.0884        C5-H14=1.0883        C6-C5=1.5213         C6-O7=1.1999         C6-O8=1.3301         O7-C6=1.1999         
O8-C6=1.3301         O8-C9=1.4229         C9-O8=1.4229         C9-H15=1.0868        C9-H16=1.0916        C9-H17=1.0915        
H10-C1=1.0866        H11-C1=1.0914        H12-C1=1.0917        H13-C5=1.0884        H14-C5=1.0883        H15-C9=1.0868        
H16-C9=1.0916        H17-C9=1.0915        
 C  H  Rav=1.0895 sigma=0.0021  Rmin=1.0866  Rmax=1.0917     8
 C  C  Rav=1.5213 sigma=0.0001  Rmin=1.5212  Rmax=1.5213     2
 O  C  Rav=1.3177 sigma=0.0914  Rmin=1.1999  Rmax=1.4229     6

 selected bond angles (degree)
 --------------------
H10-C1-O2=106.20               H11-C1-O2=110.18               H11-C1-H10=110.51              H12-C1-O2=110.27               
H12-C1-H10=110.77              H12-C1-H11=108.89              C3-O2-C1=116.42                O4-C3-O2=124.50                
C5-C3-O2=110.72                C5-C3-O4=124.78                C6-C5-C3=107.05                H13-C5-C3=109.54               
H13-C5-C6=109.10               H14-C5-C3=109.11               H14-C5-C6=109.59               H14-C5-H13=112.30              
O7-C6-C5=124.72                O8-C6-C5=110.62                O8-C6-O7=124.65                C9-O8-C6=116.72                
H15-C9-O8=106.33               H16-C9-O8=110.28               H16-C9-H15=110.87              H17-C9-O8=109.99               
H17-C9-H15=110.34              H17-C9-H16=109.02              

 selected dihedral angles (degree)
 ---------------------------------
C3-O2-C1-H10=184.95           C3-O2-C1-H11= 65.25           C3-O2-C1-H12=305.02           O4-C3-O2-C1=  1.88            
C5-C3-O2-C1=182.64            C6-C5-C3-O2=104.17            C6-C5-C3-O4=284.93            H13-C5-C3-O2=222.33           
H13-C5-C3-O4= 43.10           H14-C5-C3-O2=345.64           H14-C5-C3-O4=166.41           O7-C6-C5-C3=284.37            
O7-C6-C5-H13=165.92           O7-C6-C5-H14= 42.58           O8-C6-C5-C3=103.73            O8-C6-C5-H13=345.27           
O8-C6-C5-H14=221.94           C9-O8-C6-C5=182.94            C9-O8-C6-O7=  2.30            H15-C9-O8-C6=194.30           
H16-C9-O8-C6=314.56           H17-C9-O8-C6= 74.83           
           -------------------------------------------------
          |                Final Singlepoint                |
           -------------------------------------------------

          ...................................................
          :                      SETUP                      :
          :.................................................:
          :  # basis functions                  44          :
          :  # atomic orbitals                  44          :
          :  # shells                           26          :
          :  # electrons                        52          :
          :  max. iterations                   250          :
          :  Hamiltonian                  GFN2-xTB          :
          :  restarted?                      false          :
          :  GBSA solvation                  false          :
          :  PC potential                    false          :
          :  electronic temp.          300.0000000     K    :
          :  accuracy                    1.0000000          :
          :  -> integral cutoff          0.2500000E+02      :
          :  -> integral neglect         0.1000000E-07      :
          :  -> SCF convergence          0.1000000E-05 Eh   :
          :  -> wf. convergence          0.1000000E-03 e    :
          :  Broyden damping             0.4000000          :
          :  net charge                          0          :
          :  unpaired electrons                  0          :
          ...................................................

 iter      E             dE          RMSdq      gap      omega  full diag
   1    -31.3473719 -0.313474E+02  0.137E-04    4.76       0.0  T
   2    -31.3473719 -0.375486E-10  0.858E-05    4.76     282.8  T
   3    -31.3473719 -0.401457E-11  0.439E-05    4.76     552.3  T

   *** convergence criteria satisfied after 3 iterations ***

         #    Occupation            Energy/Eh            Energy/eV
      -------------------------------------------------------------
         1        2.0000           -0.7573790             -20.6093
       ...           ...                  ...                  ...
        20        2.0000           -0.4960837             -13.4991
        21        2.0000           -0.4850034             -13.1976
        22        2.0000           -0.4841146             -13.1734
        23        2.0000           -0.4581448             -12.4668
        24        2.0000           -0.4577722             -12.4566
        25        2.0000           -0.4352565             -11.8439
        26        2.0000           -0.4283263             -11.6554 (HOMO)
        27                         -0.2533385              -6.8937 (LUMO)
        28                         -0.2259428              -6.1482
        29                         -0.0010118              -0.0275
        30                          0.0140031               0.3810
        31                          0.1185465               3.2258
       ...                                ...                  ...
        44                          0.6698870              18.2286
      -------------------------------------------------------------
                  HL-Gap            0.1749877 Eh            4.7617 eV
             Fermi-level           -0.3408324 Eh           -9.2745 eV

 SCC (total)                   0 d,  0 h,  0 min,  0.088 sec
 SCC setup                      ...        0 min,  0.004 sec (  4.335%)
 Dispersion                     ...        0 min,  0.008 sec (  8.970%)
 classical contributions        ...        0 min,  0.003 sec (  3.412%)
 integral evaluation            ...        0 min,  0.011 sec ( 12.751%)
 iterations                     ...        0 min,  0.030 sec ( 33.348%)
 molecular gradient             ...        0 min,  0.033 sec ( 37.035%)
 printout                       ...        0 min,  0.000 sec (  0.118%)

         :::::::::::::::::::::::::::::::::::::::::::::::::::::
         ::                     SUMMARY                     ::
         :::::::::::::::::::::::::::::::::::::::::::::::::::::
         :: total energy             -31.063811125117 Eh    ::
         :: gradient norm              0.000270681917 Eh/a0 ::
         :: HOMO-LUMO gap              4.761658796444 eV    ::
         ::.................................................::
         :: SCC energy               -31.347365507074 Eh    ::
         :: -> isotropic ES            0.084033063265 Eh    ::
         :: -> anisotropic ES          0.001077723542 Eh    ::
         :: -> anisotropic XC          0.000513619913 Eh    ::
         :: -> dispersion             -0.010261854335 Eh    ::
         :: repulsion energy           0.283554381957 Eh    ::
         :: add. restraining           0.000000000000 Eh    ::
         :: total charge              -0.000000000000 e     ::
         :::::::::::::::::::::::::::::::::::::::::::::::::::::

           -------------------------------------------------
          |                Property Printout                |
           -------------------------------------------------

    * Orbital Energies and Occupations

         #    Occupation            Energy/Eh            Energy/eV
      -------------------------------------------------------------
         1        2.0000           -0.7573790             -20.6093
       ...           ...                  ...                  ...
        14        2.0000           -0.5701179             -15.5137
        15        2.0000           -0.5587525             -15.2044
        16        2.0000           -0.5292263             -14.4010
        17        2.0000           -0.5252182             -14.2919
        18        2.0000           -0.5102973             -13.8859
        19        2.0000           -0.5090677             -13.8524
        20        2.0000           -0.4960837             -13.4991
        21        2.0000           -0.4850034             -13.1976
        22        2.0000           -0.4841146             -13.1734
        23        2.0000           -0.4581448             -12.4668
        24        2.0000           -0.4577722             -12.4566
        25        2.0000           -0.4352565             -11.8439
        26        2.0000           -0.4283263             -11.6554 (HOMO)
        27                         -0.2533385              -6.8937 (LUMO)
        28                         -0.2259428              -6.1482
        29                         -0.0010118              -0.0275
        30                          0.0140031               0.3810
        31                          0.1185465               3.2258
        32                          0.1218069               3.3145
        33                          0.1285585               3.4983
        34                          0.1291732               3.5150
        35                          0.1426994               3.8830
        36                          0.1556392               4.2352
        37                          0.1856631               5.0522
       ...                                ...                  ...
        44                          0.6698870              18.2286
      -------------------------------------------------------------
                  HL-Gap            0.1749877 Eh            4.7617 eV
             Fermi-level           -0.3408324 Eh           -9.2745 eV

     #   Z          covCN         q      C6AA      α(0)
     1   6 C        3.657     0.028    20.394     6.482
     2   8 O        1.705    -0.244    18.047     5.736
     3   6 C        2.729     0.367    20.779     7.463
     4   8 O        0.856    -0.395    21.585     6.229
     5   6 C        3.804    -0.126    22.912     6.814
     6   6 C        2.727     0.367    20.774     7.462
     7   8 O        0.856    -0.396    21.592     6.230
     8   8 O        1.705    -0.244    18.045     5.735
     9   6 C        3.656     0.027    20.416     6.487
    10   1 H        0.925     0.076     2.018     2.222
    11   1 H        0.924     0.068     2.112     2.273
    12   1 H        0.924     0.068     2.106     2.269
    13   1 H        0.925     0.096     1.825     2.112
    14   1 H        0.925     0.096     1.825     2.113
    15   1 H        0.925     0.075     2.026     2.226
    16   1 H        0.924     0.071     2.078     2.255
    17   1 H        0.924     0.067     2.118     2.276

 Mol. C6AA /au·bohr⁶  :       2694.332671
 Mol. C8AA /au·bohr⁸  :      58563.578043
 Mol. α(0) /au        :         76.382886


Wiberg/Mayer (AO) data.
largest (>0.10) Wiberg bond orders for each atom

 ---------------------------------------------------------------------------
     #   Z sym  total        # sym  WBO       # sym  WBO       # sym  WBO
 ---------------------------------------------------------------------------
     1   6 C    3.920 --    10 H    0.981    12 H    0.977    11 H    0.977
                             2 O    0.951
     2   8 O    2.325 --     3 C    1.150     1 C    0.951     4 O    0.178
     3   6 C    3.928 --     4 O    1.759     2 O    1.150     5 C    0.943
     4   8 O    2.056 --     3 C    1.759     2 O    0.178
     5   6 C    3.991 --    14 H    0.960    13 H    0.960     3 C    0.943
                             6 C    0.943
     6   6 C    3.928 --     7 O    1.758     8 O    1.151     5 C    0.943
     7   8 O    2.057 --     6 C    1.758     8 O    0.179
     8   8 O    2.326 --     6 C    1.151     9 C    0.951     7 O    0.179
     9   6 C    3.919 --    15 H    0.981    16 H    0.977    17 H    0.976
                             8 O    0.951
    10   1 H    0.994 --     1 C    0.981
    11   1 H    0.995 --     1 C    0.977
    12   1 H    0.995 --     1 C    0.977
    13   1 H    0.991 --     5 C    0.960
    14   1 H    0.991 --     5 C    0.960
    15   1 H    0.994 --     9 C    0.981
    16   1 H    0.995 --     9 C    0.977
    17   1 H    0.995 --     9 C    0.976
 ---------------------------------------------------------------------------

Topologies differ in total number of bonds
Writing topology from bond orders to xtbtopo.mol

molecular dipole:
                 x           y           z       tot (Debye)
 q only:       -0.041      -0.199       0.228
   full:       -0.051      -0.258       0.292       0.999
molecular quadrupole (traceless):
                xx          xy          yy          xz          yz          zz
 q only:       13.159       2.634      -8.343       4.712      -5.834      -4.815
  q+dip:       12.129       2.848      -8.034       4.455      -6.894      -4.095
   full:       12.754       2.525      -8.398       4.219      -7.579      -4.357

           -------------------------------------------------
          |                Geometry Summary                 |
           -------------------------------------------------

      molecular mass/u    :      132.1148252
   center of mass at/Å    :       -0.0107271      -0.0476431       0.3338849
  moments of inertia/u·Å² :        0.1334266E+03   0.5820948E+03   0.6237314E+03
rotational constants/cm⁻¹ :        0.1263439E+00   0.2896028E-01   0.2702707E-01

 * 14 selected distances

     #   Z          #   Z                                           value/Å
     1   6 C        2   8 O                                       1.4226843
     2   8 O        3   6 C                                       1.3303933
     3   6 C        4   8 O                                       1.1999667
     6   6 C        7   8 O                                       1.1999397
     6   6 C        8   8 O                                       1.3301107
     8   8 O        9   6 C                                       1.4228591 (max)
     1   6 C       10   1 H                                       1.0866211 (min)
     1   6 C       11   1 H                                       1.0914449
     1   6 C       12   1 H                                       1.0917389
     5   6 C       13   1 H                                       1.0883600
     5   6 C       14   1 H                                       1.0883219
     9   6 C       15   1 H                                       1.0868295
     9   6 C       16   1 H                                       1.0915648
     9   6 C       17   1 H                                       1.0914610

 * 2 distinct bonds (by element types)

   Z      Z             #   av. dist./Å        max./Å        min./Å
   1 H    6 C           8     1.0895428     1.0917389     1.0866211
   6 C    8 O           6     1.3176590     1.4228591     1.1999397


optimized geometry written to: xtbopt.xyz


           -------------------------------------------------
          | TOTAL ENERGY              -31.063811125117 Eh   |
          | GRADIENT NORM               0.000270681917 Eh/α |
          | HOMO-LUMO GAP               4.761658796444 eV   |
           -------------------------------------------------

------------------------------------------------------------------------
 * finished run on 2026/07/08 at 20:34:07.022     
------------------------------------------------------------------------
 total:
 * wall-time:     0 d,  0 h,  0 min, 10.154 sec
 *  cpu-time:     0 d,  0 h,  2 min, 42.158 sec
 * ratio c/w:    15.970 speedup
 SCF:
 * wall-time:     0 d,  0 h,  0 min,  0.263 sec
 *  cpu-time:     0 d,  0 h,  0 min,  4.204 sec
 * ratio c/w:    15.974 speedup
 ANC optimizer:
 * wall-time:     0 d,  0 h,  0 min,  9.834 sec
 *  cpu-time:     0 d,  0 h,  2 min, 37.092 sec
 * ratio c/w:    15.975 speedup

