17
 energy: -31.063811125117 gnorm: 0.000270681917 xtb: 6.7.1 (edcfbbe)
C            3.24232864289292        0.27334564969377        0.34056872901300
O            2.03358558093185        0.00925450761727        1.04286944850184
C            1.08840800925641       -0.64212039149720        0.37033983845200
O            1.20647137768451       -1.03871887144711       -0.75602181368773
C           -0.16515285036154       -0.79729613776108        1.21797335205375
C           -1.18134787752275        0.20951627869431        0.70015280576331
O           -1.14316225815799        1.38990928378163        0.91244787418074
O           -2.11093919377716       -0.39753999913593       -0.03233385316449
C           -3.09390476770945        0.43502770932016       -0.63659975283419
H            3.91944997917719        0.72360455993041        1.06134529988159
H            3.05442792084162        0.95880959494882       -0.48773333751939
H            3.65980269266323       -0.65421816471676       -0.05595929773343
H           -0.56519274398736       -1.80205754974093        1.09570344760567
H            0.07583641906450       -0.57207164382537        2.25510521000573
H           -3.89312611601022       -0.22442673000493       -0.96456813829433
H           -3.46447287000493        1.16672999678742        0.08368118302860
H           -2.66301194498040        0.96225190735438       -1.48962545288570
