      -----------------------------------------------------------      
     |                   =====================                   |     
     |                           x T B                           |     
     |                   =====================                   |     
     |                         S. Grimme                         |     
     |          Mulliken Center for Theoretical Chemistry        |     
     |                    University of Bonn                     |     
      -----------------------------------------------------------      

   * xtb version 6.7.1 (edcfbbe) compiled by 'conda@5dfe00f5fb80' on 2026-06-10

   xtb is free software: you can redistribute it and/or modify it under
   the terms of the GNU Lesser General Public License as published by
   the Free Software Foundation, either version 3 of the License, or
   (at your option) any later version.
   
   xtb is distributed in the hope that it will be useful,
   but WITHOUT ANY WARRANTY; without even the implied warranty of
   MERCHANTABILITY or FITNESS FOR A PARTICULAR PURPOSE.  See the
   GNU Lesser General Public License for more details.
   
   Cite this work as:
   * C. Bannwarth, E. Caldeweyher, S. Ehlert, A. Hansen, P. Pracht,
     J. Seibert, S. Spicher, S. Grimme, WIREs Comput. Mol. Sci., 2020, 11,
     e01493. DOI: 10.1002/wcms.1493
   
   for GFN2-xTB:
   * C. Bannwarth, S. Ehlert and S. Grimme., J. Chem. Theory Comput., 2019,
     15, 1652-1671. DOI: 10.1021/acs.jctc.8b01176
   for GFN1-xTB:
   * S. Grimme, C. Bannwarth, P. Shushkov, J. Chem. Theory Comput., 2017,
     13, 1989-2009. DOI: 10.1021/acs.jctc.7b00118
   for GFN0-xTB:
   * P. Pracht, E. Caldeweyher, S. Ehlert, S. Grimme, ChemRxiv, 2019, preprint.
     DOI: 10.26434/chemrxiv.8326202.v1
   for GFN-FF:
   * S. Spicher and S. Grimme, Angew. Chem. Int. Ed., 2020, 59, 15665-15673.
     DOI: 10.1002/anie.202004239
   
   for ALPB and GBSA implicit solvation:
   * S. Ehlert, M. Stahn, S. Spicher, S. Grimme, J. Chem. Theory Comput.,
     2021, 17, 4250-4261. DOI: 10.1021/acs.jctc.1c00471
   
   for ddCOSMO and CPCM-X implicit solvation:
   * M. Stahn, S. Ehlert, S. Grimme, J. Phys. Chem. A,
     2023, XX, XXXX-XXXX. DOI: 10.1021/acs.jpca.3c04382
   
   for DFT-D4:
   * E. Caldeweyher, C. Bannwarth and S. Grimme, J. Chem. Phys., 2017,
     147, 034112. DOI: 10.1063/1.4993215
   * E. Caldeweyher, S. Ehlert, A. Hansen, H. Neugebauer, S. Spicher,
     C. Bannwarth and S. Grimme, J. Chem. Phys., 2019, 150, 154122.
     DOI: 10.1063/1.5090222
   * E. Caldeweyher, J.-M. Mewes, S. Ehlert and S. Grimme, Phys. Chem. Chem. Phys.
     2020, 22, 8499-8512. DOI: 10.1039/D0CP00502A
   
   for sTDA-xTB:
   * S. Grimme and C. Bannwarth, J. Chem. Phys., 2016, 145, 054103.
     DOI: 10.1063/1.4959605
   
   in the mass-spec context:
   * V. Asgeirsson, C. Bauer and S. Grimme, Chem. Sci., 2017, 8, 4879.
     DOI: 10.1039/c7sc00601b
   * J. Koopman and S. Grimme, ACS Omega 2019, 4, 12, 15120-15133.
     DOI: 10.1021/acsomega.9b02011
   
   for metadynamics refer to:
   * S. Grimme, J. Chem. Theory Comput., 2019, 155, 2847-2862
     DOI: 10.1021/acs.jctc.9b00143
   
   for SPH calculations refer to:
   * S. Spicher and S. Grimme, J. Chem. Theory Comput., 2021, 17, 1701-1714
     DOI: 10.1021/acs.jctc.0c01306
   
   for ONIOM refer to:
   * C. Plett, A. Katbashev, S. Ehlert, S. Grimme, M. Bursch,
     Phys. Chem. Chem. Phys., 2023, 25, 17860-17868. DOI: 10.1039/D3CP02178E
   
   for DIPRO refer to:
   * J. Kohn, N. Gildemeister, S. Grimme, D. Fazzi, A. Hansen,
     J. Chem. Phys., 2023, just accepted.
   
   for PTB refer to:
   * S. Grimme, M. Mueller, A. Hansen, J. Chem. Phys., 2023, 158, 124111.
     DOI: 10.1063/5.0137838
   
   with help from (in alphabetical order)
   P. Atkinson, C. Bannwarth, F. Bohle, G. Brandenburg, E. Caldeweyher
   M. Checinski, S. Dohm, S. Ehlert, S. Ehrlich, I. Gerasimov, C. Hölzer
   A. Katbashev, J. Kohn, J. Koopman, C. Lavigne, S. Lehtola, F. März, M. Müller,
   F. Musil, H. Neugebauer, J. Pisarek, C. Plett, P. Pracht, F. Pultar,
   J. Seibert, P. Shushkov, S. Spicher, M. Stahn, M. Steiner, T. Strunk,
   J. Stückrath, T. Rose, and J. Unsleber
   
 * started run on 2026/07/09 at 20:09:32.883     
   ID    Z sym.   atoms
    1   35 Br     1, 12
    2    6 C      2-11
    3    1 H      13-32

           -------------------------------------------------
          |                Calculation Setup                |
           -------------------------------------------------

          program call               : /home/ws/xd2484/miniforge3/envs/p3z_dft/bin/xtb xtb_input.xyz --gfn 2 --opt tight --cycles 500 --chrg 0 --uhf 0
          hostname                   : gpu10
          coordinate file            : xtb_input.xyz
          omp threads                :                    16


           -------------------------------------------------
          |                 G F N 2 - x T B                 |
           -------------------------------------------------

        Reference                      10.1021/acs.jctc.8b01176
      * Hamiltonian:
        H0-scaling (s, p, d)           1.850000    2.230000    2.230000
        zeta-weighting                 0.500000
      * Dispersion:
        s8                             2.700000
        a1                             0.520000
        a2                             5.000000
        s9                             5.000000
      * Repulsion:
        kExp                           1.500000    1.000000
        rExp                           1.000000
      * Coulomb:
        alpha                          2.000000
        third order                    shell-resolved
        anisotropic                    true
        a3                             3.000000
        a5                             4.000000
        cn-shift                       1.200000
        cn-exp                         4.000000
        max-rad                        5.000000


          ...................................................
          :                      SETUP                      :
          :.................................................:
          :  # basis functions                  80          :
          :  # atomic orbitals                  78          :
          :  # shells                           46          :
          :  # electrons                        74          :
          :  max. iterations                   250          :
          :  Hamiltonian                  GFN2-xTB          :
          :  restarted?                      false          :
          :  GBSA solvation                  false          :
          :  PC potential                    false          :
          :  electronic temp.          300.0000000     K    :
          :  accuracy                    1.0000000          :
          :  -> integral cutoff          0.2500000E+02      :
          :  -> integral neglect         0.1000000E-07      :
          :  -> SCF convergence          0.1000000E-05 Eh   :
          :  -> wf. convergence          0.1000000E-03 e    :
          :  Broyden damping             0.4000000          :
          :  net charge                          0          :
          :  unpaired electrons                  0          :
          ...................................................

 iter      E             dE          RMSdq      gap      omega  full diag
   1    -40.1586735 -0.401587E+02  0.404E+00    5.97       0.0  T
   2    -40.2441873 -0.855138E-01  0.277E+00    5.27       1.0  T
   3    -40.2488729 -0.468562E-02  0.977E-01    5.42       1.0  T
   4    -40.2534039 -0.453095E-02  0.551E-01    5.24       1.0  T
   5    -40.2541097 -0.705805E-03  0.351E-01    5.24       1.0  T
   6    -40.2546083 -0.498647E-03  0.222E-01    5.20       1.0  T
   7    -40.2548872 -0.278918E-03  0.714E-02    5.18       1.0  T
   8    -40.2549117 -0.244635E-04  0.221E-02    5.18       1.0  T
   9    -40.2549121 -0.440064E-06  0.373E-03    5.18       4.7  T
  10    -40.2549122 -0.983985E-07  0.181E-03    5.18       9.8  T
  11    -40.2549122 -0.818714E-08  0.898E-04    5.18      19.7  T
  12    -40.2549122 -0.218695E-08  0.601E-04    5.18      29.4  T

   *** convergence criteria satisfied after 12 iterations ***

         #    Occupation            Energy/Eh            Energy/eV
      -------------------------------------------------------------
         1        2.0000           -0.8365077             -22.7625
       ...           ...                  ...                  ...
        31        2.0000           -0.4433993             -12.0655
        32        2.0000           -0.4388572             -11.9419
        33        2.0000           -0.4379524             -11.9173
        34        2.0000           -0.4076815             -11.0936
        35        2.0000           -0.4072831             -11.0827
        36        2.0000           -0.4066524             -11.0656
        37        2.0000           -0.4061645             -11.0523 (HOMO)
        38                         -0.2158687              -5.8741 (LUMO)
        39                         -0.2157485              -5.8708
        40                          0.0100141               0.2725
        41                          0.0217949               0.5931
        42                          0.0338368               0.9207
       ...                                ...                  ...
        78                          0.3880374              10.5590
      -------------------------------------------------------------
                  HL-Gap            0.1902958 Eh            5.1782 eV
             Fermi-level           -0.3110166 Eh           -8.4632 eV

 SCC (total)                   0 d,  0 h,  0 min,  0.292 sec
 SCC setup                      ...        0 min,  0.002 sec (  0.620%)
 Dispersion                     ...        0 min,  0.004 sec (  1.278%)
 classical contributions        ...        0 min,  0.002 sec (  0.738%)
 integral evaluation            ...        0 min,  0.007 sec (  2.517%)
 iterations                     ...        0 min,  0.235 sec ( 80.482%)
 molecular gradient             ...        0 min,  0.042 sec ( 14.278%)
 printout                       ...        0 min,  0.000 sec (  0.075%)

         :::::::::::::::::::::::::::::::::::::::::::::::::::::
         ::                     SUMMARY                     ::
         :::::::::::::::::::::::::::::::::::::::::::::::::::::
         :: total energy             -39.801865511300 Eh    ::
         :: gradient norm              0.015150303744 Eh/a0 ::
         :: HOMO-LUMO gap              5.178213151179 eV    ::
         ::.................................................::
         :: SCC energy               -40.255154970463 Eh    ::
         :: -> isotropic ES            0.014094769993 Eh    ::
         :: -> anisotropic ES          0.007107435503 Eh    ::
         :: -> anisotropic XC          0.012522875946 Eh    ::
         :: -> dispersion             -0.022949852235 Eh    ::
         :: repulsion energy           0.453289459162 Eh    ::
         :: add. restraining           0.000000000000 Eh    ::
         :: total charge               0.000000000000 e     ::
         :::::::::::::::::::::::::::::::::::::::::::::::::::::

      ----------------------------------------------------------- 
     |                   =====================                   |
     |                        A N C O P T                        |
     |                   =====================                   |
     |               Approximate Normal Coordinate               |
     |                Rational Function Optimizer                |
      ----------------------------------------------------------- 
      ----------------------------------------------------------- 
     |                   =====================                   |
     |                        A N C O P T                        |
     |                   =====================                   |
     |               Approximate Normal Coordinate               |
     |                Rational Function Optimizer                |
      ----------------------------------------------------------- 

          ...................................................
          :                      SETUP                      :
          :.................................................:
          :   optimization level             tight          :
          :   max. optcycles                   500          :
          :   ANC micro-cycles                  20          :
          :   degrees of freedom                90          :
          :.................................................:
          :   RF solver                   davidson          :
          :   write xtbopt.log                true          :
          :   linear?                        false          :
          :   energy convergence         0.1000000E-05 Eh   :
          :   grad. convergence          0.8000000E-03 Eh/α :
          :   maxmium RF displ.          1.0000000          :
          :   Hlow (freq-cutoff)         0.1000000E-01      :
          :   Hmax (freq-cutoff)         5.0000000          :
          :   S6 in model hess.         20.0000000          :
          ...................................................

generating ANC from exact Hessian ...
Using Lindh-Hessian (1995)
 Shifting diagonal of input Hessian by    9.5146117825595580E-003
 Lowest  eigenvalues of input Hessian
    0.000000    0.000000    0.000000    0.000000    0.000000    0.000000
    0.010000    0.010301    0.010752    0.011367    0.011975    0.012628
    0.013503    0.014406    0.014875    0.015803    0.016755    0.017129
 Highest eigenvalues
    1.195199    1.204305    1.227468    1.236743    1.263708    1.294425


........................................................................
.............................. CYCLE    1 ..............................
........................................................................

 iter      E             dE          RMSdq      gap      omega  full diag
   1    -40.2549122 -0.402549E+02  0.229E-04    5.18       0.0  T
   2    -40.2549122 -0.248370E-09  0.161E-04    5.18     109.6  T
   3    -40.2549122 -0.638991E-10  0.125E-04    5.18     140.9  T
     SCC iter.                  ...        0 min,  0.044 sec
     gradient                   ...        0 min,  0.035 sec
 * total energy  :   -39.8018655 Eh     change       -0.1422734E-08 Eh
   gradient norm :     0.0151507 Eh/α   predicted     0.0000000E+00 (-100.00%)
   displ. norm   :     0.1340894 α      lambda       -0.1199557E-02
   maximum displ.:     0.0510451 α      in ANC's #42, #11, #13, ...

........................................................................
.............................. CYCLE    2 ..............................
........................................................................

 iter      E             dE          RMSdq      gap      omega  full diag
   1    -40.2654413 -0.402654E+02  0.130E-01    5.13       0.0  T
   2    -40.2654473 -0.602965E-05  0.727E-02    5.13       1.0  T
   3    -40.2654493 -0.197799E-05  0.208E-02    5.13       1.0  T
   4    -40.2654507 -0.137649E-05  0.149E-02    5.13       1.2  T
   5    -40.2654515 -0.819747E-06  0.872E-03    5.14       2.0  T
   6    -40.2654518 -0.325148E-06  0.505E-03    5.14       3.5  T
   7    -40.2654520 -0.148190E-06  0.900E-04    5.14      19.7  T
   8    -40.2654520 -0.306461E-08  0.396E-04    5.14      44.7  T
     SCC iter.                  ...        0 min,  0.118 sec
     gradient                   ...        0 min,  0.035 sec
 * total energy  :   -39.8024848 Eh     change       -0.6192425E-03 Eh
   gradient norm :     0.0064842 Eh/α   predicted    -0.6105630E-03 (  -1.40%)
   displ. norm   :     0.0384235 α      lambda       -0.8304091E-04
   maximum displ.:     0.0167539 α      in ANC's #14, #18, #17, ...

........................................................................
.............................. CYCLE    3 ..............................
........................................................................

 iter      E             dE          RMSdq      gap      omega  full diag
   1    -40.2675488 -0.402675E+02  0.201E-02    5.13       0.0  T
   2    -40.2675492 -0.397121E-06  0.116E-02    5.13       1.5  T
   3    -40.2675492 -0.207314E-07  0.303E-03    5.13       5.8  T
   4    -40.2675492 -0.348693E-07  0.154E-03    5.13      11.5  T
   5    -40.2675492 -0.693058E-08  0.950E-04    5.13      18.6  T
   6    -40.2675492 -0.280640E-08  0.697E-04    5.13      25.3  T
     SCC iter.                  ...        0 min,  0.071 sec
     gradient                   ...        0 min,  0.032 sec
 * total energy  :   -39.8025344 Eh     change       -0.4967795E-04 Eh
   gradient norm :     0.0020975 Eh/α   predicted    -0.4190320E-04 ( -15.65%)
   displ. norm   :     0.0291258 α      lambda       -0.1922490E-04
   maximum displ.:     0.0159556 α      in ANC's #14, #8, #13, ...

........................................................................
.............................. CYCLE    4 ..............................
........................................................................

 iter      E             dE          RMSdq      gap      omega  full diag
   1    -40.2679738 -0.402680E+02  0.152E-02    5.11       0.0  T
   2    -40.2679739 -0.101141E-06  0.860E-03    5.12       2.1  T
   3    -40.2679740 -0.572975E-07  0.295E-03    5.12       6.0  T
   4    -40.2679740 -0.194374E-07  0.194E-03    5.12       9.1  T
   5    -40.2679740 -0.163603E-07  0.121E-03    5.12      14.6  T
   6    -40.2679740 -0.703781E-08  0.544E-04    5.12      32.5  T
   7    -40.2679740 -0.170166E-08  0.161E-04    5.12     109.9  T
     SCC iter.                  ...        0 min,  0.148 sec
     gradient                   ...        0 min,  0.035 sec
 * total energy  :   -39.8025459 Eh     change       -0.1145886E-04 Eh
   gradient norm :     0.0005919 Eh/α   predicted    -0.9620971E-05 ( -16.04%)
   displ. norm   :     0.0288588 α      lambda       -0.4186590E-05
   maximum displ.:     0.0144029 α      in ANC's #14, #13, #8, ...

........................................................................
.............................. CYCLE    5 ..............................
........................................................................

 iter      E             dE          RMSdq      gap      omega  full diag
   1    -40.2677755 -0.402678E+02  0.103E-02    5.11       0.0  T
   2    -40.2677755 -0.247497E-07  0.561E-03    5.11       3.2  T
   3    -40.2677755 -0.148864E-07  0.151E-03    5.11      11.7  T
   4    -40.2677755 -0.445382E-08  0.963E-04    5.11      18.4  T
   5    -40.2677755 -0.411333E-08  0.594E-04    5.11      29.7  T
     SCC iter.                  ...        0 min,  0.060 sec
     gradient                   ...        0 min,  0.038 sec
 * total energy  :   -39.8025497 Eh     change       -0.3846611E-05 Eh
   gradient norm :     0.0008494 Eh/α   predicted    -0.2094695E-05 ( -45.54%)
   displ. norm   :     0.0287488 α      lambda       -0.2770383E-05
   maximum displ.:     0.0150917 α      in ANC's #4, #7, #14, ...

........................................................................
.............................. CYCLE    6 ..............................
........................................................................

 iter      E             dE          RMSdq      gap      omega  full diag
   1    -40.2675816 -0.402676E+02  0.805E-03    5.11       0.0  T
   2    -40.2675816 -0.169611E-07  0.435E-03    5.11       4.1  T
   3    -40.2675816 -0.432951E-08  0.910E-04    5.11      19.4  T
   4    -40.2675816 -0.172359E-08  0.592E-04    5.11      29.8  T
     SCC iter.                  ...        0 min,  0.053 sec
     gradient                   ...        0 min,  0.030 sec
 * total energy  :   -39.8025527 Eh     change       -0.2927872E-05 Eh
   gradient norm :     0.0003561 Eh/α   predicted    -0.1386243E-05 ( -52.65%)
   displ. norm   :     0.0379190 α      lambda       -0.2348183E-05
   maximum displ.:     0.0217712 α      in ANC's #4, #7, #6, ...

........................................................................
.............................. CYCLE    7 ..............................
........................................................................

 iter      E             dE          RMSdq      gap      omega  full diag
   1    -40.2676023 -0.402676E+02  0.124E-02    5.11       0.0  T
   2    -40.2676023 -0.359795E-07  0.651E-03    5.11       2.7  T
   3    -40.2676024 -0.144390E-07  0.128E-03    5.11      13.8  T
   4    -40.2676024 -0.255535E-08  0.667E-04    5.11      26.5  T
   5    -40.2676024 -0.160906E-08  0.448E-04    5.11      39.4  T
     SCC iter.                  ...        0 min,  0.055 sec
     gradient                   ...        0 min,  0.027 sec
 * total energy  :   -39.8025549 Eh     change       -0.2205235E-05 Eh
   gradient norm :     0.0004039 Eh/α   predicted    -0.1176731E-05 ( -46.64%)
   displ. norm   :     0.0270296 α      lambda       -0.1205269E-05
   maximum displ.:     0.0155813 α      in ANC's #4, #7, #6, ...

........................................................................
.............................. CYCLE    8 ..............................
........................................................................

 iter      E             dE          RMSdq      gap      omega  full diag
   1    -40.2676848 -0.402677E+02  0.107E-02    5.12       0.0  T
   2    -40.2676848 -0.276171E-07  0.560E-03    5.12       3.2  T
   3    -40.2676848 -0.106716E-07  0.113E-03    5.12      15.6  T
   4    -40.2676848 -0.205804E-08  0.768E-04    5.12      23.0  T
   5    -40.2676848 -0.229642E-08  0.410E-04    5.12      43.1  T
     SCC iter.                  ...        0 min,  0.057 sec
     gradient                   ...        0 min,  0.030 sec
 * total energy  :   -39.8025560 Eh     change       -0.1160208E-05 Eh
   gradient norm :     0.0002822 Eh/α   predicted    -0.6122181E-06 ( -47.23%)
   displ. norm   :     0.0188263 α      lambda       -0.6551330E-06
   maximum displ.:     0.0105913 α      in ANC's #7, #4, #6, ...

........................................................................
.............................. CYCLE    9 ..............................
........................................................................

 iter      E             dE          RMSdq      gap      omega  full diag
   1    -40.2677034 -0.402677E+02  0.103E-02    5.12       0.0  T
   2    -40.2677034 -0.240338E-07  0.518E-03    5.12       3.4  T
   3    -40.2677034 -0.842710E-08  0.876E-04    5.12      20.2  T
   4    -40.2677034 -0.100133E-08  0.549E-04    5.12      32.2  T
     SCC iter.                  ...        0 min,  0.044 sec
     gradient                   ...        0 min,  0.026 sec
 * total energy  :   -39.8025568 Eh     change       -0.7185963E-06 Eh
   gradient norm :     0.0001601 Eh/α   predicted    -0.3325076E-06 ( -53.73%)
   displ. norm   :     0.0209660 α      lambda       -0.5235063E-06
   maximum displ.:     0.0104535 α      in ANC's #4, #6, #7, ...

   *** GEOMETRY OPTIMIZATION CONVERGED AFTER 9 ITERATIONS ***

------------------------------------------------------------------------
 total energy gain   :        -0.0006912 Eh       -0.4338 kcal/mol
 total RMSD          :         0.0409930 a0        0.0217 Å
 total power (kW/mol):        -0.2016498 (step)   -1.4724 (real)
------------------------------------------------------------------------

 ANCopt (total)                0 d,  0 h,  0 min,  1.233 sec
 optimizer setup                ...        0 min,  0.001 sec (  0.052%)
 model hessian                  ...        0 min,  0.015 sec (  1.187%)
 ANC generation                 ...        0 min,  0.001 sec (  0.119%)
 coordinate transformation      ...        0 min,  0.000 sec (  0.015%)
 single point calculation       ...        0 min,  1.185 sec ( 96.155%)
 optimization log               ...        0 min,  0.001 sec (  0.113%)
 hessian update                 ...        0 min,  0.026 sec (  2.110%)
 rational function              ...        0 min,  0.001 sec (  0.068%)

================
 final structure:
================
32
 xtb: 6.7.1 (edcfbbe)
Br          -6.48234396266039        2.00497139856597        1.02460773630292
C           -4.76087812384054        1.07749707092360        1.08954752306725
C           -4.57354739349384        0.20202620914496       -0.13571213233395
C           -3.27999531236533       -0.61182573819606       -0.06766071263119
C           -2.01671837629123        0.24246776107200       -0.15777751564043
C           -0.75873695410209       -0.62024038545252       -0.22980085318181
C            0.51087539229297        0.22452212465553       -0.30184285251809
C            1.76774107704779       -0.63918189874145       -0.37033382221036
C            3.03752919353821        0.20584175585952       -0.44094094045932
C            4.29076708571906       -0.66555221491230       -0.50635166277242
C            5.54005389679092        0.19138658301292       -0.57666749174341
Br           7.14969954856086       -0.91605597105327       -0.65968401097638
H           -4.76769938973057        0.48915626470248        2.00667862222873
H           -4.00625713534730        1.85880515654975        1.15709272245573
H           -5.42046095275238       -0.48431725844861       -0.21406918595639
H           -4.56756012422736        0.82625725917552       -1.03256415704985
H           -3.26270036979514       -1.18991117686184        0.85950395513720
H           -3.28213334327364       -1.32216831875781       -0.89731985221525
H           -2.07056244623435        0.87468860822778       -1.04725442061865
H           -1.94494209779832        0.89703586277390        0.71319906885863
H           -0.71331037279539       -1.26571501578454        0.65050410861997
H           -0.81294442992283       -1.26581254801259       -1.10933699182487
H            0.56511456775618        0.87134443425682        0.57714367441670
H            0.46645176757188        0.86874388370116       -1.18312430471387
H            1.81141893929294       -1.28349586957361        0.51068585233307
H            1.71448580082780       -1.28526543884726       -1.24944331808868
H            2.99533473070499        0.84914137181768       -1.32336941355453
H            3.09048895209631        0.85337657222529        0.43785712640042
H            4.33694315638425       -1.30732031995311        0.37683997216897
H            4.24129663484527       -1.31262913484932       -1.38545660958525
H            5.64928863178126        0.81913392537285        0.30714417315315
H            5.55330140941800        0.81309504740456       -1.47131607117403

 Bond Distances (Angstroems)
 ---------------------------
Br1-C2=1.9565        C2-Br1=1.9565        C2-C3=1.5175         C2-H13=1.0896        C2-H14=1.0883        C3-C2=1.5175         
C3-C4=1.5298         C3-H15=1.0929        C3-H16=1.0927        C4-C3=1.5298         C4-C5=1.5277         C4-H17=1.0928        
C4-H18=1.0922        C5-C4=1.5277         C5-C6=1.5271         C5-H19=1.0926        C5-H20=1.0919        C6-C5=1.5271         
C6-C7=1.5267         C6-H21=1.0925        C6-H22=1.0924        C7-C6=1.5267         C7-C8=1.5266         C7-H23=1.0927        
C7-H24=1.0925        C8-C7=1.5266         C8-C9=1.5269         C8-H25=1.0924        C8-H26=1.0923        C9-C8=1.5269         
C9-C10=1.5278        C9-H27=1.0928        C9-H28=1.0929        C10-C9=1.5278        C10-C11=1.5166       C10-H29=1.0927       
C10-H30=1.0927       C11-C10=1.5166       C11-Br12=1.9556      C11-H31=1.0896       C11-H32=1.0895       Br12-C11=1.9556      
H13-C2=1.0896        H14-C2=1.0883        H15-C3=1.0929        H16-C3=1.0927        H17-C4=1.0928        H18-C4=1.0922        
H19-C5=1.0926        H20-C5=1.0919        H21-C6=1.0925        H22-C6=1.0924        H23-C7=1.0927        H24-C7=1.0925        
H25-C8=1.0924        H26-C8=1.0923        H27-C9=1.0928        H28-C9=1.0929        H29-C10=1.0927       H30-C10=1.0927       
H31-C11=1.0896       H32-C11=1.0895       
 C  H  Rav=1.0919 sigma=0.0014  Rmin=1.0883  Rmax=1.0929    20
 C  C  Rav=1.5252 sigma=0.0044  Rmin=1.5166  Rmax=1.5298     9
 Br C  Rav=1.9560 sigma=0.0005  Rmin=1.9556  Rmax=1.9565     2

 selected bond angles (degree)
 --------------------
C3-C2-Br1=110.81               H13-C2-Br1=106.16              H13-C2-C3=111.65               H14-C2-Br1=105.77              
H14-C2-C3=112.25               H14-C2-H13=109.86              C4-C3-C2=112.05                H15-C3-C2=108.94               
H15-C3-C4=108.93               H16-C3-C2=109.50               H16-C3-C4=109.62               H16-C3-H15=107.71              
C5-C4-C3=113.52                H17-C4-C3=109.42               H17-C4-C5=109.44               H18-C4-C3=108.09               
H18-C4-C5=108.69               H18-C4-H17=107.49              C6-C5-C4=111.60                H19-C5-C4=109.32               
H19-C5-C6=109.21               H20-C5-C4=110.03               H20-C5-C6=108.79               H20-C5-H19=107.80              
C7-C6-C5=112.01                H21-C6-C5=109.27               H21-C6-C7=109.29               H22-C6-C5=109.33               
H22-C6-C7=109.29               H22-C6-H21=107.56              C8-C7-C6=111.95                H23-C7-C6=109.32               
H23-C7-C8=109.28               H24-C7-C6=109.30               H24-C7-C8=109.32               H24-C7-H23=107.57              
C9-C8-C7=111.94                H25-C8-C7=109.30               H25-C8-C9=109.30               H26-C8-C7=109.31               
H26-C8-C9=109.31               H26-C8-H25=107.59              C10-C9-C8=111.62               H27-C9-C8=109.33               
H27-C9-C10=109.44              H28-C9-C8=109.33               H28-C9-C10=109.43              H28-C9-H27=107.60              
C11-C10-C9=110.82              H29-C10-C9=109.57              H29-C10-C11=109.54             H30-C10-C9=109.58              
H30-C10-C11=109.55             H30-C10-H29=107.72             

 selected dihedral angles (degree)
 ---------------------------------
C4-C3-C2-Br1=183.99           C4-C3-C2-H13=302.10           C4-C3-C2-H14= 65.97           H15-C3-C2-Br1=304.58          
H15-C3-C2-H13= 62.70          H15-C3-C2-H14=186.56          H16-C3-C2-Br1= 62.14          H16-C3-C2-H13=180.25          
H16-C3-C2-H14=304.12          C5-C4-C3-C2=292.32            C5-C4-C3-H15=171.72           C5-C4-C3-H16= 54.10           
H17-C4-C3-C2= 54.89           H17-C4-C3-H15=294.29          H17-C4-C3-H16=176.67          H18-C4-C3-C2=171.66           
H18-C4-C3-H15= 51.06          H18-C4-C3-H16=293.44          C6-C5-C4-C3=185.83            C6-C5-C4-H17= 63.27           
C6-C5-C4-H18=306.15           H19-C5-C4-C3=306.75           H19-C5-C4-H17=184.19          H19-C5-C4-H18= 67.07          
H20-C5-C4-C3= 64.96           H20-C5-C4-H17=302.40          H20-C5-C4-H18=185.28          C7-C6-C5-C4=180.74            
C7-C6-C5-H19= 59.76           C7-C6-C5-H20=302.33           H21-C6-C5-C4=301.99           H21-C6-C5-H19=181.01          
H21-C6-C5-H20= 63.58          H22-C6-C5-C4= 59.46           H22-C6-C5-H19=298.48          H22-C6-C5-H20=181.05          
C8-C7-C6-C5=179.86            C8-C7-C6-H21= 58.62           C8-C7-C6-H22=301.17           H23-C7-C6-C5= 58.63           
H23-C7-C6-H21=297.39          H23-C7-C6-H22=179.94          H24-C7-C6-C5=301.13           H24-C7-C6-H21=179.90          
H24-C7-C6-H22= 62.44          C9-C8-C7-C6=180.06            C9-C8-C7-H23=301.31           C9-C8-C7-H24= 58.80           
H25-C8-C7-C6=301.29           H25-C8-C7-H23= 62.55          H25-C8-C7-H24=180.03          H26-C8-C7-C6= 58.80           
H26-C8-C7-H23=180.06          H26-C8-C7-H24=297.54          C10-C9-C8-C7=179.88           C10-C9-C8-H25= 58.65          
C10-C9-C8-H26=301.14          H27-C9-C8-C7=301.11           H27-C9-C8-H25=179.88          H27-C9-C8-H26= 62.37          
H28-C9-C8-C7= 58.67           H28-C9-C8-H25=297.44          H28-C9-C8-H26=179.93          C11-C10-C9-C8=179.97          
C11-C10-C9-H27= 58.80         C11-C10-C9-H28=301.12         H29-C10-C9-C8=300.97          H29-C10-C9-H27=179.81         
H29-C10-C9-H28= 62.13         H30-C10-C9-C8= 58.96          H30-C10-C9-H27=297.80         H30-C10-C9-H28=180.12         
           -------------------------------------------------
          |                Final Singlepoint                |
           -------------------------------------------------

          ...................................................
          :                      SETUP                      :
          :.................................................:
          :  # basis functions                  80          :
          :  # atomic orbitals                  78          :
          :  # shells                           46          :
          :  # electrons                        74          :
          :  max. iterations                   250          :
          :  Hamiltonian                  GFN2-xTB          :
          :  restarted?                      false          :
          :  GBSA solvation                  false          :
          :  PC potential                    false          :
          :  electronic temp.          300.0000000     K    :
          :  accuracy                    1.0000000          :
          :  -> integral cutoff          0.2500000E+02      :
          :  -> integral neglect         0.1000000E-07      :
          :  -> SCF convergence          0.1000000E-05 Eh   :
          :  -> wf. convergence          0.1000000E-03 e    :
          :  Broyden damping             0.4000000          :
          :  net charge                          0          :
          :  unpaired electrons                  0          :
          ...................................................

 iter      E             dE          RMSdq      gap      omega  full diag
   1    -40.2677034 -0.402677E+02  0.280E-04    5.12       0.0  T
   2    -40.2677034 -0.107910E-09  0.220E-04    5.12      80.3  T
   3    -40.2677034 -0.124643E-09  0.103E-04    5.12     171.5  T

   *** convergence criteria satisfied after 3 iterations ***

         #    Occupation            Energy/Eh            Energy/eV
      -------------------------------------------------------------
         1        2.0000           -0.8358824             -22.7455
       ...           ...                  ...                  ...
        31        2.0000           -0.4438730             -12.0784
        32        2.0000           -0.4399786             -11.9724
        33        2.0000           -0.4382778             -11.9261
        34        2.0000           -0.4073905             -11.0857
        35        2.0000           -0.4068965             -11.0722
        36        2.0000           -0.4061624             -11.0522
        37        2.0000           -0.4056357             -11.0379 (HOMO)
        38                         -0.2175929              -5.9210 (LUMO)
        39                         -0.2170812              -5.9071
        40                          0.0096278               0.2620
        41                          0.0230816               0.6281
        42                          0.0336852               0.9166
       ...                                ...                  ...
        78                          0.3798367              10.3359
      -------------------------------------------------------------
                  HL-Gap            0.1880428 Eh            5.1169 eV
             Fermi-level           -0.3116143 Eh           -8.4795 eV

 SCC (total)                   0 d,  0 h,  0 min,  0.070 sec
 SCC setup                      ...        0 min,  0.003 sec (  4.389%)
 Dispersion                     ...        0 min,  0.006 sec (  8.692%)
 classical contributions        ...        0 min,  0.003 sec (  4.260%)
 integral evaluation            ...        0 min,  0.009 sec ( 12.893%)
 iterations                     ...        0 min,  0.026 sec ( 37.654%)
 molecular gradient             ...        0 min,  0.022 sec ( 31.811%)
 printout                       ...        0 min,  0.000 sec (  0.263%)

         :::::::::::::::::::::::::::::::::::::::::::::::::::::
         ::                     SUMMARY                     ::
         :::::::::::::::::::::::::::::::::::::::::::::::::::::
         :: total energy             -39.802556751979 Eh    ::
         :: gradient norm              0.000160105905 Eh/a0 ::
         :: HOMO-LUMO gap              5.116906026313 eV    ::
         ::.................................................::
         :: SCC energy               -40.267950654887 Eh    ::
         :: -> isotropic ES            0.014452594028 Eh    ::
         :: -> anisotropic ES          0.006867775444 Eh    ::
         :: -> anisotropic XC          0.013138519748 Eh    ::
         :: -> dispersion             -0.022919389488 Eh    ::
         :: repulsion energy           0.465393902908 Eh    ::
         :: add. restraining           0.000000000000 Eh    ::
         :: total charge              -0.000000000000 e     ::
         :::::::::::::::::::::::::::::::::::::::::::::::::::::

           -------------------------------------------------
          |                Property Printout                |
           -------------------------------------------------

    * Orbital Energies and Occupations

         #    Occupation            Energy/Eh            Energy/eV
      -------------------------------------------------------------
         1        2.0000           -0.8358824             -22.7455
       ...           ...                  ...                  ...
        25        2.0000           -0.4711270             -12.8200
        26        2.0000           -0.4685549             -12.7500
        27        2.0000           -0.4646987             -12.6451
        28        2.0000           -0.4574454             -12.4477
        29        2.0000           -0.4535382             -12.3414
        30        2.0000           -0.4496429             -12.2354
        31        2.0000           -0.4438730             -12.0784
        32        2.0000           -0.4399786             -11.9724
        33        2.0000           -0.4382778             -11.9261
        34        2.0000           -0.4073905             -11.0857
        35        2.0000           -0.4068965             -11.0722
        36        2.0000           -0.4061624             -11.0522
        37        2.0000           -0.4056357             -11.0379 (HOMO)
        38                         -0.2175929              -5.9210 (LUMO)
        39                         -0.2170812              -5.9071
        40                          0.0096278               0.2620
        41                          0.0230816               0.6281
        42                          0.0336852               0.9166
        43                          0.0393829               1.0717
        44                          0.0398475               1.0843
        45                          0.0455735               1.2401
        46                          0.0505486               1.3755
        47                          0.0566660               1.5420
        48                          0.0569772               1.5504
       ...                                ...                  ...
        78                          0.3798367              10.3359
      -------------------------------------------------------------
                  HL-Gap            0.1880428 Eh            5.1169 eV
             Fermi-level           -0.3116143 Eh           -8.4795 eV

     #   Z          covCN         q      C6AA      α(0)
     1  35 Br       0.981    -0.199   190.531    22.256
     2   6 C        3.741     0.026    20.205     6.413
     3   6 C        3.865    -0.055    21.523     6.597
     4   6 C        3.803    -0.061    21.677     6.628
     5   6 C        3.802    -0.059    21.638     6.623
     6   6 C        3.803    -0.059    21.639     6.623
     7   6 C        3.803    -0.059    21.625     6.621
     8   6 C        3.803    -0.059    21.625     6.620
     9   6 C        3.804    -0.059    21.630     6.621
    10   6 C        3.864    -0.055    21.519     6.597
    11   6 C        3.742     0.026    20.209     6.413
    12  35 Br       0.979    -0.196   190.460    22.252
    13   1 H        0.926     0.055     2.261     2.351
    14   1 H        0.926     0.056     2.248     2.345
    15   1 H        0.924     0.048     2.347     2.396
    16   1 H        0.924     0.047     2.356     2.400
    17   1 H        0.924     0.033     2.540     2.492
    18   1 H        0.924     0.041     2.432     2.439
    19   1 H        0.924     0.034     2.525     2.485
    20   1 H        0.924     0.028     2.608     2.526
    21   1 H        0.924     0.032     2.560     2.502
    22   1 H        0.924     0.033     2.546     2.495
    23   1 H        0.924     0.031     2.570     2.507
    24   1 H        0.924     0.032     2.555     2.500
    25   1 H        0.924     0.034     2.524     2.485
    26   1 H        0.924     0.035     2.520     2.482
    27   1 H        0.924     0.033     2.550     2.497
    28   1 H        0.924     0.032     2.554     2.499
    29   1 H        0.924     0.047     2.355     2.400
    30   1 H        0.924     0.047     2.353     2.399
    31   1 H        0.926     0.054     2.268     2.355
    32   1 H        0.926     0.054     2.267     2.354

 Mol. C6AA /au·bohr⁶  :      10999.383441
 Mol. C8AA /au·bohr⁸  :     331278.600699
 Mol. α(0) /au        :        159.172766


Wiberg/Mayer (AO) data.
largest (>0.10) Wiberg bond orders for each atom

 ---------------------------------------------------------------------------
     #   Z sym  total        # sym  WBO       # sym  WBO       # sym  WBO
 ---------------------------------------------------------------------------
     1  35 Br   1.008 --     2 C    0.960
     2   6 C    3.952 --     3 C    1.018    13 H    0.978    14 H    0.978
                             1 Br   0.960
     3   6 C    3.993 --     2 C    1.018     4 C    0.999    16 H    0.976
                            15 H    0.976
     4   6 C    3.996 --     5 C    1.008     3 C    0.999    17 H    0.977
                            18 H    0.975
     5   6 C    3.997 --     4 C    1.008     6 C    1.007    19 H    0.977
                            20 H    0.976
     6   6 C    3.996 --     7 C    1.007     5 C    1.007    21 H    0.977
                            22 H    0.977
     7   6 C    3.996 --     6 C    1.007     8 C    1.007    24 H    0.977
                            23 H    0.977
     8   6 C    3.993 --     7 C    1.007     9 C    1.005    26 H    0.977
                            25 H    0.977
     9   6 C    3.996 --     8 C    1.005    10 C    0.999    27 H    0.977
                            28 H    0.977
    10   6 C    3.993 --    11 C    1.018     9 C    0.999    29 H    0.976
                            30 H    0.976
    11   6 C    3.952 --    10 C    1.018    31 H    0.979    32 H    0.979
                            12 Br   0.960
    12  35 Br   1.004 --    11 C    0.960
    13   1 H    0.997 --     2 C    0.978
    14   1 H    0.997 --     2 C    0.978
    15   1 H    0.997 --     3 C    0.976
    16   1 H    0.998 --     3 C    0.976
    17   1 H    0.999 --     4 C    0.977
    18   1 H    0.998 --     4 C    0.975
    19   1 H    0.999 --     5 C    0.977
    20   1 H    0.999 --     5 C    0.976
    21   1 H    0.999 --     6 C    0.977
    22   1 H    0.999 --     6 C    0.977
    23   1 H    0.999 --     7 C    0.977
    24   1 H    0.999 --     7 C    0.977
    25   1 H    0.999 --     8 C    0.977
    26   1 H    0.999 --     8 C    0.977
    27   1 H    0.999 --     9 C    0.977
    28   1 H    0.999 --     9 C    0.977
    29   1 H    0.998 --    10 C    0.976
    30   1 H    0.998 --    10 C    0.976
    31   1 H    0.997 --    11 C    0.979
    32   1 H    0.997 --    11 C    0.979
 ---------------------------------------------------------------------------

Topologies differ in total number of bonds
Writing topology from bond orders to xtbtopo.mol

molecular dipole:
                 x           y           z       tot (Debye)
 q only:       -0.077      -0.143      -0.081
   full:       -0.019      -0.031      -0.001       0.093
molecular quadrupole (traceless):
                xx          xy          yy          xz          yz          zz
 q only:      -33.895      18.936      15.109       5.785      -1.960      18.786
  q+dip:      -64.912      39.234      25.954       8.689      -4.122      38.958
   full:      -61.856      37.284      25.624       8.481      -3.843      36.232

           -------------------------------------------------
          |                Geometry Summary                 |
           -------------------------------------------------

      molecular mass/u    :      300.0732296
   center of mass at/Å    :        0.1665551       0.2718866       0.0180857
  moments of inertia/u·Å² :        0.1622985E+03   0.9587823E+04   0.9696443E+04
rotational constants/cm⁻¹ :        0.1038681E+00   0.1758233E-02   0.1738538E-02

 * 31 selected distances

     #   Z          #   Z                                           value/Å
     1  35 Br       2   6 C                                       1.9564946 (max)
     2   6 C        3   6 C                                       1.5174992
     3   6 C        4   6 C                                       1.5297919
     4   6 C        5   6 C                                       1.5276804
     5   6 C        6   6 C                                       1.5270790
     6   6 C        7   6 C                                       1.5266728
     7   6 C        8   6 C                                       1.5265607
     8   6 C        9   6 C                                       1.5268964
     9   6 C       10   6 C                                       1.5278127
    10   6 C       11   6 C                                       1.5165772
    11   6 C       12  35 Br                                      1.9555768
     2   6 C       13   1 H                                       1.0896427
     2   6 C       14   1 H                                       1.0883280 (min)
     3   6 C       15   1 H                                       1.0929181
     3   6 C       16   1 H                                       1.0927232
     4   6 C       17   1 H                                       1.0927563
     4   6 C       18   1 H                                       1.0922114
     5   6 C       19   1 H                                       1.0925986
     5   6 C       20   1 H                                       1.0918845
     6   6 C       21   1 H                                       1.0925375
     6   6 C       22   1 H                                       1.0923763
     7   6 C       23   1 H                                       1.0926749
     7   6 C       24   1 H                                       1.0925440
     8   6 C       25   1 H                                       1.0923571
     8   6 C       26   1 H                                       1.0922883
     9   6 C       27   1 H                                       1.0928380
     9   6 C       28   1 H                                       1.0928826
    10   6 C       29   1 H                                       1.0927151
    10   6 C       30   1 H                                       1.0926946
    11   6 C       31   1 H                                       1.0895514
    11   6 C       32   1 H                                       1.0895381

 * 3 distinct bonds (by element types)

   Z      Z             #   av. dist./Å        max./Å        min./Å
   1 H    6 C          20     1.0919030     1.0929181     1.0883280
   6 C    6 C           9     1.5251745     1.5297919     1.5165772
   6 C   35 Br          2     1.9560357     1.9564946     1.9555768


optimized geometry written to: xtbopt.xyz


           -------------------------------------------------
          | TOTAL ENERGY              -39.802556751979 Eh   |
          | GRADIENT NORM               0.000160105905 Eh/α |
          | HOMO-LUMO GAP               5.116906026313 eV   |
           -------------------------------------------------

------------------------------------------------------------------------
 * finished run on 2026/07/09 at 20:09:34.546     
------------------------------------------------------------------------
 total:
 * wall-time:     0 d,  0 h,  0 min,  1.663 sec
 *  cpu-time:     0 d,  0 h,  0 min, 26.364 sec
 * ratio c/w:    15.855 speedup
 SCF:
 * wall-time:     0 d,  0 h,  0 min,  0.293 sec
 *  cpu-time:     0 d,  0 h,  0 min,  4.677 sec
 * ratio c/w:    15.979 speedup
 ANC optimizer:
 * wall-time:     0 d,  0 h,  0 min,  1.310 sec
 *  cpu-time:     0 d,  0 h,  0 min, 20.896 sec
 * ratio c/w:    15.947 speedup

