28
 energy: -32.519385514432 gnorm: 0.000287103993 xtb: 6.7.1 (edcfbbe)
C           -4.45472969300294        0.53644139202489       -0.33350647363208
C           -3.12818925432964       -0.19749870441519       -0.48194816527328
C           -2.33343785531678       -0.19315845813480        0.82187931520442
C           -0.99480177171964       -0.91316294834592        0.67278098634916
C            0.00787001946170       -0.12224232478581       -0.14504695254076
O           -0.06930595319483        1.06865732891000       -0.30368407932370
C            1.11656528568274       -0.96524932540984       -0.74510233254216
C            2.35541587478966       -0.14527682426245       -1.09937188193328
C            3.12206910525466        0.29135414782025        0.14693141084806
C            4.34713631763799        1.12333043172378       -0.21008026139507
H           -4.28367739642820        1.57395136643835       -0.05595637954545
H           -5.06543896431138        0.07106540248423        0.43781971787657
H           -5.00951773952850        0.51806760412189       -1.26876807122125
H           -2.53465003755418        0.28258355644273       -1.26230082301969
H           -3.31616462691396       -1.22993767323330       -0.78954275700731
H           -2.14236777307186        0.83891522102851        1.12098576153009
H           -2.92067439993648       -0.67384357078082        1.60747492570057
H           -1.13232644924177       -1.90047939450617        0.22754702146063
H           -0.53985362125812       -1.05691734607886        1.65765777765202
H            1.37072291074513       -1.77664726066548       -0.06024119338346
H            0.70031286925046       -1.41731794264556       -1.65067651342875
H            3.01210179861949       -0.73569519298053       -1.74225128412335
H            2.04006498284604        0.74027390685015       -1.65397690467541
H            3.43421446208172       -0.59269242946823        0.70989533727784
H            2.45929063078874        0.87902075640832        0.78498744808733
H            4.88382587804566        1.41997013793096        0.68816584764837
H            5.02492545862979        0.55426684540560       -0.84354602379863
H            4.05061994197476        2.02222129812139       -0.74565178523448
