24
 energy: -39.506889506334 gnorm: 0.000112067377 xtb: 6.7.1 (edcfbbe)
C            0.38402969103952       -3.13699254331725       -0.13820467038654
C            0.13569653943977       -1.83047666223921       -0.09144707873402
C            1.22964318207843       -0.86780790781903        0.24006049131535
O            2.17439000175495       -1.14417502835414        0.93388217010571
O            1.04103823580037        0.31055041173046       -0.35008728487465
C            2.03320501860439        1.31399235485144       -0.12869072878886
C            3.21168467566744        1.14985729887759       -1.07770522624338
C           -1.23799672428563       -1.31395463554922       -0.37119167306453
O           -2.02625968577145       -1.86160582759092       -1.09928939314277
O           -1.49638887354747       -0.20284519102023        0.31164462677033
C           -2.78964523478441        0.37467911879379        0.12177045433427
C           -2.87234078559107        1.64029413293551        0.95321851752385
H            1.36897220452678       -3.51933603838517        0.07162626519937
H           -0.39484231106245       -3.83817757819192       -0.38698973695394
H            2.37224570359191        1.25318306911629        0.91058476282487
H            1.51876709961776        2.26191556362357       -0.29933040070103
H            3.91334816075664        1.96593995790376       -0.93122552812435
H            2.86783367756608        1.15650645483207       -2.10927229233254
H            3.71936820515781        0.20907904821113       -0.88004920547047
H           -2.92728347748368        0.58505033553695       -0.94470866423206
H           -3.54954957056518       -0.35486164072807        0.42440030668773
H           -2.72299337133604        1.40806145873183        2.00414431932006
H           -3.84855288210201        2.09872473896495        0.82488180514699
H           -2.10436947907068        2.34239910908679        0.64044441291849
