39
REP_00049 MMFF geometry for GFN2-xTB preoptimization
C  -3.534911591600 -2.440428082637 -0.343643800493
C  -2.938552590835 -1.261585876017 -1.096047770548
C  -1.806335804419 -0.607745064035 -0.304715704861
C  -1.199787339826  0.567351388854 -1.071781581537
N  -0.199428008181  1.298565978385 -0.286067844190
C   1.152319618265  0.734295806400 -0.224203802629
C   1.453150685918 -0.021256964239  1.076037605801
O   2.722012112441 -0.695683720047  0.996696642541
C   2.709112458677 -1.885023024908  0.335588922370
O   1.731619951131 -2.382522697363 -0.206451062100
C   4.083768091033 -2.498317141524  0.330203074922
C   4.944186735325 -1.880785135544 -0.753378341041
C  -0.475644595184  2.404511091008  0.514162573303
O   0.390138869830  2.918960511793  1.223384740209
C  -1.892227519294  2.957386973090  0.467912851269
C  -2.094100512695  4.115706190891  1.432004744730
H  -3.947592466380 -2.122904226468  0.619275270199
H  -4.342910709891 -2.892871814527 -0.927008980445
H  -2.778781441301 -3.209681161511 -0.156863859524
H  -3.727086341697 -0.526487631053 -1.294861980064
H  -2.563417139834 -1.606510807130 -2.066610964535
H  -1.031233275627 -1.354641655833 -0.100464994388
H  -2.182362640141 -0.267767599333  0.667595493996
H  -1.993955537523  1.253211411512 -1.379840130739
H  -0.723715119655  0.218619953426 -1.995810961202
H   1.873958792175  1.555465239682 -0.323591643718
H   1.315490279990  0.097978817476 -1.100858567790
H   0.663002320437 -0.735168491958  1.333356288793
H   1.518765505628  0.676187585761  1.917438701690
H   4.539824363769 -2.372618959504  1.318220843591
H   3.977498226830 -3.576485675457  0.167282651273
H   4.485134128112 -2.009115882244 -1.739316856294
H   5.077525944548 -0.806698040501 -0.587054747804
H   5.932565173376 -2.349881360688 -0.770567862128
H  -2.097828565449  3.307713147478 -0.549013237467
H  -2.598093864435  2.161411622009  0.724424378859
H  -1.419851175911  4.945952745435  1.197013769825
H  -3.122785688871  4.484565484159  1.373578883294
H  -1.899471328733  3.806297065163  2.464246549464
