22
DEC_00201 MMFF geometry for GFN2-xTB preoptimization
C   2.695644900739  1.020602363950  0.180352604143
C   2.860016000897 -0.361344378425  0.174599471675
C   1.744841376892 -1.194830845431  0.094394756578
C   0.451772304938 -0.654746389247  0.024565890973
C   0.286997413065  0.742411894613  0.009297443021
C   1.416324620831  1.569948032977  0.100942884902
C  -1.082553841406  1.374325809944 -0.041183024888
C  -2.172545828000  0.414553278568 -0.514471249199
C  -2.063256795883 -0.917191354143  0.216735091090
C  -0.727325104532 -1.589093588316 -0.094843827592
H   3.563122691065  1.671537143072  0.246779499848
H   3.856309363531 -0.791116267972  0.232409493820
H   1.888024803695 -2.273066265748  0.086722513088
H   1.302053700014  2.651614331329  0.110542384109
H  -1.328111089051  1.732434876503  0.966524484179
H  -1.067234263860  2.245108621615 -0.707497476645
H  -3.157493729846  0.862098190643 -0.340622538438
H  -2.080777903130  0.248563429105 -1.595396853096
H  -2.885337961273 -1.579165920551 -0.077568204703
H  -2.154990098796 -0.751197560378  1.297663039329
H  -0.596876035283 -2.442578863206  0.581187419345
H  -0.748604524610 -1.978866538905 -1.120338401850
