      -----------------------------------------------------------      
     |                   =====================                   |     
     |                           x T B                           |     
     |                   =====================                   |     
     |                         S. Grimme                         |     
     |          Mulliken Center for Theoretical Chemistry        |     
     |                    University of Bonn                     |     
      -----------------------------------------------------------      

   * xtb version 6.7.1 (edcfbbe) compiled by 'conda@5dfe00f5fb80' on 2026-06-10

   xtb is free software: you can redistribute it and/or modify it under
   the terms of the GNU Lesser General Public License as published by
   the Free Software Foundation, either version 3 of the License, or
   (at your option) any later version.
   
   xtb is distributed in the hope that it will be useful,
   but WITHOUT ANY WARRANTY; without even the implied warranty of
   MERCHANTABILITY or FITNESS FOR A PARTICULAR PURPOSE.  See the
   GNU Lesser General Public License for more details.
   
   Cite this work as:
   * C. Bannwarth, E. Caldeweyher, S. Ehlert, A. Hansen, P. Pracht,
     J. Seibert, S. Spicher, S. Grimme, WIREs Comput. Mol. Sci., 2020, 11,
     e01493. DOI: 10.1002/wcms.1493
   
   for GFN2-xTB:
   * C. Bannwarth, S. Ehlert and S. Grimme., J. Chem. Theory Comput., 2019,
     15, 1652-1671. DOI: 10.1021/acs.jctc.8b01176
   for GFN1-xTB:
   * S. Grimme, C. Bannwarth, P. Shushkov, J. Chem. Theory Comput., 2017,
     13, 1989-2009. DOI: 10.1021/acs.jctc.7b00118
   for GFN0-xTB:
   * P. Pracht, E. Caldeweyher, S. Ehlert, S. Grimme, ChemRxiv, 2019, preprint.
     DOI: 10.26434/chemrxiv.8326202.v1
   for GFN-FF:
   * S. Spicher and S. Grimme, Angew. Chem. Int. Ed., 2020, 59, 15665-15673.
     DOI: 10.1002/anie.202004239
   
   for ALPB and GBSA implicit solvation:
   * S. Ehlert, M. Stahn, S. Spicher, S. Grimme, J. Chem. Theory Comput.,
     2021, 17, 4250-4261. DOI: 10.1021/acs.jctc.1c00471
   
   for ddCOSMO and CPCM-X implicit solvation:
   * M. Stahn, S. Ehlert, S. Grimme, J. Phys. Chem. A,
     2023, XX, XXXX-XXXX. DOI: 10.1021/acs.jpca.3c04382
   
   for DFT-D4:
   * E. Caldeweyher, C. Bannwarth and S. Grimme, J. Chem. Phys., 2017,
     147, 034112. DOI: 10.1063/1.4993215
   * E. Caldeweyher, S. Ehlert, A. Hansen, H. Neugebauer, S. Spicher,
     C. Bannwarth and S. Grimme, J. Chem. Phys., 2019, 150, 154122.
     DOI: 10.1063/1.5090222
   * E. Caldeweyher, J.-M. Mewes, S. Ehlert and S. Grimme, Phys. Chem. Chem. Phys.
     2020, 22, 8499-8512. DOI: 10.1039/D0CP00502A
   
   for sTDA-xTB:
   * S. Grimme and C. Bannwarth, J. Chem. Phys., 2016, 145, 054103.
     DOI: 10.1063/1.4959605
   
   in the mass-spec context:
   * V. Asgeirsson, C. Bauer and S. Grimme, Chem. Sci., 2017, 8, 4879.
     DOI: 10.1039/c7sc00601b
   * J. Koopman and S. Grimme, ACS Omega 2019, 4, 12, 15120-15133.
     DOI: 10.1021/acsomega.9b02011
   
   for metadynamics refer to:
   * S. Grimme, J. Chem. Theory Comput., 2019, 155, 2847-2862
     DOI: 10.1021/acs.jctc.9b00143
   
   for SPH calculations refer to:
   * S. Spicher and S. Grimme, J. Chem. Theory Comput., 2021, 17, 1701-1714
     DOI: 10.1021/acs.jctc.0c01306
   
   for ONIOM refer to:
   * C. Plett, A. Katbashev, S. Ehlert, S. Grimme, M. Bursch,
     Phys. Chem. Chem. Phys., 2023, 25, 17860-17868. DOI: 10.1039/D3CP02178E
   
   for DIPRO refer to:
   * J. Kohn, N. Gildemeister, S. Grimme, D. Fazzi, A. Hansen,
     J. Chem. Phys., 2023, just accepted.
   
   for PTB refer to:
   * S. Grimme, M. Mueller, A. Hansen, J. Chem. Phys., 2023, 158, 124111.
     DOI: 10.1063/5.0137838
   
   with help from (in alphabetical order)
   P. Atkinson, C. Bannwarth, F. Bohle, G. Brandenburg, E. Caldeweyher
   M. Checinski, S. Dohm, S. Ehlert, S. Ehrlich, I. Gerasimov, C. Hölzer
   A. Katbashev, J. Kohn, J. Koopman, C. Lavigne, S. Lehtola, F. März, M. Müller,
   F. Musil, H. Neugebauer, J. Pisarek, C. Plett, P. Pracht, F. Pultar,
   J. Seibert, P. Shushkov, S. Spicher, M. Stahn, M. Steiner, T. Strunk,
   J. Stückrath, T. Rose, and J. Unsleber
   
 * started run on 2026/07/09 at 15:25:26.919     
   ID    Z sym.   atoms
    1    6 C      1-3, 5, 7-12
    2    8 O      4, 6
    3    1 H      13-22

           -------------------------------------------------
          |                Calculation Setup                |
           -------------------------------------------------

          program call               : /home/ws/xd2484/miniforge3/envs/p3z_dft/bin/xtb xtb_input.xyz --gfn 2 --opt tight --cycles 500 --chrg 0 --uhf 0
          hostname                   : gpu10
          coordinate file            : xtb_input.xyz
          omp threads                :                    16


           -------------------------------------------------
          |                 G F N 2 - x T B                 |
           -------------------------------------------------

        Reference                      10.1021/acs.jctc.8b01176
      * Hamiltonian:
        H0-scaling (s, p, d)           1.850000    2.230000    2.230000
        zeta-weighting                 0.500000
      * Dispersion:
        s8                             2.700000
        a1                             0.520000
        a2                             5.000000
        s9                             5.000000
      * Repulsion:
        kExp                           1.500000    1.000000
        rExp                           1.000000
      * Coulomb:
        alpha                          2.000000
        third order                    shell-resolved
        anisotropic                    true
        a3                             3.000000
        a5                             4.000000
        cn-shift                       1.200000
        cn-exp                         4.000000
        max-rad                        5.000000


          ...................................................
          :                      SETUP                      :
          :.................................................:
          :  # basis functions                  58          :
          :  # atomic orbitals                  58          :
          :  # shells                           34          :
          :  # electrons                        62          :
          :  max. iterations                   250          :
          :  Hamiltonian                  GFN2-xTB          :
          :  restarted?                      false          :
          :  GBSA solvation                  false          :
          :  PC potential                    false          :
          :  electronic temp.          300.0000000     K    :
          :  accuracy                    1.0000000          :
          :  -> integral cutoff          0.2500000E+02      :
          :  -> integral neglect         0.1000000E-07      :
          :  -> SCF convergence          0.1000000E-05 Eh   :
          :  -> wf. convergence          0.1000000E-03 e    :
          :  Broyden damping             0.4000000          :
          :  net charge                          0          :
          :  unpaired electrons                  0          :
          ...................................................

 iter      E             dE          RMSdq      gap      omega  full diag
   1    -35.0384044 -0.350384E+02  0.477E+00    3.90       0.0  T
   2    -35.0873549 -0.489505E-01  0.266E+00    3.47       1.0  T
   3    -35.0842668  0.308812E-02  0.123E+00    3.78       1.0  T
   4    -35.0910071 -0.674036E-02  0.379E-01    3.63       1.0  T
   5    -35.0928438 -0.183668E-02  0.148E-01    3.64       1.0  T
   6    -35.0932065 -0.362727E-03  0.494E-02    3.65       1.0  T
   7    -35.0932137 -0.717132E-05  0.245E-02    3.64       1.0  T
   8    -35.0932204 -0.673356E-05  0.801E-03    3.64       2.7  T
   9    -35.0932209 -0.466853E-06  0.259E-03    3.64       8.2  T
  10    -35.0932209 -0.446877E-07  0.106E-03    3.64      20.2  T
  11    -35.0932209 -0.599201E-08  0.598E-04    3.64      35.6  T
  12    -35.0932209 -0.142613E-08  0.182E-04    3.64     117.3  T

   *** convergence criteria satisfied after 12 iterations ***

         #    Occupation            Energy/Eh            Energy/eV
      -------------------------------------------------------------
         1        2.0000           -0.7380772             -20.0841
       ...           ...                  ...                  ...
        25        2.0000           -0.4480032             -12.1908
        26        2.0000           -0.4447409             -12.1020
        27        2.0000           -0.4328955             -11.7797
        28        2.0000           -0.4219388             -11.4815
        29        2.0000           -0.4169062             -11.3446
        30        2.0000           -0.4149339             -11.2909
        31        2.0000           -0.4087924             -11.1238 (HOMO)
        32                         -0.2748465              -7.4790 (LUMO)
        33                         -0.2380241              -6.4770
        34                         -0.2281314              -6.2078
        35                         -0.1930749              -5.2538
        36                         -0.0985074              -2.6805
       ...                                ...                  ...
        58                          0.6585015              17.9187
      -------------------------------------------------------------
                  HL-Gap            0.1339459 Eh            3.6449 eV
             Fermi-level           -0.3418195 Eh           -9.3014 eV

 SCC (total)                   0 d,  0 h,  0 min,  0.232 sec
 SCC setup                      ...        0 min,  0.002 sec (  0.965%)
 Dispersion                     ...        0 min,  0.006 sec (  2.760%)
 classical contributions        ...        0 min,  0.001 sec (  0.491%)
 integral evaluation            ...        0 min,  0.010 sec (  4.323%)
 iterations                     ...        0 min,  0.168 sec ( 72.187%)
 molecular gradient             ...        0 min,  0.045 sec ( 19.192%)
 printout                       ...        0 min,  0.000 sec (  0.066%)

         :::::::::::::::::::::::::::::::::::::::::::::::::::::
         ::                     SUMMARY                     ::
         :::::::::::::::::::::::::::::::::::::::::::::::::::::
         :: total energy             -34.600645430314 Eh    ::
         :: gradient norm              0.055363946691 Eh/a0 ::
         :: HOMO-LUMO gap              3.644852240161 eV    ::
         ::.................................................::
         :: SCC energy               -35.093278139292 Eh    ::
         :: -> isotropic ES            0.045414015843 Eh    ::
         :: -> anisotropic ES          0.001183424094 Eh    ::
         :: -> anisotropic XC          0.016725733179 Eh    ::
         :: -> dispersion             -0.017419923750 Eh    ::
         :: repulsion energy           0.492632708978 Eh    ::
         :: add. restraining           0.000000000000 Eh    ::
         :: total charge               0.000000000000 e     ::
         :::::::::::::::::::::::::::::::::::::::::::::::::::::

      ----------------------------------------------------------- 
     |                   =====================                   |
     |                        A N C O P T                        |
     |                   =====================                   |
     |               Approximate Normal Coordinate               |
     |                Rational Function Optimizer                |
      ----------------------------------------------------------- 
      ----------------------------------------------------------- 
     |                   =====================                   |
     |                        A N C O P T                        |
     |                   =====================                   |
     |               Approximate Normal Coordinate               |
     |                Rational Function Optimizer                |
      ----------------------------------------------------------- 

          ...................................................
          :                      SETUP                      :
          :.................................................:
          :   optimization level             tight          :
          :   max. optcycles                   500          :
          :   ANC micro-cycles                  20          :
          :   degrees of freedom                60          :
          :.................................................:
          :   RF solver                   davidson          :
          :   write xtbopt.log                true          :
          :   linear?                        false          :
          :   energy convergence         0.1000000E-05 Eh   :
          :   grad. convergence          0.8000000E-03 Eh/α :
          :   maxmium RF displ.          1.0000000          :
          :   Hlow (freq-cutoff)         0.1000000E-01      :
          :   Hmax (freq-cutoff)         5.0000000          :
          :   S6 in model hess.         20.0000000          :
          ...................................................

generating ANC from exact Hessian ...
Using Lindh-Hessian (1995)
 Shifting diagonal of input Hessian by    9.0769863649585291E-003
 Lowest  eigenvalues of input Hessian
    0.000000    0.000000    0.000000    0.000000    0.000000    0.000000
    0.010000    0.010389    0.011222    0.013692    0.017843    0.018547
    0.022125    0.023839    0.027810    0.028876    0.032264    0.033599
 Highest eigenvalues
    1.739250    1.835184    1.867631    1.925837    1.966782    2.319328


........................................................................
.............................. CYCLE    1 ..............................
........................................................................

 iter      E             dE          RMSdq      gap      omega  full diag
   1    -35.0932210 -0.350932E+02  0.666E-05    3.64       0.0  T
   2    -35.0932210 -0.147082E-10  0.426E-05    3.64     500.6  T
   3    -35.0932210 -0.134719E-10  0.266E-05    3.64     801.9  T
     SCC iter.                  ...        0 min,  0.056 sec
     gradient                   ...        0 min,  0.041 sec
 * total energy  :   -34.6006454 Eh     change       -0.2230536E-09 Eh
   gradient norm :     0.0553642 Eh/α   predicted     0.0000000E+00 (-100.00%)
   displ. norm   :     0.1221638 α      lambda       -0.4976782E-02
   maximum displ.:     0.0556413 α      in ANC's #40, #35, #31, ...

........................................................................
.............................. CYCLE    2 ..............................
........................................................................

 iter      E             dE          RMSdq      gap      omega  full diag
   1    -35.1255833 -0.351256E+02  0.142E-01    3.73       0.0  T
   2    -35.1256105 -0.272461E-04  0.854E-02    3.73       1.0  T
   3    -35.1256044  0.610309E-05  0.360E-02    3.73       1.0  T
   4    -35.1256157 -0.113447E-04  0.764E-03    3.73       2.8  T
   5    -35.1256163 -0.561990E-06  0.351E-03    3.73       6.1  T
   6    -35.1256164 -0.583368E-07  0.212E-03    3.73      10.0  T
   7    -35.1256164 -0.116928E-07  0.910E-04    3.73      23.4  T
   8    -35.1256164 -0.110165E-07  0.208E-04    3.73     102.7  T
     SCC iter.                  ...        0 min,  0.137 sec
     gradient                   ...        0 min,  0.040 sec
 * total energy  :   -34.6036702 Eh     change       -0.3024795E-02 Eh
   gradient norm :     0.0129121 Eh/α   predicted    -0.2525541E-02 ( -16.51%)
   displ. norm   :     0.0627753 α      lambda       -0.4592878E-03
   maximum displ.:     0.0355415 α      in ANC's #9, #40, #21, ...

........................................................................
.............................. CYCLE    3 ..............................
........................................................................

 iter      E             dE          RMSdq      gap      omega  full diag
   1    -35.1328561 -0.351329E+02  0.603E-02    3.75       0.0  T
   2    -35.1328608 -0.469578E-05  0.352E-02    3.74       1.0  T
   3    -35.1328597  0.110708E-05  0.154E-02    3.75       1.4  T
   4    -35.1328615 -0.180876E-05  0.426E-03    3.75       5.0  T
   5    -35.1328618 -0.288085E-06  0.170E-03    3.75      12.6  T
   6    -35.1328618 -0.176315E-07  0.830E-04    3.75      25.7  T
   7    -35.1328618 -0.194487E-08  0.351E-04    3.75      60.8  T
     SCC iter.                  ...        0 min,  0.104 sec
     gradient                   ...        0 min,  0.041 sec
 * total energy  :   -34.6039364 Eh     change       -0.2662055E-03 Eh
   gradient norm :     0.0047263 Eh/α   predicted    -0.2305684E-03 ( -13.39%)
   displ. norm   :     0.0429465 α      lambda       -0.6283532E-04
   maximum displ.:     0.0257587 α      in ANC's #9, #4, #2, ...

........................................................................
.............................. CYCLE    4 ..............................
........................................................................

 iter      E             dE          RMSdq      gap      omega  full diag
   1    -35.1326453 -0.351326E+02  0.309E-02    3.74       0.0  T
   2    -35.1326468 -0.148515E-05  0.181E-02    3.74       1.2  T
   3    -35.1326463  0.478131E-06  0.777E-03    3.74       2.7  T
   4    -35.1326468 -0.509438E-06  0.306E-03    3.74       7.0  T
   5    -35.1326470 -0.158276E-06  0.580E-04    3.74      36.7  T
   6    -35.1326470 -0.276847E-08  0.303E-04    3.74      70.4  T
     SCC iter.                  ...        0 min,  0.100 sec
     gradient                   ...        0 min,  0.054 sec
 * total energy  :   -34.6039777 Eh     change       -0.4125764E-04 Eh
   gradient norm :     0.0020836 Eh/α   predicted    -0.3245409E-04 ( -21.34%)
   displ. norm   :     0.0455964 α      lambda       -0.3163845E-04
   maximum displ.:     0.0221447 α      in ANC's #9, #4, #2, ...

........................................................................
.............................. CYCLE    5 ..............................
........................................................................

 iter      E             dE          RMSdq      gap      omega  full diag
   1    -35.1316811 -0.351317E+02  0.329E-02    3.74       0.0  T
   2    -35.1316817 -0.607402E-06  0.194E-02    3.73       1.1  T
   3    -35.1316810  0.764615E-06  0.748E-03    3.73       2.9  T
   4    -35.1316818 -0.837671E-06  0.183E-03    3.73      11.7  T
   5    -35.1316819 -0.558440E-07  0.379E-04    3.73      56.2  T
   6    -35.1316819 -0.902936E-09  0.207E-04    3.73     102.9  T
     SCC iter.                  ...        0 min,  0.097 sec
     gradient                   ...        0 min,  0.037 sec
 * total energy  :   -34.6039932 Eh     change       -0.1553344E-04 Eh
   gradient norm :     0.0016439 Eh/α   predicted    -0.1585513E-04 (   2.07%)
   displ. norm   :     0.0540443 α      lambda       -0.1330545E-04
   maximum displ.:     0.0349416 α      in ANC's #4, #2, #1, ...

........................................................................
.............................. CYCLE    6 ..............................
........................................................................

 iter      E             dE          RMSdq      gap      omega  full diag
   1    -35.1310731 -0.351311E+02  0.367E-02    3.73       0.0  T
   2    -35.1310732 -0.744326E-07  0.217E-02    3.73       1.0  T
   3    -35.1310724  0.719456E-06  0.637E-03    3.73       3.3  T
   4    -35.1310732 -0.802982E-06  0.688E-04    3.73      31.0  T
   5    -35.1310732 -0.422405E-08  0.319E-04    3.73      66.8  T
     SCC iter.                  ...        0 min,  0.109 sec
     gradient                   ...        0 min,  0.034 sec
 * total energy  :   -34.6040055 Eh     change       -0.1226648E-04 Eh
   gradient norm :     0.0017187 Eh/α   predicted    -0.6674537E-05 ( -45.59%)
   displ. norm   :     0.0836258 α      lambda       -0.1523088E-04
   maximum displ.:     0.0555821 α      in ANC's #4, #1, #2, ...

........................................................................
.............................. CYCLE    7 ..............................
........................................................................

 iter      E             dE          RMSdq      gap      omega  full diag
   1    -35.1312011 -0.351312E+02  0.576E-02    3.73       0.0  T
   2    -35.1312015 -0.370920E-06  0.338E-02    3.73       1.0  T
   3    -35.1312003  0.114804E-05  0.820E-03    3.73       2.6  T
   4    -35.1312016 -0.126285E-05  0.140E-03    3.73      15.2  T
   5    -35.1312016 -0.305971E-07  0.367E-04    3.73      58.1  T
   6    -35.1312016 -0.119673E-08  0.201E-04    3.73     106.0  T
     SCC iter.                  ...        0 min,  0.077 sec
     gradient                   ...        0 min,  0.035 sec
 * total energy  :   -34.6040244 Eh     change       -0.1886489E-04 Eh
   gradient norm :     0.0015780 Eh/α   predicted    -0.7640216E-05 ( -59.50%)
   displ. norm   :     0.1848842 α      lambda       -0.2874387E-04
   maximum displ.:     0.1186354 α      in ANC's #4, #1, #2, ...

........................................................................
.............................. CYCLE    8 ..............................
........................................................................

 iter      E             dE          RMSdq      gap      omega  full diag
   1    -35.1315207 -0.351315E+02  0.128E-01    3.73       0.0  T
   2    -35.1315216 -0.970366E-06  0.752E-02    3.73       1.0  T
   3    -35.1315160  0.564954E-05  0.181E-02    3.73       1.2  T
   4    -35.1315222 -0.625185E-05  0.193E-03    3.73      11.1  T
   5    -35.1315223 -0.461471E-07  0.665E-04    3.73      32.0  T
   6    -35.1315223 -0.127149E-08  0.362E-04    3.73      59.0  T
     SCC iter.                  ...        0 min,  0.084 sec
     gradient                   ...        0 min,  0.034 sec
 * total energy  :   -34.6040573 Eh     change       -0.3290824E-04 Eh
   gradient norm :     0.0023054 Eh/α   predicted    -0.1461616E-04 ( -55.59%)
   displ. norm   :     0.1708281 α      lambda       -0.3259918E-04
   maximum displ.:     0.1089098 α      in ANC's #4, #1, #2, ...

........................................................................
.............................. CYCLE    9 ..............................
........................................................................

 iter      E             dE          RMSdq      gap      omega  full diag
   1    -35.1313720 -0.351314E+02  0.118E-01    3.74       0.0  T
   2    -35.1313725 -0.528913E-06  0.695E-02    3.74       1.0  T
   3    -35.1313669  0.562638E-05  0.181E-02    3.74       1.2  T
   4    -35.1313731 -0.623785E-05  0.130E-03    3.73      16.4  T
   5    -35.1313732 -0.111344E-07  0.579E-04    3.74      36.8  T
   6    -35.1313732 -0.298058E-09  0.252E-04    3.74      84.6  T
     SCC iter.                  ...        0 min,  0.070 sec
     gradient                   ...        0 min,  0.028 sec
 * total energy  :   -34.6040814 Eh     change       -0.2409397E-04 Eh
   gradient norm :     0.0025469 Eh/α   predicted    -0.1677734E-04 ( -30.37%)
   displ. norm   :     0.1854562 α      lambda       -0.2772140E-04
   maximum displ.:     0.1174353 α      in ANC's #4, #1, #2, ...

........................................................................
.............................. CYCLE   10 ..............................
........................................................................

 iter      E             dE          RMSdq      gap      omega  full diag
   1    -35.1312068 -0.351312E+02  0.128E-01    3.74       0.0  T
   2    -35.1312074 -0.544031E-06  0.752E-02    3.73       1.0  T
   3    -35.1312009  0.646062E-05  0.194E-02    3.74       1.1  T
   4    -35.1312081 -0.717941E-05  0.139E-03    3.73      15.4  T
   5    -35.1312081 -0.828640E-08  0.657E-04    3.73      32.4  T
   6    -35.1312081 -0.407404E-09  0.254E-04    3.73      83.9  T
     SCC iter.                  ...        0 min,  0.059 sec
     gradient                   ...        0 min,  0.028 sec
 * total energy  :   -34.6041010 Eh     change       -0.1963807E-04 Eh
   gradient norm :     0.0021411 Eh/α   predicted    -0.1433828E-04 ( -26.99%)
   displ. norm   :     0.1037140 α      lambda       -0.1720850E-04
   maximum displ.:     0.0632398 α      in ANC's #4, #1, #2, ...

........................................................................
.............................. CYCLE   11 ..............................
........................................................................

 iter      E             dE          RMSdq      gap      omega  full diag
   1    -35.1316737 -0.351317E+02  0.717E-02    3.74       0.0  T
   2    -35.1316739 -0.202300E-06  0.422E-02    3.73       1.0  T
   3    -35.1316718  0.206509E-05  0.110E-02    3.74       1.9  T
   4    -35.1316741 -0.230748E-05  0.929E-04    3.73      23.0  T
   5    -35.1316741 -0.343938E-08  0.477E-04    3.73      44.7  T
   6    -35.1316742 -0.295429E-09  0.168E-04    3.73     127.1  T
     SCC iter.                  ...        0 min,  0.049 sec
     gradient                   ...        0 min,  0.027 sec
 * total energy  :   -34.6041134 Eh     change       -0.1238334E-04 Eh
   gradient norm :     0.0007016 Eh/α   predicted    -0.8697100E-05 ( -29.77%)
   displ. norm   :     0.1795697 α      lambda       -0.1197461E-04
   maximum displ.:     0.1092302 α      in ANC's #1, #4, #2, ...

........................................................................
.............................. CYCLE   12 ..............................
........................................................................

 iter      E             dE          RMSdq      gap      omega  full diag
   1    -35.1312647 -0.351313E+02  0.128E-01    3.73       0.0  T
   2    -35.1312653 -0.646049E-06  0.753E-02    3.73       1.0  T
   3    -35.1312596  0.578856E-05  0.186E-02    3.73       1.1  T
   4    -35.1312660 -0.648834E-05  0.170E-03    3.73      12.6  T
   5    -35.1312661 -0.107576E-07  0.853E-04    3.73      25.0  T
   6    -35.1312661 -0.491724E-09  0.341E-04    3.73      62.4  T
     SCC iter.                  ...        0 min,  0.077 sec
     gradient                   ...        0 min,  0.034 sec
 * total energy  :   -34.6041244 Eh     change       -0.1106683E-04 Eh
   gradient norm :     0.0015829 Eh/α   predicted    -0.6075199E-05 ( -45.10%)
   displ. norm   :     0.0768894 α      lambda       -0.1149506E-04
   maximum displ.:     0.0595169 α      in ANC's #1, #4, #3, ...

........................................................................
.............................. CYCLE   13 ..............................
........................................................................

 iter      E             dE          RMSdq      gap      omega  full diag
   1    -35.1322103 -0.351322E+02  0.496E-02    3.73       0.0  T
   2    -35.1322104 -0.119121E-06  0.292E-02    3.73       1.0  T
   3    -35.1322101  0.297393E-06  0.466E-03    3.73       4.6  T
   4    -35.1322105 -0.382206E-06  0.997E-04    3.73      21.4  T
   5    -35.1322105 -0.246617E-08  0.540E-04    3.73      39.5  T
     SCC iter.                  ...        0 min,  0.049 sec
     gradient                   ...        0 min,  0.028 sec
 * total energy  :   -34.6041329 Eh     change       -0.8475231E-05 Eh
   gradient norm :     0.0022867 Eh/α   predicted    -0.5767239E-05 ( -31.95%)
   displ. norm   :     0.0836691 α      lambda       -0.8432084E-05
   maximum displ.:     0.0597265 α      in ANC's #1, #4, #2, ...

........................................................................
.............................. CYCLE   14 ..............................
........................................................................

 iter      E             dE          RMSdq      gap      omega  full diag
   1    -35.1318747 -0.351319E+02  0.588E-02    3.73       0.0  T
   2    -35.1318749 -0.195205E-06  0.346E-02    3.73       1.0  T
   3    -35.1318743  0.543351E-06  0.586E-03    3.73       3.6  T
   4    -35.1318750 -0.636835E-06  0.112E-03    3.73      19.1  T
   5    -35.1318750 -0.101862E-07  0.504E-04    3.73      42.3  T
   6    -35.1318750 -0.140709E-09  0.232E-04    3.73      92.0  T
     SCC iter.                  ...        0 min,  0.059 sec
     gradient                   ...        0 min,  0.021 sec
 * total energy  :   -34.6041398 Eh     change       -0.6834555E-05 Eh
   gradient norm :     0.0012454 Eh/α   predicted    -0.4248621E-05 ( -37.84%)
   displ. norm   :     0.0686724 α      lambda       -0.5408909E-05
   maximum displ.:     0.0534434 α      in ANC's #1, #4, #5, ...

........................................................................
.............................. CYCLE   15 ..............................
........................................................................

 iter      E             dE          RMSdq      gap      omega  full diag
   1    -35.1316213 -0.351316E+02  0.462E-02    3.73       0.0  T
   2    -35.1316215 -0.180714E-06  0.272E-02    3.73       1.0  T
   3    -35.1316211  0.323665E-06  0.462E-03    3.73       4.6  T
   4    -35.1316215 -0.377998E-06  0.109E-03    3.73      19.6  T
   5    -35.1316215 -0.134160E-07  0.436E-04    3.73      48.9  T
   6    -35.1316215  0.132644E-09  0.196E-04    3.73     108.7  T
     SCC iter.                  ...        0 min,  0.061 sec
     gradient                   ...        0 min,  0.034 sec
 * total energy  :   -34.6041447 Eh     change       -0.4994922E-05 Eh
   gradient norm :     0.0007635 Eh/α   predicted    -0.2712073E-05 ( -45.70%)
   displ. norm   :     0.0330193 α      lambda       -0.1916403E-05
   maximum displ.:     0.0249023 α      in ANC's #1, #3, #2, ...

........................................................................
.............................. CYCLE   16 ..............................
........................................................................

 iter      E             dE          RMSdq      gap      omega  full diag
   1    -35.1317234 -0.351317E+02  0.174E-02    3.73       0.0  T
   2    -35.1317235 -0.195921E-07  0.102E-02    3.73       2.1  T
   3    -35.1317234  0.234226E-07  0.130E-03    3.73      16.4  T
   4    -35.1317235 -0.310798E-07  0.370E-04    3.73      57.6  T
   5    -35.1317235 -0.103728E-08  0.175E-04    3.73     122.0  T
     SCC iter.                  ...        0 min,  0.061 sec
     gradient                   ...        0 min,  0.036 sec
 * total energy  :   -34.6041466 Eh     change       -0.1876402E-05 Eh
   gradient norm :     0.0004649 Eh/α   predicted    -0.9611573E-06 ( -48.78%)
   displ. norm   :     0.0385286 α      lambda       -0.1737309E-05
   maximum displ.:     0.0288306 α      in ANC's #1, #2, #3, ...

........................................................................
.............................. CYCLE   17 ..............................
........................................................................

 iter      E             dE          RMSdq      gap      omega  full diag
   1    -35.1319703 -0.351320E+02  0.176E-02    3.73       0.0  T
   2    -35.1319704 -0.157746E-07  0.104E-02    3.73       2.1  T
   3    -35.1319703  0.582683E-07  0.191E-03    3.73      11.2  T
   4    -35.1319704 -0.694925E-07  0.313E-04    3.73      68.2  T
   5    -35.1319704 -0.258140E-09  0.175E-04    3.73     121.9  T
     SCC iter.                  ...        0 min,  0.109 sec
     gradient                   ...        0 min,  0.039 sec
 * total energy  :   -34.6041483 Eh     change       -0.1659192E-05 Eh
   gradient norm :     0.0004586 Eh/α   predicted    -0.8740607E-06 ( -47.32%)
   displ. norm   :     0.0358928 α      lambda       -0.1256223E-05
   maximum displ.:     0.0286240 α      in ANC's #1, #4, #2, ...

........................................................................
.............................. CYCLE   18 ..............................
........................................................................

 iter      E             dE          RMSdq      gap      omega  full diag
   1    -35.1319327 -0.351319E+02  0.178E-02    3.73       0.0  T
   2    -35.1319327 -0.106895E-07  0.105E-02    3.73       2.0  T
   3    -35.1319326  0.125712E-06  0.275E-03    3.73       7.8  T
   4    -35.1319327 -0.141155E-06  0.239E-04    3.73      89.1  T
   5    -35.1319327 -0.891376E-10  0.121E-04    3.73     176.6  T
     SCC iter.                  ...        0 min,  0.047 sec
     gradient                   ...        0 min,  0.020 sec
 * total energy  :   -34.6041499 Eh     change       -0.1631238E-05 Eh
   gradient norm :     0.0003152 Eh/α   predicted    -0.6304711E-06 ( -61.35%)
   displ. norm   :     0.0376179 α      lambda       -0.1676585E-05
   maximum displ.:     0.0269617 α      in ANC's #1, #2, #4, ...

........................................................................
.............................. CYCLE   19 ..............................
........................................................................

 iter      E             dE          RMSdq      gap      omega  full diag
   1    -35.1319092 -0.351319E+02  0.173E-02    3.73       0.0  T
   2    -35.1319092 -0.101721E-07  0.102E-02    3.73       2.1  T
   3    -35.1319091  0.895015E-07  0.228E-03    3.73       9.3  T
   4    -35.1319092 -0.999107E-07  0.220E-04    3.73      96.7  T
   5    -35.1319092 -0.279421E-09  0.104E-04    3.73     205.9  T
     SCC iter.                  ...        0 min,  0.038 sec
     gradient                   ...        0 min,  0.021 sec
 * total energy  :   -34.6041521 Eh     change       -0.2159109E-05 Eh
   gradient norm :     0.0003491 Eh/α   predicted    -0.8421682E-06 ( -60.99%)
   displ. norm   :     0.0590936 α      lambda       -0.2353860E-05
   maximum displ.:     0.0409897 α      in ANC's #1, #2, #4, ...

........................................................................
.............................. CYCLE   20 ..............................
........................................................................

 iter      E             dE          RMSdq      gap      omega  full diag
   1    -35.1317433 -0.351317E+02  0.274E-02    3.73       0.0  T
   2    -35.1317434 -0.211054E-07  0.162E-02    3.73       1.3  T
   3    -35.1317432  0.208549E-06  0.352E-03    3.73       6.1  T
   4    -35.1317434 -0.233141E-06  0.283E-04    3.73      75.3  T
   5    -35.1317434 -0.196003E-09  0.151E-04    3.73     141.1  T
     SCC iter.                  ...        0 min,  0.049 sec
     gradient                   ...        0 min,  0.027 sec
 * total energy  :   -34.6041549 Eh     change       -0.2821002E-05 Eh
   gradient norm :     0.0005515 Eh/α   predicted    -0.1181672E-05 ( -58.11%)
   displ. norm   :     0.0682510 α      lambda       -0.2541791E-05
   maximum displ.:     0.0476366 α      in ANC's #1, #2, #4, ...
 * RMSD in coord.:     0.2936463 α      energy gain  -0.3509465E-02 Eh

generating ANC from exact Hessian ...
Using Lindh-Hessian (1995)
 Shifting diagonal of input Hessian by    9.0107311489347024E-003
 Lowest  eigenvalues of input Hessian
    0.000000    0.000000    0.000000    0.000000    0.000000    0.000000
    0.010000    0.010588    0.011068    0.014058    0.018733    0.019445
    0.022380    0.024637    0.028365    0.030396    0.034626    0.036097
 Highest eigenvalues
    1.826062    1.899297    1.970029    1.996251    2.051511    2.387522


........................................................................
.............................. CYCLE   21 ..............................
........................................................................

 iter      E             dE          RMSdq      gap      omega  full diag
   1    -35.1317069 -0.351317E+02  0.316E-02    3.73       0.0  T
   2    -35.1317069 -0.288661E-07  0.186E-02    3.73       1.1  T
   3    -35.1317068  0.115978E-06  0.265E-03    3.73       8.0  T
   4    -35.1317069 -0.133699E-06  0.385E-04    3.73      55.4  T
   5    -35.1317069 -0.940368E-09  0.162E-04    3.73     131.2  T
     SCC iter.                  ...        0 min,  0.048 sec
     gradient                   ...        0 min,  0.020 sec
 * total energy  :   -34.6041581 Eh     change       -0.3220137E-05 Eh
   gradient norm :     0.0005007 Eh/α   predicted     0.0000000E+00 (-100.00%)
   displ. norm   :     0.0126449 α      lambda       -0.1066603E-05
   maximum displ.:     0.0074010 α      in ANC's #3, #1, #4, ...

........................................................................
.............................. CYCLE   22 ..............................
........................................................................

 iter      E             dE          RMSdq      gap      omega  full diag
   1    -35.1319064 -0.351319E+02  0.767E-03    3.73       0.0  T
   2    -35.1319064 -0.849992E-08  0.451E-03    3.73       4.7  T
   3    -35.1319064  0.725616E-08  0.680E-04    3.73      31.4  T
   4    -35.1319064 -0.795086E-08  0.223E-04    3.73      95.5  T
     SCC iter.                  ...        0 min,  0.040 sec
     gradient                   ...        0 min,  0.028 sec
 * total energy  :   -34.6041596 Eh     change       -0.1497626E-05 Eh
   gradient norm :     0.0002041 Eh/α   predicted    -0.6324642E-06 ( -57.77%)
   displ. norm   :     0.0331756 α      lambda       -0.2172028E-05
   maximum displ.:     0.0197469 α      in ANC's #3, #1, #4, ...

........................................................................
.............................. CYCLE   23 ..............................
........................................................................

 iter      E             dE          RMSdq      gap      omega  full diag
   1    -35.1320023 -0.351320E+02  0.189E-02    3.73       0.0  T
   2    -35.1320023 -0.191409E-07  0.111E-02    3.73       1.9  T
   3    -35.1320022  0.435919E-07  0.163E-03    3.73      13.1  T
   4    -35.1320023 -0.513283E-07  0.275E-04    3.73      77.6  T
   5    -35.1320023 -0.707232E-09  0.125E-04    3.73     170.1  T
     SCC iter.                  ...        0 min,  0.050 sec
     gradient                   ...        0 min,  0.033 sec
 * total energy  :   -34.6041619 Eh     change       -0.2314806E-05 Eh
   gradient norm :     0.0004456 Eh/α   predicted    -0.1087068E-05 ( -53.04%)
   displ. norm   :     0.0382266 α      lambda       -0.1735152E-05
   maximum displ.:     0.0222769 α      in ANC's #3, #1, #4, ...

........................................................................
.............................. CYCLE   24 ..............................
........................................................................

 iter      E             dE          RMSdq      gap      omega  full diag
   1    -35.1319075 -0.351319E+02  0.232E-02    3.73       0.0  T
   2    -35.1319076 -0.156301E-07  0.136E-02    3.73       1.6  T
   3    -35.1319075  0.666075E-07  0.205E-03    3.73      10.4  T
   4    -35.1319076 -0.779965E-07  0.251E-04    3.73      84.8  T
   5    -35.1319076 -0.281055E-09  0.138E-04    3.73     154.4  T
     SCC iter.                  ...        0 min,  0.053 sec
     gradient                   ...        0 min,  0.034 sec
 * total energy  :   -34.6041639 Eh     change       -0.1927502E-05 Eh
   gradient norm :     0.0005819 Eh/α   predicted    -0.8685131E-06 ( -54.94%)
   displ. norm   :     0.0589929 α      lambda       -0.2437985E-05
   maximum displ.:     0.0328798 α      in ANC's #1, #3, #2, ...

........................................................................
.............................. CYCLE   25 ..............................
........................................................................

 iter      E             dE          RMSdq      gap      omega  full diag
   1    -35.1317969 -0.351318E+02  0.358E-02    3.73       0.0  T
   2    -35.1317969 -0.406765E-07  0.211E-02    3.73       1.0  T
   3    -35.1317967  0.157984E-06  0.316E-03    3.73       6.7  T
   4    -35.1317969 -0.184429E-06  0.413E-04    3.73      51.6  T
   5    -35.1317969 -0.111363E-08  0.208E-04    3.73     102.6  T
     SCC iter.                  ...        0 min,  0.050 sec
     gradient                   ...        0 min,  0.027 sec
 * total energy  :   -34.6041666 Eh     change       -0.2716533E-05 Eh
   gradient norm :     0.0005164 Eh/α   predicted    -0.1222147E-05 ( -55.01%)
   displ. norm   :     0.0697254 α      lambda       -0.2750249E-05
   maximum displ.:     0.0399218 α      in ANC's #1, #3, #2, ...

........................................................................
.............................. CYCLE   26 ..............................
........................................................................

 iter      E             dE          RMSdq      gap      omega  full diag
   1    -35.1317629 -0.351318E+02  0.420E-02    3.73       0.0  T
   2    -35.1317630 -0.492327E-07  0.247E-02    3.73       1.0  T
   3    -35.1317628  0.146555E-06  0.311E-03    3.73       6.9  T
   4    -35.1317630 -0.176019E-06  0.448E-04    3.73      47.6  T
   5    -35.1317630 -0.109007E-08  0.228E-04    3.73      93.5  T
     SCC iter.                  ...        0 min,  0.059 sec
     gradient                   ...        0 min,  0.033 sec
 * total energy  :   -34.6041696 Eh     change       -0.3063227E-05 Eh
   gradient norm :     0.0003518 Eh/α   predicted    -0.1384485E-05 ( -54.80%)
   displ. norm   :     0.0614620 α      lambda       -0.2409008E-05
   maximum displ.:     0.0384021 α      in ANC's #2, #1, #3, ...

........................................................................
.............................. CYCLE   27 ..............................
........................................................................

 iter      E             dE          RMSdq      gap      omega  full diag
   1    -35.1317022 -0.351317E+02  0.354E-02    3.73       0.0  T
   2    -35.1317022 -0.282129E-07  0.208E-02    3.73       1.0  T
   3    -35.1317022  0.472771E-07  0.187E-03    3.73      11.4  T
   4    -35.1317023 -0.636959E-07  0.332E-04    3.73      64.2  T
   5    -35.1317023 -0.202554E-09  0.170E-04    3.73     125.7  T
     SCC iter.                  ...        0 min,  0.072 sec
     gradient                   ...        0 min,  0.034 sec
 * total energy  :   -34.6041724 Eh     change       -0.2730136E-05 Eh
   gradient norm :     0.0003786 Eh/α   predicted    -0.1208438E-05 ( -55.74%)
   displ. norm   :     0.0376462 α      lambda       -0.1903619E-05
   maximum displ.:     0.0276412 α      in ANC's #2, #1, #3, ...

........................................................................
.............................. CYCLE   28 ..............................
........................................................................

 iter      E             dE          RMSdq      gap      omega  full diag
   1    -35.1317312 -0.351317E+02  0.190E-02    3.73       0.0  T
   2    -35.1317312 -0.110340E-07  0.112E-02    3.73       1.9  T
   3    -35.1317312  0.238924E-08  0.563E-04    3.73      37.9  T
   4    -35.1317312 -0.580782E-08  0.225E-04    3.73      94.7  T
     SCC iter.                  ...        0 min,  0.037 sec
     gradient                   ...        0 min,  0.028 sec
 * total energy  :   -34.6041748 Eh     change       -0.2440092E-05 Eh
   gradient norm :     0.0004130 Eh/α   predicted    -0.9535537E-06 ( -60.92%)
   displ. norm   :     0.0388537 α      lambda       -0.2113127E-05
   maximum displ.:     0.0285533 α      in ANC's #2, #1, #4, ...

........................................................................
.............................. CYCLE   29 ..............................
........................................................................

 iter      E             dE          RMSdq      gap      omega  full diag
   1    -35.1318460 -0.351318E+02  0.161E-02    3.73       0.0  T
   2    -35.1318461 -0.184905E-07  0.947E-03    3.73       2.3  T
   3    -35.1318460  0.466688E-07  0.169E-03    3.73      12.6  T
   4    -35.1318461 -0.515714E-07  0.323E-04    3.73      66.1  T
   5    -35.1318461 -0.146876E-08  0.926E-05    3.73     230.2  T
     SCC iter.                  ...        0 min,  0.059 sec
     gradient                   ...        0 min,  0.020 sec
 * total energy  :   -34.6041777 Eh     change       -0.2905980E-05 Eh
   gradient norm :     0.0003923 Eh/α   predicted    -0.1062205E-05 ( -63.45%)
   displ. norm   :     0.0612274 α      lambda       -0.3187860E-05
   maximum displ.:     0.0433832 α      in ANC's #2, #1, #4, ...

........................................................................
.............................. CYCLE   30 ..............................
........................................................................

 iter      E             dE          RMSdq      gap      omega  full diag
   1    -35.1318121 -0.351318E+02  0.246E-02    3.73       0.0  T
   2    -35.1318122 -0.308174E-07  0.145E-02    3.73       1.5  T
   3    -35.1318120  0.126553E-06  0.275E-03    3.73       7.8  T
   4    -35.1318122 -0.141191E-06  0.402E-04    3.73      53.1  T
   5    -35.1318122 -0.171888E-08  0.148E-04    3.73     143.8  T
     SCC iter.                  ...        0 min,  0.054 sec
     gradient                   ...        0 min,  0.034 sec
 * total energy  :   -34.6041819 Eh     change       -0.4235865E-05 Eh
   gradient norm :     0.0003069 Eh/α   predicted    -0.1597772E-05 ( -62.28%)
   displ. norm   :     0.1247407 α      lambda       -0.5235569E-05
   maximum displ.:     0.0849546 α      in ANC's #2, #1, #4, ...

........................................................................
.............................. CYCLE   31 ..............................
........................................................................

 iter      E             dE          RMSdq      gap      omega  full diag
   1    -35.1316727 -0.351317E+02  0.518E-02    3.73       0.0  T
   2    -35.1316728 -0.868352E-07  0.305E-02    3.73       1.0  T
   3    -35.1316725  0.294423E-06  0.425E-03    3.73       5.0  T
   4    -35.1316729 -0.340375E-06  0.645E-04    3.73      33.0  T
   5    -35.1316729 -0.314891E-08  0.273E-04    3.73      78.2  T
     SCC iter.                  ...        0 min,  0.057 sec
     gradient                   ...        0 min,  0.032 sec
 * total energy  :   -34.6041885 Eh     change       -0.6580371E-05 Eh
   gradient norm :     0.0003869 Eh/α   predicted    -0.2639077E-05 ( -59.89%)
   displ. norm   :     0.2192199 α      lambda       -0.7135551E-05
   maximum displ.:     0.1478064 α      in ANC's #1, #2, #3, ...

........................................................................
.............................. CYCLE   32 ..............................
........................................................................

 iter      E             dE          RMSdq      gap      omega  full diag
   1    -35.1311556 -0.351312E+02  0.951E-02    3.73       0.0  T
   2    -35.1311559 -0.233532E-06  0.560E-02    3.73       1.0  T
   3    -35.1311555  0.357711E-06  0.506E-03    3.73       4.2  T
   4    -35.1311560 -0.469809E-06  0.113E-03    3.73      18.9  T
   5    -35.1311560 -0.789957E-08  0.481E-04    3.73      44.3  T
   6    -35.1311560  0.148113E-09  0.156E-04    3.73     136.3  T
     SCC iter.                  ...        0 min,  0.073 sec
     gradient                   ...        0 min,  0.034 sec
 * total energy  :   -34.6041962 Eh     change       -0.7694694E-05 Eh
   gradient norm :     0.0009546 Eh/α   predicted    -0.3645217E-05 ( -52.63%)
   displ. norm   :     0.2137885 α      lambda        0.2938951E-05
   maximum displ.:     0.1440136 α      in ANC's #1, #2, #3, ...

........................................................................
.............................. CYCLE   33 ..............................
........................................................................

 iter      E             dE          RMSdq      gap      omega  full diag
   1    -35.1298461 -0.351298E+02  0.928E-02    3.73       0.0  T
   2    -35.1298463 -0.215997E-06  0.546E-02    3.73       1.0  T
   3    -35.1298462  0.782912E-07  0.314E-03    3.73       6.8  T
   4    -35.1298464 -0.160301E-06  0.117E-03    3.73      18.2  T
   5    -35.1298464 -0.114756E-07  0.477E-04    3.73      44.7  T
   6    -35.1298464  0.133653E-10  0.132E-04    3.73     161.3  T
     SCC iter.                  ...        0 min,  0.072 sec
     gradient                   ...        0 min,  0.028 sec
 * total energy  :   -34.6041922 Eh     change        0.3974882E-05 Eh
   gradient norm :     0.0024298 Eh/α   predicted     0.1496844E-05 ( -62.34%)
   displ. norm   :     0.0567900 α      lambda       -0.1146511E-04
   maximum displ.:     0.0402403 α      in ANC's #2, #1, #4, ...

........................................................................
.............................. CYCLE   34 ..............................
........................................................................

 iter      E             dE          RMSdq      gap      omega  full diag
   1    -35.1308329 -0.351308E+02  0.235E-02    3.73       0.0  T
   2    -35.1308329 -0.290204E-07  0.138E-02    3.73       1.5  T
   3    -35.1308329  0.182364E-08  0.687E-04    3.73      31.0  T
   4    -35.1308329 -0.754902E-08  0.282E-04    3.73      75.7  T
     SCC iter.                  ...        0 min,  0.066 sec
     gradient                   ...        0 min,  0.021 sec
 * total energy  :   -34.6042006 Eh     change       -0.8352808E-05 Eh
   gradient norm :     0.0013123 Eh/α   predicted    -0.5752048E-05 ( -31.14%)
   displ. norm   :     0.0412731 α      lambda       -0.9487968E-05
   maximum displ.:     0.0252064 α      in ANC's #1, #3, #4, ...

........................................................................
.............................. CYCLE   35 ..............................
........................................................................

 iter      E             dE          RMSdq      gap      omega  full diag
   1    -35.1322168 -0.351322E+02  0.250E-02    3.73       0.0  T
   2    -35.1322169 -0.734023E-07  0.147E-02    3.73       1.5  T
   3    -35.1322168  0.792322E-08  0.129E-03    3.73      16.5  T
   4    -35.1322169 -0.251746E-07  0.479E-04    3.73      44.5  T
   5    -35.1322169 -0.133247E-08  0.268E-04    3.73      79.6  T
     SCC iter.                  ...        0 min,  0.165 sec
     gradient                   ...        0 min,  0.026 sec
 * total energy  :   -34.6042088 Eh     change       -0.8221093E-05 Eh
   gradient norm :     0.0005862 Eh/α   predicted    -0.4748285E-05 ( -42.24%)
   displ. norm   :     0.1387382 α      lambda       -0.5876760E-05
   maximum displ.:     0.1006553 α      in ANC's #1, #2, #3, ...

........................................................................
.............................. CYCLE   36 ..............................
........................................................................

 iter      E             dE          RMSdq      gap      omega  full diag
   1    -35.1321503 -0.351322E+02  0.684E-02    3.73       0.0  T
   2    -35.1321504 -0.137814E-06  0.402E-02    3.73       1.0  T
   3    -35.1321505 -0.485189E-07  0.127E-03    3.73      16.8  T
   4    -35.1321505 -0.763206E-08  0.778E-04    3.73      27.4  T
   5    -35.1321505 -0.251861E-08  0.453E-04    3.73      47.0  T
     SCC iter.                  ...        0 min,  0.138 sec
     gradient                   ...        0 min,  0.039 sec
 * total energy  :   -34.6042176 Eh     change       -0.8745469E-05 Eh
   gradient norm :     0.0005589 Eh/α   predicted    -0.2967284E-05 ( -66.07%)
   displ. norm   :     0.9338864 α      lambda       -0.3830528E-04
   maximum displ.:     0.6731343 α      in ANC's #1, #2, #3, ...

........................................................................
.............................. CYCLE   37 ..............................
........................................................................

 iter      E             dE          RMSdq      gap      omega  full diag
   1    -35.1225046 -0.351225E+02  0.459E-01    3.71       0.0  T
   2    -35.1225113 -0.670875E-05  0.270E-01    3.71       1.0  T
   3    -35.1224993  0.120027E-04  0.296E-02    3.70       1.0  T
   4    -35.1225150 -0.157185E-04  0.604E-03    3.71       3.5  T
   5    -35.1225152 -0.123776E-06  0.336E-03    3.71       6.4  T
   6    -35.1225152 -0.215143E-07  0.110E-03    3.71      19.4  T
   7    -35.1225152 -0.113215E-07  0.368E-04    3.71      57.9  T
   8    -35.1225152 -0.949392E-09  0.172E-04    3.71     124.2  T
     SCC iter.                  ...        0 min,  0.125 sec
     gradient                   ...        0 min,  0.028 sec
 * total energy  :   -34.6040729 Eh     change        0.1447166E-03 Eh
   gradient norm :     0.0103567 Eh/α   predicted    -0.2658272E-04 (-118.37%)
   displ. norm   :     0.3953824 α      lambda       -0.3407941E-03
   maximum displ.:     0.2792931 α      in ANC's #1, #2, #3, ...

........................................................................
.............................. CYCLE   38 ..............................
........................................................................

 iter      E             dE          RMSdq      gap      omega  full diag
   1    -35.1298276 -0.351298E+02  0.198E-01    3.72       0.0  T
   2    -35.1298290 -0.148836E-05  0.116E-01    3.72       1.0  T
   3    -35.1298225  0.649488E-05  0.201E-02    3.72       1.1  T
   4    -35.1298301 -0.753640E-05  0.275E-03    3.72       7.7  T
   5    -35.1298301 -0.421294E-07  0.158E-03    3.72      13.5  T
   6    -35.1298301 -0.551597E-08  0.531E-04    3.72      40.1  T
   7    -35.1298301 -0.180043E-08  0.172E-04    3.72     123.7  T
     SCC iter.                  ...        0 min,  0.062 sec
     gradient                   ...        0 min,  0.027 sec
 * total energy  :   -34.6042376 Eh     change       -0.1647002E-03 Eh
   gradient norm :     0.0023111 Eh/α   predicted    -0.1970219E-03 (  19.62%)
   displ. norm   :     0.0112112 α      lambda       -0.9664365E-05
   maximum displ.:     0.0060873 α      in ANC's #2, #7, #3, ...

........................................................................
.............................. CYCLE   39 ..............................
........................................................................

 iter      E             dE          RMSdq      gap      omega  full diag
   1    -35.1308220 -0.351308E+02  0.867E-03    3.72       0.0  T
   2    -35.1308220 -0.164426E-07  0.524E-03    3.72       4.1  T
   3    -35.1308219  0.108168E-06  0.267E-03    3.72       8.0  T
   4    -35.1308220 -0.126128E-06  0.321E-04    3.72      66.4  T
   5    -35.1308220 -0.105878E-08  0.138E-04    3.72     154.1  T
     SCC iter.                  ...        0 min,  0.051 sec
     gradient                   ...        0 min,  0.021 sec
 * total energy  :   -34.6042447 Eh     change       -0.7169581E-05 Eh
   gradient norm :     0.0012472 Eh/α   predicted    -0.4836838E-05 ( -32.54%)
   displ. norm   :     0.0552862 α      lambda       -0.7667325E-05
   maximum displ.:     0.0374220 α      in ANC's #1, #2, #4, ...

........................................................................
.............................. CYCLE   40 ..............................
........................................................................

 iter      E             dE          RMSdq      gap      omega  full diag
   1    -35.1323668 -0.351324E+02  0.245E-02    3.73       0.0  T
   2    -35.1323669 -0.927127E-07  0.145E-02    3.73       1.5  T
   3    -35.1323663  0.565771E-06  0.599E-03    3.73       3.6  T
   4    -35.1323670 -0.647124E-06  0.722E-04    3.73      29.5  T
   5    -35.1323670 -0.436700E-08  0.362E-04    3.73      58.8  T
     SCC iter.                  ...        0 min,  0.050 sec
     gradient                   ...        0 min,  0.027 sec
 * total energy  :   -34.6042506 Eh     change       -0.5832796E-05 Eh
   gradient norm :     0.0007433 Eh/α   predicted    -0.3840725E-05 ( -34.15%)
   displ. norm   :     0.0944808 α      lambda       -0.4441832E-05
   maximum displ.:     0.0652224 α      in ANC's #1, #2, #3, ...

........................................................................
.............................. CYCLE   41 ..............................
........................................................................

 iter      E             dE          RMSdq      gap      omega  full diag
   1    -35.1322810 -0.351323E+02  0.405E-02    3.73       0.0  T
   2    -35.1322811 -0.719619E-07  0.238E-02    3.73       1.0  T
   3    -35.1322810  0.842782E-07  0.255E-03    3.73       8.4  T
   4    -35.1322811 -0.115704E-06  0.736E-04    3.73      29.0  T
   5    -35.1322811 -0.363855E-08  0.326E-04    3.73      65.4  T
     SCC iter.                  ...        0 min,  0.041 sec
     gradient                   ...        0 min,  0.022 sec
 * total energy  :   -34.6042572 Eh     change       -0.6655707E-05 Eh
   gradient norm :     0.0006177 Eh/α   predicted    -0.2233233E-05 ( -66.45%)
   displ. norm   :     1.4468781 α      lambda       -0.6725558E-04
   maximum displ.:     0.9974783 α      in ANC's #1, #2, #3, ...

........................................................................
.............................. CYCLE   42 ..............................
........................................................................

 iter      E             dE          RMSdq      gap      omega  full diag
   1    -35.1107042 -0.351107E+02  0.626E-01    3.69       0.0  T
   2    -35.1107302 -0.260557E-04  0.368E-01    3.69       1.0  T
   3    -35.1107129  0.173579E-04  0.383E-02    3.67       1.0  T
   4    -35.1107376 -0.246897E-04  0.124E-02    3.68       1.7  T
   5    -35.1107391 -0.155463E-05  0.696E-03    3.68       3.1  T
   6    -35.1107393 -0.209807E-06  0.289E-03    3.68       7.4  T
   7    -35.1107394 -0.396669E-07  0.889E-04    3.68      24.0  T
   8    -35.1107394 -0.101755E-07  0.353E-04    3.68      60.4  T
     SCC iter.                  ...        0 min,  0.063 sec
     gradient                   ...        0 min,  0.022 sec
 * total energy  :   -34.6033687 Eh     change        0.8885227E-03 Eh
   gradient norm :     0.0241769 Eh/α   predicted    -0.6543009E-04 (-107.36%)
   displ. norm   :     0.4950600 α      lambda       -0.1577674E-02
   maximum displ.:     0.3299730 α      in ANC's #1, #2, #3, ...
 * RMSD in coord.:     0.5600388 α      energy gain   0.7862096E-03 Eh

generating ANC from exact Hessian ...
Using Lindh-Hessian (1995)
 Shifting diagonal of input Hessian by    9.0001771760722278E-003
 Lowest  eigenvalues of input Hessian
    0.000000    0.000000    0.000000    0.000000    0.000000    0.000000
    0.010000    0.010505    0.010922    0.014369    0.018025    0.019158
    0.021674    0.024482    0.027398    0.030453    0.034983    0.037641
 Highest eigenvalues
    1.817140    1.894055    1.951342    1.989232    2.044142    2.384859


........................................................................
.............................. CYCLE   43 ..............................
........................................................................

 iter      E             dE          RMSdq      gap      omega  full diag
   1    -35.1265700 -0.351266E+02  0.227E-01    3.71       0.0  T
   2    -35.1265775 -0.754096E-05  0.134E-01    3.71       1.0  T
   3    -35.1265542  0.233070E-04  0.381E-02    3.72       1.0  T
   4    -35.1265807 -0.265204E-04  0.669E-03    3.72       3.2  T
   5    -35.1265813 -0.607303E-06  0.276E-03    3.72       7.7  T
   6    -35.1265813 -0.169913E-07  0.124E-03    3.72      17.1  T
   7    -35.1265813 -0.423135E-08  0.500E-04    3.72      42.6  T
   8    -35.1265814 -0.295947E-08  0.149E-04    3.72     143.4  T
     SCC iter.                  ...        0 min,  0.069 sec
     gradient                   ...        0 min,  0.025 sec
 * total energy  :   -34.6042294 Eh     change       -0.8607183E-03 Eh
   gradient norm :     0.0068882 Eh/α   predicted     0.0000000E+00 (-100.00%)
   displ. norm   :     0.0358600 α      lambda       -0.1436773E-03
   maximum displ.:     0.0146587 α      in ANC's #2, #9, #18, ...

........................................................................
.............................. CYCLE   44 ..............................
........................................................................

 iter      E             dE          RMSdq      gap      omega  full diag
   1    -35.1309888 -0.351310E+02  0.327E-02    3.73       0.0  T
   2    -35.1309893 -0.522981E-06  0.195E-02    3.73       1.1  T
   3    -35.1309883  0.101126E-05  0.892E-03    3.73       2.4  T
   4    -35.1309895 -0.120486E-05  0.164E-03    3.73      13.0  T
   5    -35.1309895 -0.438641E-07  0.580E-04    3.73      36.7  T
   6    -35.1309895 -0.169370E-08  0.281E-04    3.73      75.9  T
     SCC iter.                  ...        0 min,  0.084 sec
     gradient                   ...        0 min,  0.026 sec
 * total energy  :   -34.6043130 Eh     change       -0.8360348E-04 Eh
   gradient norm :     0.0018553 Eh/α   predicted    -0.7271919E-04 ( -13.02%)
   displ. norm   :     0.0324940 α      lambda       -0.1270597E-04
   maximum displ.:     0.0254946 α      in ANC's #2, #9, #13, ...

........................................................................
.............................. CYCLE   45 ..............................
........................................................................

 iter      E             dE          RMSdq      gap      omega  full diag
   1    -35.1326630 -0.351327E+02  0.181E-02    3.73       0.0  T
   2    -35.1326633 -0.305229E-06  0.108E-02    3.73       2.0  T
   3    -35.1326630  0.257709E-06  0.514E-03    3.73       4.1  T
   4    -35.1326634 -0.312875E-06  0.131E-03    3.73      16.3  T
   5    -35.1326634 -0.296233E-07  0.318E-04    3.73      66.9  T
   6    -35.1326634 -0.953172E-09  0.150E-04    3.73     142.0  T
     SCC iter.                  ...        0 min,  0.106 sec
     gradient                   ...        0 min,  0.033 sec
 * total energy  :   -34.6043211 Eh     change       -0.8092776E-05 Eh
   gradient norm :     0.0010822 Eh/α   predicted    -0.6427224E-05 ( -20.58%)
   displ. norm   :     0.0210763 α      lambda       -0.3904829E-05
   maximum displ.:     0.0182086 α      in ANC's #2, #3, #13, ...

........................................................................
.............................. CYCLE   46 ..............................
........................................................................

 iter      E             dE          RMSdq      gap      omega  full diag
   1    -35.1322086 -0.351322E+02  0.109E-02    3.73       0.0  T
   2    -35.1322086 -0.220283E-07  0.644E-03    3.73       3.3  T
   3    -35.1322086  0.207271E-07  0.122E-03    3.73      17.4  T
   4    -35.1322086 -0.227605E-07  0.398E-04    3.73      53.6  T
   5    -35.1322086 -0.253026E-08  0.121E-04    3.73     175.6  T
     SCC iter.                  ...        0 min,  0.087 sec
     gradient                   ...        0 min,  0.039 sec
 * total energy  :   -34.6043258 Eh     change       -0.4652124E-05 Eh
   gradient norm :     0.0005576 Eh/α   predicted    -0.2005015E-05 ( -56.90%)
   displ. norm   :     0.0401100 α      lambda       -0.5077784E-05
   maximum displ.:     0.0328636 α      in ANC's #2, #3, #13, ...

........................................................................
.............................. CYCLE   47 ..............................
........................................................................

 iter      E             dE          RMSdq      gap      omega  full diag
   1    -35.1314741 -0.351315E+02  0.219E-02    3.73       0.0  T
   2    -35.1314741 -0.305635E-07  0.130E-02    3.73       1.6  T
   3    -35.1314740  0.155357E-06  0.311E-03    3.73       6.8  T
   4    -35.1314742 -0.177445E-06  0.383E-04    3.73      55.6  T
   5    -35.1314742 -0.730459E-09  0.222E-04    3.73      95.9  T
     SCC iter.                  ...        0 min,  0.123 sec
     gradient                   ...        0 min,  0.038 sec
 * total energy  :   -34.6043306 Eh     change       -0.4843016E-05 Eh
   gradient norm :     0.0007406 Eh/α   predicted    -0.2541734E-05 ( -47.52%)
   displ. norm   :     0.0432838 α      lambda       -0.3892434E-05
   maximum displ.:     0.0326004 α      in ANC's #2, #3, #6, ...

........................................................................
.............................. CYCLE   48 ..............................
........................................................................

 iter      E             dE          RMSdq      gap      omega  full diag
   1    -35.1313902 -0.351314E+02  0.242E-02    3.73       0.0  T
   2    -35.1313902 -0.316731E-07  0.143E-02    3.73       1.5  T
   3    -35.1313901  0.503218E-07  0.184E-03    3.73      11.6  T
   4    -35.1313902 -0.638729E-07  0.434E-04    3.73      49.2  T
   5    -35.1313902 -0.133379E-08  0.225E-04    3.73      94.6  T
     SCC iter.                  ...        0 min,  0.069 sec
     gradient                   ...        0 min,  0.038 sec
 * total energy  :   -34.6043349 Eh     change       -0.4259158E-05 Eh
   gradient norm :     0.0008530 Eh/α   predicted    -0.1949764E-05 ( -54.22%)
   displ. norm   :     0.0578399 α      lambda       -0.4628061E-05
   maximum displ.:     0.0422778 α      in ANC's #2, #3, #6, ...

........................................................................
.............................. CYCLE   49 ..............................
........................................................................

 iter      E             dE          RMSdq      gap      omega  full diag
   1    -35.1315698 -0.351316E+02  0.330E-02    3.73       0.0  T
   2    -35.1315699 -0.527524E-07  0.194E-02    3.73       1.1  T
   3    -35.1315699 -0.921024E-08  0.869E-04    3.73      24.5  T
   4    -35.1315699 -0.837506E-08  0.479E-04    3.73      44.5  T
     SCC iter.                  ...        0 min,  0.045 sec
     gradient                   ...        0 min,  0.028 sec
 * total energy  :   -34.6043404 Eh     change       -0.5531997E-05 Eh
   gradient norm :     0.0007013 Eh/α   predicted    -0.2318727E-05 ( -58.09%)
   displ. norm   :     0.1103709 α      lambda       -0.7526243E-05
   maximum displ.:     0.0764528 α      in ANC's #2, #3, #6, ...

........................................................................
.............................. CYCLE   50 ..............................
........................................................................

 iter      E             dE          RMSdq      gap      omega  full diag
   1    -35.1316852 -0.351317E+02  0.594E-02    3.73       0.0  T
   2    -35.1316854 -0.197343E-06  0.350E-02    3.73       1.0  T
   3    -35.1316854 -0.468867E-07  0.141E-03    3.73      15.1  T
   4    -35.1316854 -0.141302E-07  0.842E-04    3.73      25.3  T
   5    -35.1316854 -0.331735E-08  0.493E-04    3.73      43.3  T
     SCC iter.                  ...        0 min,  0.059 sec
     gradient                   ...        0 min,  0.034 sec
 * total energy  :   -34.6043487 Eh     change       -0.8312958E-05 Eh
   gradient norm :     0.0004004 Eh/α   predicted    -0.3785441E-05 ( -54.46%)
   displ. norm   :     0.1259330 α      lambda       -0.5884112E-05
   maximum displ.:     0.0818896 α      in ANC's #2, #3, #6, ...

........................................................................
.............................. CYCLE   51 ..............................
........................................................................

 iter      E             dE          RMSdq      gap      omega  full diag
   1    -35.1315541 -0.351316E+02  0.668E-02    3.73       0.0  T
   2    -35.1315543 -0.216219E-06  0.393E-02    3.73       1.0  T
   3    -35.1315544 -0.611009E-07  0.153E-03    3.73      13.9  T
   4    -35.1315544 -0.160298E-07  0.916E-04    3.73      23.3  T
   5    -35.1315544 -0.305238E-08  0.509E-04    3.73      41.9  T
     SCC iter.                  ...        0 min,  0.058 sec
     gradient                   ...        0 min,  0.033 sec
 * total energy  :   -34.6043550 Eh     change       -0.6274122E-05 Eh
   gradient norm :     0.0006495 Eh/α   predicted    -0.2963843E-05 ( -52.76%)
   displ. norm   :     0.1016047 α      lambda       -0.4356948E-05
   maximum displ.:     0.0631916 α      in ANC's #3, #2, #6, ...

........................................................................
.............................. CYCLE   52 ..............................
........................................................................

 iter      E             dE          RMSdq      gap      omega  full diag
   1    -35.1316479 -0.351316E+02  0.500E-02    3.73       0.0  T
   2    -35.1316480 -0.136731E-06  0.294E-02    3.73       1.0  T
   3    -35.1316480  0.325607E-07  0.230E-03    3.73       9.3  T
   4    -35.1316481 -0.801303E-07  0.100E-03    3.73      21.2  T
   5    -35.1316481 -0.795172E-08  0.489E-04    3.73      43.6  T
   6    -35.1316481 -0.548404E-09  0.177E-04    3.73     120.1  T
     SCC iter.                  ...        0 min,  0.082 sec
     gradient                   ...        0 min,  0.040 sec
 * total energy  :   -34.6043605 Eh     change       -0.5518318E-05 Eh
   gradient norm :     0.0005954 Eh/α   predicted    -0.2190499E-05 ( -60.30%)
   displ. norm   :     0.1377460 α      lambda       -0.6547113E-05
   maximum displ.:     0.0853542 α      in ANC's #3, #2, #1, ...

........................................................................
.............................. CYCLE   53 ..............................
........................................................................

 iter      E             dE          RMSdq      gap      omega  full diag
   1    -35.1316753 -0.351317E+02  0.644E-02    3.73       0.0  T
   2    -35.1316755 -0.207738E-06  0.378E-02    3.73       1.0  T
   3    -35.1316753  0.235922E-06  0.439E-03    3.73       4.9  T
   4    -35.1316756 -0.340216E-06  0.127E-03    3.73      16.7  T
   5    -35.1316757 -0.869288E-08  0.639E-04    3.73      33.4  T
   6    -35.1316757 -0.916337E-09  0.204E-04    3.73     104.4  T
     SCC iter.                  ...        0 min,  0.076 sec
     gradient                   ...        0 min,  0.036 sec
 * total energy  :   -34.6043691 Eh     change       -0.8652975E-05 Eh
   gradient norm :     0.0006133 Eh/α   predicted    -0.3305891E-05 ( -61.79%)
   displ. norm   :     0.1986887 α      lambda       -0.1010933E-04
   maximum displ.:     0.1221759 α      in ANC's #3, #1, #2, ...

........................................................................
.............................. CYCLE   54 ..............................
........................................................................

 iter      E             dE          RMSdq      gap      omega  full diag
   1    -35.1314536 -0.351315E+02  0.893E-02    3.73       0.0  T
   2    -35.1314540 -0.389121E-06  0.525E-02    3.73       1.0  T
   3    -35.1314536  0.392436E-06  0.588E-03    3.73       3.6  T
   4    -35.1314542 -0.600982E-06  0.178E-03    3.73      12.0  T
   5    -35.1314543 -0.143380E-07  0.874E-04    3.73      24.4  T
   6    -35.1314543 -0.104558E-08  0.269E-04    3.73      79.3  T
     SCC iter.                  ...        0 min,  0.076 sec
     gradient                   ...        0 min,  0.037 sec
 * total energy  :   -34.6043821 Eh     change       -0.1298650E-04 Eh
   gradient norm :     0.0009170 Eh/α   predicted    -0.5147885E-05 ( -60.36%)
   displ. norm   :     0.1700607 α      lambda       -0.1066369E-04
   maximum displ.:     0.0977354 α      in ANC's #1, #3, #4, ...

........................................................................
.............................. CYCLE   55 ..............................
........................................................................

 iter      E             dE          RMSdq      gap      omega  full diag
   1    -35.1316386 -0.351316E+02  0.716E-02    3.73       0.0  T
   2    -35.1316388 -0.286957E-06  0.421E-02    3.73       1.0  T
   3    -35.1316383  0.564775E-06  0.635E-03    3.73       3.4  T
   4    -35.1316390 -0.740405E-06  0.154E-03    3.73      13.9  T
   5    -35.1316390 -0.946702E-08  0.833E-04    3.73      25.6  T
   6    -35.1316390 -0.194263E-08  0.238E-04    3.73      89.7  T
     SCC iter.                  ...        0 min,  0.085 sec
     gradient                   ...        0 min,  0.039 sec
 * total energy  :   -34.6043953 Eh     change       -0.1320171E-04 Eh
   gradient norm :     0.0007316 Eh/α   predicted    -0.5401540E-05 ( -59.08%)
   displ. norm   :     0.1302201 α      lambda       -0.7724997E-05
   maximum displ.:     0.0805446 α      in ANC's #1, #3, #6, ...

........................................................................
.............................. CYCLE   56 ..............................
........................................................................

 iter      E             dE          RMSdq      gap      omega  full diag
   1    -35.1314734 -0.351315E+02  0.584E-02    3.74       0.0  T
   2    -35.1314736 -0.159107E-06  0.343E-02    3.74       1.0  T
   3    -35.1314735  0.583163E-07  0.318E-03    3.74       6.7  T
   4    -35.1314737 -0.157041E-06  0.124E-03    3.74      17.1  T
   5    -35.1314737 -0.434976E-08  0.543E-04    3.74      39.2  T
   6    -35.1314737 -0.994966E-09  0.131E-04    3.74     163.2  T
     SCC iter.                  ...        0 min,  0.069 sec
     gradient                   ...        0 min,  0.033 sec
 * total energy  :   -34.6044056 Eh     change       -0.1024321E-04 Eh
   gradient norm :     0.0009857 Eh/α   predicted    -0.3895447E-05 ( -61.97%)
   displ. norm   :     0.0782057 α      lambda       -0.7970443E-05
   maximum displ.:     0.0650253 α      in ANC's #1, #3, #6, ...

........................................................................
.............................. CYCLE   57 ..............................
........................................................................

 iter      E             dE          RMSdq      gap      omega  full diag
   1    -35.1321289 -0.351321E+02  0.343E-02    3.74       0.0  T
   2    -35.1321290 -0.129962E-06  0.201E-02    3.74       1.1  T
   3    -35.1321288  0.180266E-06  0.354E-03    3.74       6.0  T
   4    -35.1321291 -0.231876E-06  0.931E-04    3.74      22.9  T
   5    -35.1321291 -0.744660E-08  0.507E-04    3.74      42.1  T
     SCC iter.                  ...        0 min,  0.050 sec
     gradient                   ...        0 min,  0.034 sec
 * total energy  :   -34.6044151 Eh     change       -0.9549356E-05 Eh
   gradient norm :     0.0006390 Eh/α   predicted    -0.3997804E-05 ( -58.14%)
   displ. norm   :     0.1070853 α      lambda       -0.8421832E-05
   maximum displ.:     0.0747880 α      in ANC's #1, #3, #6, ...

........................................................................
.............................. CYCLE   58 ..............................
........................................................................

 iter      E             dE          RMSdq      gap      omega  full diag
   1    -35.1317594 -0.351318E+02  0.543E-02    3.74       0.0  T
   2    -35.1317596 -0.149496E-06  0.319E-02    3.74       1.0  T
   3    -35.1317596 -0.455979E-07  0.197E-03    3.74      10.8  T
   4    -35.1317596 -0.350706E-07  0.112E-03    3.74      19.0  T
   5    -35.1317596 -0.310872E-08  0.626E-04    3.74      34.1  T
   6    -35.1317597 -0.251818E-08  0.119E-04    3.74     179.1  T
     SCC iter.                  ...        0 min,  0.120 sec
     gradient                   ...        0 min,  0.040 sec
 * total energy  :   -34.6044262 Eh     change       -0.1106073E-04 Eh
   gradient norm :     0.0006640 Eh/α   predicted    -0.4232893E-05 ( -61.73%)
   displ. norm   :     0.0948680 α      lambda       -0.7188171E-05
   maximum displ.:     0.0704081 α      in ANC's #1, #3, #6, ...

........................................................................
.............................. CYCLE   59 ..............................
........................................................................

 iter      E             dE          RMSdq      gap      omega  full diag
   1    -35.1314562 -0.351315E+02  0.487E-02    3.74       0.0  T
   2    -35.1314563 -0.118514E-06  0.286E-02    3.74       1.0  T
   3    -35.1314564 -0.230936E-07  0.181E-03    3.74      11.8  T
   4    -35.1314564 -0.327349E-07  0.992E-04    3.74      21.5  T
   5    -35.1314564 -0.565339E-08  0.511E-04    3.74      41.7  T
     SCC iter.                  ...        0 min,  0.067 sec
     gradient                   ...        0 min,  0.041 sec
 * total energy  :   -34.6044355 Eh     change       -0.9334906E-05 Eh
   gradient norm :     0.0007945 Eh/α   predicted    -0.3611828E-05 ( -61.31%)
   displ. norm   :     0.0915173 α      lambda       -0.6821733E-05
   maximum displ.:     0.0739268 α      in ANC's #1, #3, #6, ...

........................................................................
.............................. CYCLE   60 ..............................
........................................................................

 iter      E             dE          RMSdq      gap      omega  full diag
   1    -35.1315049 -0.351315E+02  0.451E-02    3.75       0.0  T
   2    -35.1315050 -0.867308E-07  0.265E-02    3.75       1.0  T
   3    -35.1315050 -0.248857E-07  0.141E-03    3.75      15.2  T
   4    -35.1315050 -0.226617E-07  0.789E-04    3.75      27.0  T
   5    -35.1315050 -0.585068E-09  0.428E-04    3.75      49.8  T
     SCC iter.                  ...        0 min,  0.075 sec
     gradient                   ...        0 min,  0.041 sec
 * total energy  :   -34.6044443 Eh     change       -0.8757655E-05 Eh
   gradient norm :     0.0006443 Eh/α   predicted    -0.3425143E-05 ( -60.89%)
   displ. norm   :     0.1158847 α      lambda       -0.6988258E-05
   maximum displ.:     0.0916696 α      in ANC's #1, #3, #6, ...

........................................................................
.............................. CYCLE   61 ..............................
........................................................................

 iter      E             dE          RMSdq      gap      omega  full diag
   1    -35.1314830 -0.351315E+02  0.574E-02    3.75       0.0  T
   2    -35.1314831 -0.131031E-06  0.337E-02    3.75       1.0  T
   3    -35.1314832 -0.240742E-07  0.186E-03    3.75      11.5  T
   4    -35.1314832 -0.404061E-07  0.949E-04    3.75      22.5  T
   5    -35.1314832 -0.260115E-08  0.557E-04    3.75      38.3  T
     SCC iter.                  ...        0 min,  0.070 sec
     gradient                   ...        0 min,  0.041 sec
 * total energy  :   -34.6044530 Eh     change       -0.8683126E-05 Eh
   gradient norm :     0.0007208 Eh/α   predicted    -0.3518833E-05 ( -59.48%)
   displ. norm   :     0.1637095 α      lambda       -0.7926474E-05
   maximum displ.:     0.1227356 α      in ANC's #1, #3, #6, ...

........................................................................
.............................. CYCLE   62 ..............................
........................................................................

 iter      E             dE          RMSdq      gap      omega  full diag
   1    -35.1310833 -0.351311E+02  0.792E-02    3.75       0.0  T
   2    -35.1310835 -0.212881E-06  0.466E-02    3.75       1.0  T
   3    -35.1310836 -0.110563E-06  0.172E-03    3.75      12.4  T
   4    -35.1310836 -0.629365E-08  0.106E-03    3.75      20.2  T
   5    -35.1310836 -0.144298E-08  0.460E-04    3.75      46.3  T
   6    -35.1310836 -0.239256E-08  0.136E-04    3.75     157.0  T
     SCC iter.                  ...        0 min,  0.073 sec
     gradient                   ...        0 min,  0.033 sec
 * total energy  :   -34.6044625 Eh     change       -0.9552284E-05 Eh
   gradient norm :     0.0011483 Eh/α   predicted    -0.4011580E-05 ( -58.00%)
   displ. norm   :     0.3599219 α      lambda       -0.1580899E-04
   maximum displ.:     0.2861596 α      in ANC's #1, #3, #6, ...

........................................................................
.............................. CYCLE   63 ..............................
........................................................................

 iter      E             dE          RMSdq      gap      omega  full diag
   1    -35.1298380 -0.351298E+02  0.172E-01    3.75       0.0  T
   2    -35.1298388 -0.827686E-06  0.101E-01    3.75       1.0  T
   3    -35.1298392 -0.418045E-06  0.368E-03    3.75       5.8  T
   4    -35.1298392 -0.401334E-07  0.247E-03    3.75       8.6  T
   5    -35.1298393 -0.330183E-07  0.781E-04    3.75      27.3  T
   6    -35.1298393 -0.545548E-08  0.230E-04    3.75      92.6  T
     SCC iter.                  ...        0 min,  0.075 sec
     gradient                   ...        0 min,  0.034 sec
 * total energy  :   -34.6044734 Eh     change       -0.1092118E-04 Eh
   gradient norm :     0.0026350 Eh/α   predicted    -0.8362701E-05 ( -23.43%)
   displ. norm   :     0.0342732 α      lambda       -0.1346281E-04
   maximum displ.:     0.0306138 α      in ANC's #1, #2, #6, ...

........................................................................
.............................. CYCLE   64 ..............................
........................................................................

 iter      E             dE          RMSdq      gap      omega  full diag
   1    -35.1310866 -0.351311E+02  0.169E-02    3.75       0.0  T
   2    -35.1310867 -0.109014E-06  0.100E-02    3.75       2.1  T
   3    -35.1310865  0.217959E-06  0.389E-03    3.75       5.5  T
   4    -35.1310868 -0.253153E-06  0.785E-04    3.75      27.2  T
   5    -35.1310868 -0.103660E-07  0.214E-04    3.75      99.9  T
     SCC iter.                  ...        0 min,  0.050 sec
     gradient                   ...        0 min,  0.031 sec
 * total energy  :   -34.6044827 Eh     change       -0.9291068E-05 Eh
   gradient norm :     0.0013031 Eh/α   predicted    -0.6741067E-05 ( -27.45%)
   displ. norm   :     0.1953534 α      lambda       -0.1327000E-04
   maximum displ.:     0.1569163 α      in ANC's #1, #3, #2, ...

........................................................................
.............................. CYCLE   65 ..............................
........................................................................

 iter      E             dE          RMSdq      gap      omega  full diag
   1    -35.1321464 -0.351321E+02  0.888E-02    3.76       0.0  T
   2    -35.1321466 -0.223413E-06  0.522E-02    3.76       1.0  T
   3    -35.1321463  0.330295E-06  0.493E-03    3.76       4.3  T
   4    -35.1321467 -0.451754E-06  0.116E-03    3.76      18.3  T
   5    -35.1321467 -0.569884E-08  0.620E-04    3.76      34.4  T
   6    -35.1321467 -0.876831E-09  0.177E-04    3.76     120.1  T
     SCC iter.                  ...        0 min,  0.077 sec
     gradient                   ...        0 min,  0.040 sec
 * total energy  :   -34.6044977 Eh     change       -0.1501135E-04 Eh
   gradient norm :     0.0013663 Eh/α   predicted    -0.6750757E-05 ( -55.03%)
   displ. norm   :     0.5008347 α      lambda       -0.2328658E-04
   maximum displ.:     0.3872427 α      in ANC's #1, #3, #2, ...

........................................................................
.............................. CYCLE   66 ..............................
........................................................................

 iter      E             dE          RMSdq      gap      omega  full diag
   1    -35.1293388 -0.351293E+02  0.235E-01    3.76       0.0  T
   2    -35.1293403 -0.150766E-05  0.138E-01    3.76       1.0  T
   3    -35.1293407 -0.410613E-06  0.533E-03    3.76       4.0  T
   4    -35.1293410 -0.312427E-06  0.274E-03    3.76       7.8  T
   5    -35.1293410 -0.921867E-08  0.134E-03    3.76      15.9  T
   6    -35.1293410 -0.137287E-07  0.436E-04    3.76      48.9  T
   7    -35.1293410 -0.193077E-08  0.191E-04    3.76     111.5  T
     SCC iter.                  ...        0 min,  0.129 sec
     gradient                   ...        0 min,  0.041 sec
 * total energy  :   -34.6045075 Eh     change       -0.9747427E-05 Eh
   gradient norm :     0.0033182 Eh/α   predicted    -0.1294269E-04 (  32.78%)
   displ. norm   :     0.0863687 α      lambda       -0.3333581E-04
   maximum displ.:     0.0714024 α      in ANC's #1, #3, #6, ...
 * RMSD in coord.:     0.5500625 α      energy gain  -0.1138800E-02 Eh

generating ANC from exact Hessian ...
Using Lindh-Hessian (1995)
 Shifting diagonal of input Hessian by    9.0491126769537689E-003
 Lowest  eigenvalues of input Hessian
    0.000000    0.000000    0.000000    0.000000    0.000000    0.000000
    0.010000    0.010304    0.011401    0.014697    0.016931    0.019395
    0.022352    0.024616    0.028135    0.030836    0.035218    0.038041
 Highest eigenvalues
    1.820018    1.899381    1.966362    1.996993    2.050344    2.388647


........................................................................
.............................. CYCLE   67 ..............................
........................................................................

 iter      E             dE          RMSdq      gap      omega  full diag
   1    -35.1315600 -0.351316E+02  0.411E-02    3.76       0.0  T
   2    -35.1315602 -0.240768E-06  0.242E-02    3.76       1.0  T
   3    -35.1315595  0.674272E-06  0.632E-03    3.76       3.4  T
   4    -35.1315603 -0.770388E-06  0.118E-03    3.76      18.1  T
   5    -35.1315603 -0.155713E-07  0.528E-04    3.76      40.4  T
   6    -35.1315603 -0.462023E-09  0.284E-04    3.76      75.0  T
     SCC iter.                  ...        0 min,  0.073 sec
     gradient                   ...        0 min,  0.034 sec
 * total energy  :   -34.6045258 Eh     change       -0.1832569E-04 Eh
   gradient norm :     0.0019688 Eh/α   predicted     0.0000000E+00 (-100.00%)
   displ. norm   :     0.0298203 α      lambda       -0.6463625E-05
   maximum displ.:     0.0230967 α      in ANC's #2, #1, #3, ...

........................................................................
.............................. CYCLE   68 ..............................
........................................................................

 iter      E             dE          RMSdq      gap      omega  full diag
   1    -35.1322520 -0.351323E+02  0.178E-02    3.76       0.0  T
   2    -35.1322522 -0.180508E-06  0.106E-02    3.76       2.0  T
   3    -35.1322522  0.527664E-07  0.207E-03    3.76      10.3  T
   4    -35.1322522 -0.618517E-07  0.683E-04    3.76      31.2  T
   5    -35.1322522 -0.829455E-08  0.267E-04    3.76      79.8  T
     SCC iter.                  ...        0 min,  0.063 sec
     gradient                   ...        0 min,  0.034 sec
 * total energy  :   -34.6045343 Eh     change       -0.8486576E-05 Eh
   gradient norm :     0.0006299 Eh/α   predicted    -0.4436790E-05 ( -47.72%)
   displ. norm   :     0.0416741 α      lambda       -0.5360180E-05
   maximum displ.:     0.0312470 α      in ANC's #2, #1, #3, ...

........................................................................
.............................. CYCLE   69 ..............................
........................................................................

 iter      E             dE          RMSdq      gap      omega  full diag
   1    -35.1323955 -0.351324E+02  0.247E-02    3.76       0.0  T
   2    -35.1323955 -0.231559E-07  0.146E-02    3.76       1.5  T
   3    -35.1323955  0.570985E-09  0.753E-04    3.76      28.3  T
   4    -35.1323955 -0.771633E-08  0.405E-04    3.76      52.7  T
     SCC iter.                  ...        0 min,  0.049 sec
     gradient                   ...        0 min,  0.033 sec
 * total energy  :   -34.6045415 Eh     change       -0.7184001E-05 Eh
   gradient norm :     0.0010130 Eh/α   predicted    -0.2714450E-05 ( -62.22%)
   displ. norm   :     0.0812936 α      lambda       -0.9766788E-05
   maximum displ.:     0.0560713 α      in ANC's #2, #1, #3, ...

........................................................................
.............................. CYCLE   70 ..............................
........................................................................

 iter      E             dE          RMSdq      gap      omega  full diag
   1    -35.1322376 -0.351322E+02  0.525E-02    3.76       0.0  T
   2    -35.1322376 -0.720885E-07  0.310E-02    3.76       1.0  T
   3    -35.1322375  0.176954E-06  0.344E-03    3.76       6.2  T
   4    -35.1322377 -0.226980E-06  0.713E-04    3.76      29.9  T
   5    -35.1322377 -0.831456E-09  0.371E-04    3.76      57.4  T
     SCC iter.                  ...        0 min,  0.175 sec
     gradient                   ...        0 min,  0.041 sec
 * total energy  :   -34.6045535 Eh     change       -0.1206801E-04 Eh
   gradient norm :     0.0007848 Eh/α   predicted    -0.4903654E-05 ( -59.37%)
   displ. norm   :     0.1203454 α      lambda       -0.1143652E-04
   maximum displ.:     0.0806539 α      in ANC's #2, #3, #1, ...

........................................................................
.............................. CYCLE   71 ..............................
........................................................................

 iter      E             dE          RMSdq      gap      omega  full diag
   1    -35.1317433 -0.351317E+02  0.783E-02    3.76       0.0  T
   2    -35.1317435 -0.164388E-06  0.463E-02    3.76       1.0  T
   3    -35.1317428  0.657367E-06  0.636E-03    3.76       3.3  T
   4    -35.1317436 -0.789738E-06  0.104E-03    3.76      20.5  T
   5    -35.1317436 -0.169345E-08  0.551E-04    3.76      38.7  T
   6    -35.1317436 -0.273808E-09  0.193E-04    3.76     110.2  T
     SCC iter.                  ...        0 min,  0.069 sec
     gradient                   ...        0 min,  0.033 sec
 * total energy  :   -34.6045637 Eh     change       -0.1018597E-04 Eh
   gradient norm :     0.0008271 Eh/α   predicted    -0.5757489E-05 ( -43.48%)
   displ. norm   :     0.0518694 α      lambda       -0.3705081E-05
   maximum displ.:     0.0388717 α      in ANC's #2, #3, #1, ...

........................................................................
.............................. CYCLE   72 ..............................
........................................................................

 iter      E             dE          RMSdq      gap      omega  full diag
   1    -35.1318517 -0.351319E+02  0.358E-02    3.76       0.0  T
   2    -35.1318517 -0.313016E-07  0.211E-02    3.76       1.0  T
   3    -35.1318517  0.253406E-07  0.153E-03    3.76      13.9  T
   4    -35.1318517 -0.414476E-07  0.467E-04    3.76      45.7  T
   5    -35.1318517 -0.108535E-08  0.229E-04    3.76      93.2  T
     SCC iter.                  ...        0 min,  0.068 sec
     gradient                   ...        0 min,  0.034 sec
 * total energy  :   -34.6045671 Eh     change       -0.3376402E-05 Eh
   gradient norm :     0.0006477 Eh/α   predicted    -0.1855926E-05 ( -45.03%)
   displ. norm   :     0.0227783 α      lambda       -0.1604688E-05
   maximum displ.:     0.0193422 α      in ANC's #2, #3, #4, ...

........................................................................
.............................. CYCLE   73 ..............................
........................................................................

 iter      E             dE          RMSdq      gap      omega  full diag
   1    -35.1320542 -0.351321E+02  0.147E-02    3.76       0.0  T
   2    -35.1320542 -0.146975E-07  0.870E-03    3.76       2.5  T
   3    -35.1320542  0.163840E-07  0.105E-03    3.76      20.3  T
   4    -35.1320542 -0.192177E-07  0.313E-04    3.76      68.1  T
   5    -35.1320542 -0.136282E-08  0.126E-04    3.76     169.4  T
     SCC iter.                  ...        0 min,  0.060 sec
     gradient                   ...        0 min,  0.033 sec
 * total energy  :   -34.6045687 Eh     change       -0.1607288E-05 Eh
   gradient norm :     0.0003744 Eh/α   predicted    -0.8033626E-06 ( -50.02%)
   displ. norm   :     0.0213342 α      lambda       -0.1322680E-05
   maximum displ.:     0.0179507 α      in ANC's #2, #3, #1, ...

........................................................................
.............................. CYCLE   74 ..............................
........................................................................

 iter      E             dE          RMSdq      gap      omega  full diag
   1    -35.1322021 -0.351322E+02  0.120E-02    3.76       0.0  T
   2    -35.1322021 -0.760308E-08  0.712E-03    3.76       3.0  T
   3    -35.1322021  0.176896E-07  0.103E-03    3.76      20.7  T
   4    -35.1322021 -0.204119E-07  0.198E-04    3.76     107.6  T
   5    -35.1322021 -0.473861E-09  0.871E-05    3.76     244.9  T
     SCC iter.                  ...        0 min,  0.060 sec
     gradient                   ...        0 min,  0.034 sec
 * total energy  :   -34.6045704 Eh     change       -0.1662328E-05 Eh
   gradient norm :     0.0003643 Eh/α   predicted    -0.6638265E-06 ( -60.07%)
   displ. norm   :     0.0285300 α      lambda       -0.1551436E-05
   maximum displ.:     0.0224526 α      in ANC's #2, #1, #3, ...

........................................................................
.............................. CYCLE   75 ..............................
........................................................................

 iter      E             dE          RMSdq      gap      omega  full diag
   1    -35.1322477 -0.351322E+02  0.149E-02    3.76       0.0  T
   2    -35.1322477 -0.799312E-08  0.878E-03    3.76       2.4  T
   3    -35.1322477  0.599970E-08  0.671E-04    3.76      31.8  T
   4    -35.1322477 -0.810262E-08  0.211E-04    3.76     101.1  T
     SCC iter.                  ...        0 min,  0.047 sec
     gradient                   ...        0 min,  0.035 sec
 * total energy  :   -34.6045725 Eh     change       -0.2165597E-05 Eh
   gradient norm :     0.0005994 Eh/α   predicted    -0.7776012E-06 ( -64.09%)
   displ. norm   :     0.0422807 α      lambda       -0.2338661E-05
   maximum displ.:     0.0313853 α      in ANC's #2, #1, #3, ...

........................................................................
.............................. CYCLE   76 ..............................
........................................................................

 iter      E             dE          RMSdq      gap      omega  full diag
   1    -35.1322328 -0.351322E+02  0.198E-02    3.76       0.0  T
   2    -35.1322328 -0.120258E-07  0.116E-02    3.76       1.8  T
   3    -35.1322328  0.120133E-07  0.944E-04    3.76      22.6  T
   4    -35.1322328 -0.162439E-07  0.262E-04    3.76      81.3  T
     SCC iter.                  ...        0 min,  0.062 sec
     gradient                   ...        0 min,  0.045 sec
 * total energy  :   -34.6045759 Eh     change       -0.3389122E-05 Eh
   gradient norm :     0.0006848 Eh/α   predicted    -0.1171963E-05 ( -65.42%)
   displ. norm   :     0.0719884 α      lambda       -0.4078698E-05
   maximum displ.:     0.0512995 α      in ANC's #2, #1, #3, ...

........................................................................
.............................. CYCLE   77 ..............................
........................................................................

 iter      E             dE          RMSdq      gap      omega  full diag
   1    -35.1321431 -0.351321E+02  0.324E-02    3.76       0.0  T
   2    -35.1321432 -0.317108E-07  0.191E-02    3.76       1.1  T
   3    -35.1321431  0.334659E-07  0.160E-03    3.76      13.3  T
   4    -35.1321432 -0.475308E-07  0.444E-04    3.76      48.0  T
   5    -35.1321432 -0.128924E-08  0.216E-04    3.76      98.5  T
     SCC iter.                  ...        0 min,  0.086 sec
     gradient                   ...        0 min,  0.045 sec
 * total energy  :   -34.6045819 Eh     change       -0.5921618E-05 Eh
   gradient norm :     0.0006464 Eh/α   predicted    -0.2047504E-05 ( -65.42%)
   displ. norm   :     0.1253766 α      lambda       -0.7012408E-05
   maximum displ.:     0.0873161 α      in ANC's #2, #1, #3, ...

........................................................................
.............................. CYCLE   78 ..............................
........................................................................

 iter      E             dE          RMSdq      gap      omega  full diag
   1    -35.1319350 -0.351319E+02  0.547E-02    3.76       0.0  T
   2    -35.1319351 -0.898051E-07  0.322E-02    3.76       1.0  T
   3    -35.1319350  0.100799E-06  0.280E-03    3.76       7.6  T
   4    -35.1319351 -0.148158E-06  0.758E-04    3.76      28.1  T
   5    -35.1319352 -0.217213E-08  0.398E-04    3.76      53.5  T
     SCC iter.                  ...        0 min,  0.062 sec
     gradient                   ...        0 min,  0.035 sec
 * total energy  :   -34.6045918 Eh     change       -0.9922108E-05 Eh
   gradient norm :     0.0005286 Eh/α   predicted    -0.3531378E-05 ( -64.41%)
   displ. norm   :     0.1887523 α      lambda       -0.9836339E-05
   maximum displ.:     0.1301668 α      in ANC's #2, #1, #3, ...

........................................................................
.............................. CYCLE   79 ..............................
........................................................................

 iter      E             dE          RMSdq      gap      omega  full diag
   1    -35.1315158 -0.351315E+02  0.821E-02    3.76       0.0  T
   2    -35.1315160 -0.209876E-06  0.483E-02    3.76       1.0  T
   3    -35.1315158  0.198293E-06  0.408E-03    3.76       5.2  T
   4    -35.1315161 -0.311063E-06  0.118E-03    3.76      18.0  T
   5    -35.1315162 -0.452104E-08  0.626E-04    3.76      34.1  T
   6    -35.1315162 -0.116706E-08  0.209E-04    3.76     102.1  T
     SCC iter.                  ...        0 min,  0.075 sec
     gradient                   ...        0 min,  0.033 sec
 * total energy  :   -34.6046049 Eh     change       -0.1307501E-04 Eh
   gradient norm :     0.0008371 Eh/α   predicted    -0.4997320E-05 ( -61.78%)
   displ. norm   :     0.1886095 α      lambda       -0.8874545E-05
   maximum displ.:     0.1305956 α      in ANC's #2, #1, #3, ...

........................................................................
.............................. CYCLE   80 ..............................
........................................................................

 iter      E             dE          RMSdq      gap      omega  full diag
   1    -35.1312315 -0.351312E+02  0.813E-02    3.76       0.0  T
   2    -35.1312317 -0.205036E-06  0.478E-02    3.76       1.0  T
   3    -35.1312315  0.209725E-06  0.420E-03    3.76       5.1  T
   4    -35.1312318 -0.326707E-06  0.118E-03    3.76      18.1  T
   5    -35.1312318 -0.356321E-08  0.602E-04    3.76      35.4  T
   6    -35.1312318 -0.104021E-08  0.187E-04    3.76     114.2  T
     SCC iter.                  ...        0 min,  0.074 sec
     gradient                   ...        0 min,  0.033 sec
 * total energy  :   -34.6046161 Eh     change       -0.1122833E-04 Eh
   gradient norm :     0.0013333 Eh/α   predicted    -0.4508162E-05 ( -59.85%)
   displ. norm   :     0.1624025 α      lambda       -0.7734795E-05
   maximum displ.:     0.1151381 α      in ANC's #2, #1, #3, ...

........................................................................
.............................. CYCLE   81 ..............................
........................................................................

 iter      E             dE          RMSdq      gap      omega  full diag
   1    -35.1312768 -0.351313E+02  0.707E-02    3.76       0.0  T
   2    -35.1312769 -0.148849E-06  0.416E-02    3.76       1.0  T
   3    -35.1312767  0.263937E-06  0.434E-03    3.76       4.9  T
   4    -35.1312770 -0.360461E-06  0.982E-04    3.76      21.7  T
   5    -35.1312770 -0.172578E-08  0.468E-04    3.76      45.5  T
     SCC iter.                  ...        0 min,  0.071 sec
     gradient                   ...        0 min,  0.038 sec
 * total energy  :   -34.6046261 Eh     change       -0.1000711E-04 Eh
   gradient norm :     0.0015650 Eh/α   predicted    -0.3913851E-05 ( -60.89%)
   displ. norm   :     0.1779883 α      lambda       -0.9200915E-05
   maximum displ.:     0.1318680 α      in ANC's #2, #1, #3, ...

........................................................................
.............................. CYCLE   82 ..............................
........................................................................

 iter      E             dE          RMSdq      gap      omega  full diag
   1    -35.1314770 -0.351315E+02  0.795E-02    3.76       0.0  T
   2    -35.1314772 -0.182098E-06  0.467E-02    3.76       1.0  T
   3    -35.1314769  0.341887E-06  0.485E-03    3.76       4.4  T
   4    -35.1314773 -0.454464E-06  0.105E-03    3.76      20.3  T
   5    -35.1314773 -0.346314E-08  0.560E-04    3.76      38.1  T
   6    -35.1314773 -0.424116E-09  0.150E-04    3.76     142.0  T
     SCC iter.                  ...        0 min,  0.084 sec
     gradient                   ...        0 min,  0.045 sec
 * total energy  :   -34.6046381 Eh     change       -0.1198286E-04 Eh
   gradient norm :     0.0013855 Eh/α   predicted    -0.4668090E-05 ( -61.04%)
   displ. norm   :     0.2336958 α      lambda       -0.1188615E-04
   maximum displ.:     0.1805370 α      in ANC's #2, #1, #3, ...

........................................................................
.............................. CYCLE   83 ..............................
........................................................................

 iter      E             dE          RMSdq      gap      omega  full diag
   1    -35.1314283 -0.351314E+02  0.110E-01    3.76       0.0  T
   2    -35.1314286 -0.320964E-06  0.648E-02    3.76       1.0  T
   3    -35.1314284  0.272020E-06  0.485E-03    3.76       4.4  T
   4    -35.1314288 -0.429921E-06  0.141E-03    3.76      15.1  T
   5    -35.1314288 -0.113686E-07  0.720E-04    3.76      29.6  T
   6    -35.1314288 -0.748273E-09  0.169E-04    3.76     126.5  T
     SCC iter.                  ...        0 min,  0.085 sec
     gradient                   ...        0 min,  0.040 sec
 * total energy  :   -34.6046531 Eh     change       -0.1500419E-04 Eh
   gradient norm :     0.0013087 Eh/α   predicted    -0.6090145E-05 ( -59.41%)
   displ. norm   :     0.3768755 α      lambda       -0.1828089E-04
   maximum displ.:     0.3005855 α      in ANC's #2, #1, #3, ...

........................................................................
.............................. CYCLE   84 ..............................
........................................................................

 iter      E             dE          RMSdq      gap      omega  full diag
   1    -35.1307926 -0.351308E+02  0.182E-01    3.76       0.0  T
   2    -35.1307934 -0.812789E-06  0.107E-01    3.76       1.0  T
   3    -35.1307933  0.650686E-07  0.511E-03    3.76       4.2  T
   4    -35.1307937 -0.399561E-06  0.220E-03    3.76       9.7  T
   5    -35.1307937 -0.352825E-07  0.111E-03    3.76      19.3  T
   6    -35.1307937 -0.255621E-08  0.327E-04    3.76      65.3  T
   7    -35.1307937 -0.130911E-08  0.108E-04    3.76     198.0  T
     SCC iter.                  ...        0 min,  0.182 sec
     gradient                   ...        0 min,  0.047 sec
 * total energy  :   -34.6046721 Eh     change       -0.1900852E-04 Eh
   gradient norm :     0.0019891 Eh/α   predicted    -0.9719346E-05 ( -48.87%)
   displ. norm   :     0.2501207 α      lambda       -0.1959311E-04
   maximum displ.:     0.2135322 α      in ANC's #2, #1, #3, ...

........................................................................
.............................. CYCLE   85 ..............................
........................................................................

 iter      E             dE          RMSdq      gap      omega  full diag
   1    -35.1323057 -0.351323E+02  0.127E-01    3.76       0.0  T
   2    -35.1323060 -0.374314E-06  0.748E-02    3.76       1.0  T
   3    -35.1323056  0.441567E-06  0.569E-03    3.77       3.7  T
   4    -35.1323062 -0.616402E-06  0.146E-03    3.76      14.7  T
   5    -35.1323062 -0.165674E-07  0.744E-04    3.76      28.7  T
   6    -35.1323062 -0.119231E-08  0.192E-04    3.76     111.1  T
     SCC iter.                  ...        0 min,  0.080 sec
     gradient                   ...        0 min,  0.034 sec
 * total energy  :   -34.6046911 Eh     change       -0.1903484E-04 Eh
   gradient norm :     0.0016565 Eh/α   predicted    -0.1006970E-04 ( -47.10%)
   displ. norm   :     0.4342638 α      lambda       -0.1857519E-04
   maximum displ.:     0.3618573 α      in ANC's #2, #1, #3, ...

........................................................................
.............................. CYCLE   86 ..............................
........................................................................

 iter      E             dE          RMSdq      gap      omega  full diag
   1    -35.1293058 -0.351293E+02  0.219E-01    3.76       0.0  T
   2    -35.1293070 -0.120394E-05  0.129E-01    3.76       1.0  T
   3    -35.1293072 -0.157519E-06  0.463E-03    3.76       4.6  T
   4    -35.1293075 -0.302934E-06  0.207E-03    3.76      10.3  T
   5    -35.1293075 -0.173776E-07  0.106E-03    3.76      20.0  T
   6    -35.1293075 -0.373364E-08  0.277E-04    3.76      77.1  T
   7    -35.1293075 -0.686242E-09  0.106E-04    3.76     201.7  T
     SCC iter.                  ...        0 min,  0.099 sec
     gradient                   ...        0 min,  0.039 sec
 * total energy  :   -34.6046942 Eh     change       -0.3082802E-05 Eh
   gradient norm :     0.0037306 Eh/α   predicted    -0.1006717E-04 ( 226.56%)
   displ. norm   :     0.0678994 α      lambda       -0.3216296E-04
   maximum displ.:     0.0473411 α      in ANC's #2, #1, #3, ...

........................................................................
.............................. CYCLE   87 ..............................
........................................................................

 iter      E             dE          RMSdq      gap      omega  full diag
   1    -35.1313190 -0.351313E+02  0.343E-02    3.76       0.0  T
   2    -35.1313191 -0.112428E-06  0.202E-02    3.76       1.1  T
   3    -35.1313188  0.289711E-06  0.417E-03    3.76       5.1  T
   4    -35.1313191 -0.330700E-06  0.753E-04    3.76      28.3  T
   5    -35.1313191 -0.643855E-08  0.341E-04    3.76      62.4  T
     SCC iter.                  ...        0 min,  0.133 sec
     gradient                   ...        0 min,  0.047 sec
 * total energy  :   -34.6047142 Eh     change       -0.1994988E-04 Eh
   gradient norm :     0.0017862 Eh/α   predicted    -0.1616232E-04 ( -18.99%)
   displ. norm   :     0.1428372 α      lambda       -0.1562309E-04
   maximum displ.:     0.1220682 α      in ANC's #2, #3, #38, ...

........................................................................
.............................. CYCLE   88 ..............................
........................................................................

 iter      E             dE          RMSdq      gap      omega  full diag
   1    -35.1327066 -0.351327E+02  0.800E-02    3.76       0.0  T
   2    -35.1327067 -0.153474E-06  0.472E-02    3.76       1.0  T
   3    -35.1327065  0.252740E-06  0.415E-03    3.76       5.1  T
   4    -35.1327068 -0.328530E-06  0.852E-04    3.76      25.0  T
   5    -35.1327068 -0.384767E-08  0.450E-04    3.76      47.4  T
     SCC iter.                  ...        0 min,  0.075 sec
     gradient                   ...        0 min,  0.040 sec
 * total energy  :   -34.6047299 Eh     change       -0.1576821E-04 Eh
   gradient norm :     0.0009281 Eh/α   predicted    -0.7890592E-05 ( -49.96%)
   displ. norm   :     0.4045732 α      lambda       -0.1934980E-04
   maximum displ.:     0.3493055 α      in ANC's #2, #3, #1, ...

........................................................................
.............................. CYCLE   89 ..............................
........................................................................

 iter      E             dE          RMSdq      gap      omega  full diag
   1    -35.1310134 -0.351310E+02  0.219E-01    3.76       0.0  T
   2    -35.1310143 -0.948587E-06  0.129E-01    3.76       1.0  T
   3    -35.1310145 -0.152962E-06  0.406E-03    3.76       5.3  T
   4    -35.1310147 -0.226376E-06  0.194E-03    3.76      11.0  T
   5    -35.1310147 -0.203302E-07  0.102E-03    3.76      20.9  T
   6    -35.1310147 -0.494145E-08  0.392E-04    3.76      54.4  T
   7    -35.1310148 -0.212066E-08  0.114E-04    3.76     186.6  T
     SCC iter.                  ...        0 min,  0.085 sec
     gradient                   ...        0 min,  0.034 sec
 * total energy  :   -34.6047441 Eh     change       -0.1416331E-04 Eh
   gradient norm :     0.0022605 Eh/α   predicted    -0.1037822E-04 ( -26.72%)
   displ. norm   :     0.0294682 α      lambda       -0.8797940E-05
   maximum displ.:     0.0233498 α      in ANC's #2, #3, #1, ...

........................................................................
.............................. CYCLE   90 ..............................
........................................................................

 iter      E             dE          RMSdq      gap      omega  full diag
   1    -35.1316684 -0.351317E+02  0.188E-02    3.76       0.0  T
   2    -35.1316684 -0.337531E-07  0.111E-02    3.76       1.9  T
   3    -35.1316684  0.362154E-07  0.151E-03    3.76      14.1  T
   4    -35.1316684 -0.412187E-07  0.426E-04    3.76      50.1  T
   5    -35.1316684 -0.283261E-08  0.150E-04    3.76     142.6  T
     SCC iter.                  ...        0 min,  0.075 sec
     gradient                   ...        0 min,  0.039 sec
 * total energy  :   -34.6047494 Eh     change       -0.5362492E-05 Eh
   gradient norm :     0.0011123 Eh/α   predicted    -0.4407101E-05 ( -17.82%)
   displ. norm   :     0.1086351 α      lambda       -0.4670357E-05
   maximum displ.:     0.0928451 α      in ANC's #2, #3, #38, ...

........................................................................
.............................. CYCLE   91 ..............................
........................................................................

 iter      E             dE          RMSdq      gap      omega  full diag
   1    -35.1319192 -0.351319E+02  0.549E-02    3.76       0.0  T
   2    -35.1319193 -0.860428E-07  0.324E-02    3.76       1.0  T
   3    -35.1319192  0.113794E-06  0.281E-03    3.76       7.6  T
   4    -35.1319193 -0.150452E-06  0.630E-04    3.76      33.9  T
   5    -35.1319193 -0.305318E-08  0.333E-04    3.76      64.0  T
     SCC iter.                  ...        0 min,  0.069 sec
     gradient                   ...        0 min,  0.034 sec
 * total energy  :   -34.6047536 Eh     change       -0.4134215E-05 Eh
   gradient norm :     0.0010979 Eh/α   predicted    -0.2349277E-05 ( -43.17%)
   displ. norm   :     0.1401181 α      lambda       -0.3882443E-05
   maximum displ.:     0.1202983 α      in ANC's #2, #3, #38, ...

........................................................................
.............................. CYCLE   92 ..............................
........................................................................

 iter      E             dE          RMSdq      gap      omega  full diag
   1    -35.1321976 -0.351322E+02  0.765E-02    3.76       0.0  T
   2    -35.1321977 -0.118119E-06  0.452E-02    3.76       1.0  T
   3    -35.1321977  0.636543E-08  0.187E-03    3.76      11.4  T
   4    -35.1321977 -0.557168E-07  0.828E-04    3.76      25.7  T
   5    -35.1321977 -0.455183E-08  0.389E-04    3.76      54.7  T
     SCC iter.                  ...        0 min,  0.064 sec
     gradient                   ...        0 min,  0.036 sec
 * total energy  :   -34.6047560 Eh     change       -0.2444621E-05 Eh
   gradient norm :     0.0006746 Eh/α   predicted    -0.1957082E-05 ( -19.94%)
   displ. norm   :     0.0597363 α      lambda       -0.1532063E-05
   maximum displ.:     0.0507693 α      in ANC's #2, #1, #3, ...
 * RMSD in coord.:     0.6737035 α      energy gain  -0.2485411E-03 Eh

generating ANC from exact Hessian ...
Using Lindh-Hessian (1995)
 Shifting diagonal of input Hessian by    9.1306181030360208E-003
 Lowest  eigenvalues of input Hessian
    0.000000    0.000000    0.000000    0.000000    0.000000    0.000000
    0.010000    0.010341    0.011837    0.014556    0.016432    0.019307
    0.022941    0.024578    0.029108    0.031035    0.035169    0.037335
 Highest eigenvalues
    1.818632    1.898637    1.966326    1.995809    2.049803    2.388611


........................................................................
.............................. CYCLE   93 ..............................
........................................................................

 iter      E             dE          RMSdq      gap      omega  full diag
   1    -35.1319382 -0.351319E+02  0.258E-02    3.76       0.0  T
   2    -35.1319382 -0.281200E-07  0.152E-02    3.76       1.4  T
   3    -35.1319382  0.283441E-07  0.148E-03    3.76      14.4  T
   4    -35.1319383 -0.401422E-07  0.391E-04    3.76      54.5  T
   5    -35.1319383 -0.105746E-08  0.230E-04    3.76      92.7  T
     SCC iter.                  ...        0 min,  0.059 sec
     gradient                   ...        0 min,  0.029 sec
 * total energy  :   -34.6047571 Eh     change       -0.1092975E-05 Eh
   gradient norm :     0.0006431 Eh/α   predicted     0.0000000E+00 (-100.00%)
   displ. norm   :     0.0077181 α      lambda       -0.4233669E-06
   maximum displ.:     0.0034885 α      in ANC's #6, #5, #1, ...

........................................................................
.............................. CYCLE   94 ..............................
........................................................................

 iter      E             dE          RMSdq      gap      omega  full diag
   1    -35.1325158 -0.351325E+02  0.550E-03    3.76       0.0  T
   2    -35.1325158 -0.624382E-08  0.331E-03    3.76       6.4  T
   3    -35.1325158  0.357295E-07  0.146E-03    3.76      14.6  T
   4    -35.1325158 -0.412495E-07  0.209E-04    3.76     102.0  T
   5    -35.1325158 -0.468070E-09  0.972E-05    3.76     219.3  T
     SCC iter.                  ...        0 min,  0.062 sec
     gradient                   ...        0 min,  0.046 sec
 * total energy  :   -34.6047582 Eh     change       -0.1054934E-05 Eh
   gradient norm :     0.0002041 Eh/α   predicted    -0.7070475E-06 ( -32.98%)
   displ. norm   :     0.0072878 α      lambda       -0.3742156E-06
   maximum displ.:     0.0038387 α      in ANC's #6, #1, #5, ...

........................................................................
.............................. CYCLE   95 ..............................
........................................................................

 iter      E             dE          RMSdq      gap      omega  full diag
   1    -35.1325168 -0.351325E+02  0.434E-03    3.76       0.0  T
   2    -35.1325168 -0.183204E-08  0.256E-03    3.76       8.3  T
   3    -35.1325168  0.454867E-08  0.541E-04    3.76      39.4  T
   4    -35.1325168 -0.575027E-08  0.124E-04    3.76     171.9  T
     SCC iter.                  ...        0 min,  0.057 sec
     gradient                   ...        0 min,  0.041 sec
 * total energy  :   -34.6047586 Eh     change       -0.4072685E-06 Eh
   gradient norm :     0.0001836 Eh/α   predicted    -0.1884628E-06 ( -53.73%)
   displ. norm   :     0.0213086 α      lambda       -0.8325248E-06
   maximum displ.:     0.0121636 α      in ANC's #6, #1, #5, ...

   *** GEOMETRY OPTIMIZATION CONVERGED AFTER 95 ITERATIONS ***

------------------------------------------------------------------------
 total energy gain   :        -0.0041132 Eh       -2.5810 kcal/mol
 total RMSD          :         1.8728408 a0        0.9911 Å
 total power (kW/mol):        -0.1136745 (step)   -0.8170 (real)
------------------------------------------------------------------------

 ANCopt (total)                0 d,  0 h,  0 min, 13.218 sec
 optimizer setup                ...        0 min,  0.001 sec (  0.005%)
 model hessian                  ...        0 min,  0.019 sec (  0.146%)
 ANC generation                 ...        0 min,  0.004 sec (  0.031%)
 coordinate transformation      ...        0 min,  0.001 sec (  0.006%)
 single point calculation       ...        0 min, 12.829 sec ( 97.060%)
 optimization log               ...        0 min,  0.011 sec (  0.083%)
 hessian update                 ...        0 min,  0.328 sec (  2.481%)
 rational function              ...        0 min,  0.013 sec (  0.095%)

================
 final structure:
================
22
 xtb: 6.7.1 (edcfbbe)
C            4.23277645485988        1.24990824851531        0.16274226406753
C            3.15835028386068        0.65105005389057       -0.31252328219093
C            2.51017270398380       -0.53983313068153        0.32384941858208
O            1.11584882713136       -0.31744834760396        0.53825285772770
C            0.28041345093974       -0.68244095786078       -0.44477485225403
O            0.64412750877142       -1.20342062171895       -1.47176221981749
C           -1.13611250158577       -0.38763670139110       -0.11834859066225
C           -1.50351248999054        0.24750352662931        1.06491000335945
C           -2.83817034013310        0.49899066164286        1.32298424650489
C           -3.80905083566165        0.12128810080686        0.40861591811476
C           -3.44665618452226       -0.50982448399407       -0.77093477350148
C           -2.11462500965864       -0.76377744231519       -1.03561890983928
H            4.71853391339534        0.91264131604530        1.06372227700083
H            4.67811191904298        2.09419538621026       -0.33409563296710
H            2.67523506595296        0.99606880960797       -1.21651150131674
H            2.62598906512194       -1.41399074335006       -0.33090179818484
H            2.93678973179233       -0.74733544762935        1.30742812504638
H           -0.74175499574290        0.53931164321543        1.77063308647387
H           -3.12459519544127        0.99164689909035        2.24042330710016
H           -4.85033797361199        0.31987914156774        0.61618936706877
H           -4.20417329500689       -0.80285424127972       -1.48249682839337
H           -1.80736010349905       -1.25392166939671       -1.94708955868540

 Bond Distances (Angstroems)
 ---------------------------
C1-C2=1.3187         C1-H13=1.0777        C1-H14=1.0761        C2-C1=1.3187         C2-C3=1.4978         C2-H15=1.0815        
C3-C2=1.4978         C3-O4=1.4281         C3-H16=1.0983        C3-H17=1.0920        O4-C3=1.4281         O4-C5=1.3407         
C5-O4=1.3407         C5-O6=1.2076         C5-C7=1.4832         O6-C5=1.2076         C7-C5=1.4832         C7-C8=1.3923         
C7-C12=1.3930        C8-C7=1.3923         C8-C9=1.3824         C8-H18=1.0786        C9-C8=1.3824         C9-C10=1.3861        
C9-H19=1.0800        C10-C9=1.3861        C10-C11=1.3860       C10-H20=1.0802       C11-C10=1.3860       C11-C12=1.3816       
C11-H21=1.0798       C12-C7=1.3930        C12-C11=1.3816       C12-H22=1.0796       H13-C1=1.0777        H14-C1=1.0761        
H15-C2=1.0815        H16-C3=1.0983        H17-C3=1.0920        H18-C8=1.0786        H19-C9=1.0800        H20-C10=1.0802       
H21-C11=1.0798       H22-C12=1.0796       
 C  H  Rav=1.0824 sigma=0.0067  Rmin=1.0761  Rmax=1.0983    10
 C  C  Rav=1.4023 sigma=0.0519  Rmin=1.3187  Rmax=1.4978     9
 O  C  Rav=1.3255 sigma=0.0907  Rmin=1.2076  Rmax=1.4281     3

 selected bond angles (degree)
 --------------------
H13-C1-C2=121.76               H14-C1-C2=121.81               H14-C1-H13=116.42              C3-C2-C1=124.09                
H15-C2-C1=121.36               H15-C2-C3=114.55               O4-C3-C2=111.25                H16-C3-C2=109.51               
H16-C3-O4=108.44               H17-C3-C2=111.39               H17-C3-O4=106.01               H17-C3-H16=110.15              
C5-O4-C3=117.12                O6-C5-O4=123.59                C7-C5-O4=112.31                C7-C5-O6=124.09                
C8-C7-C5=121.99                C12-C7-C5=118.18               C12-C7-C8=119.83               C9-C8-C7=119.76                
H18-C8-C7=119.54               H18-C8-C9=120.69               C10-C9-C8=120.23               H19-C9-C8=119.84               
H19-C9-C10=119.93              C11-C10-C9=120.15              H20-C10-C9=119.89              H20-C10-C11=119.95             

 selected dihedral angles (degree)
 ---------------------------------
C3-C2-C1-H13=359.67           C3-C2-C1-H14=178.96           H15-C2-C1-H13=179.90          H15-C2-C1-H14=359.18          
O4-C3-C2-C1=127.28            O4-C3-C2-H15=307.06           H16-C3-C2-C1=247.14           H16-C3-C2-H15= 66.93          
H17-C3-C2-C1=  9.23           H17-C3-C2-H15=189.02          C5-O4-C3-C2= 90.64            C5-O4-C3-H16=330.15           
C5-O4-C3-H17=211.89           O6-C5-O4-C3=  1.43            C7-C5-O4-C3=180.77            C8-C7-C5-O4=  2.42            
C8-C7-C5-O6=181.75            C12-C7-C5-O4=182.36           C12-C7-C5-O6=  1.69           C9-C8-C7-C5=180.05            
C9-C8-C7-C12=  0.10           H18-C8-C7-C5=  0.12           H18-C8-C7-C12=180.18          C10-C9-C8-C7=  0.00           
C10-C9-C8-H18=179.92          H19-C9-C8-C7=180.00           H19-C9-C8-H18=359.93          C11-C10-C9-C8=359.93          
C11-C10-C9-H19=179.92         H20-C10-C9-C8=179.96          H20-C10-C9-H19=359.95         
           -------------------------------------------------
          |                Final Singlepoint                |
           -------------------------------------------------

          ...................................................
          :                      SETUP                      :
          :.................................................:
          :  # basis functions                  58          :
          :  # atomic orbitals                  58          :
          :  # shells                           34          :
          :  # electrons                        62          :
          :  max. iterations                   250          :
          :  Hamiltonian                  GFN2-xTB          :
          :  restarted?                      false          :
          :  GBSA solvation                  false          :
          :  PC potential                    false          :
          :  electronic temp.          300.0000000     K    :
          :  accuracy                    1.0000000          :
          :  -> integral cutoff          0.2500000E+02      :
          :  -> integral neglect         0.1000000E-07      :
          :  -> SCF convergence          0.1000000E-05 Eh   :
          :  -> wf. convergence          0.1000000E-03 e    :
          :  Broyden damping             0.4000000          :
          :  net charge                          0          :
          :  unpaired electrons                  0          :
          ...................................................

 iter      E             dE          RMSdq      gap      omega  full diag
   1    -35.1325168 -0.351325E+02  0.684E-05    3.76       0.0  T
   2    -35.1325168 -0.829203E-11  0.444E-05    3.76     480.5  T
   3    -35.1325168  0.125056E-11  0.292E-05    3.76     730.4  T

   *** convergence criteria satisfied after 3 iterations ***

         #    Occupation            Energy/Eh            Energy/eV
      -------------------------------------------------------------
         1        2.0000           -0.7400347             -20.1374
       ...           ...                  ...                  ...
        25        2.0000           -0.4483512             -12.2003
        26        2.0000           -0.4343090             -11.8181
        27        2.0000           -0.4321276             -11.7588
        28        2.0000           -0.4192943             -11.4096
        29        2.0000           -0.4183922             -11.3850
        30        2.0000           -0.4173626             -11.3570
        31        2.0000           -0.4099601             -11.1556 (HOMO)
        32                         -0.2716490              -7.3919 (LUMO)
        33                         -0.2348217              -6.3898
        34                         -0.2196223              -5.9762
        35                         -0.1875677              -5.1040
        36                         -0.0915270              -2.4906
       ...                                ...                  ...
        58                          0.6956336              18.9292
      -------------------------------------------------------------
                  HL-Gap            0.1383111 Eh            3.7636 eV
             Fermi-level           -0.3408046 Eh           -9.2738 eV

 SCC (total)                   0 d,  0 h,  0 min,  0.108 sec
 SCC setup                      ...        0 min,  0.004 sec (  4.179%)
 Dispersion                     ...        0 min,  0.008 sec (  7.561%)
 classical contributions        ...        0 min,  0.004 sec (  4.046%)
 integral evaluation            ...        0 min,  0.011 sec ( 10.135%)
 iterations                     ...        0 min,  0.041 sec ( 38.000%)
 molecular gradient             ...        0 min,  0.039 sec ( 35.941%)
 printout                       ...        0 min,  0.000 sec (  0.113%)

         :::::::::::::::::::::::::::::::::::::::::::::::::::::
         ::                     SUMMARY                     ::
         :::::::::::::::::::::::::::::::::::::::::::::::::::::
         :: total energy             -34.604758581649 Eh    ::
         :: gradient norm              0.000183592319 Eh/a0 ::
         :: HOMO-LUMO gap              3.763637830814 eV    ::
         ::.................................................::
         :: SCC energy               -35.132566570551 Eh    ::
         :: -> isotropic ES            0.045917410790 Eh    ::
         :: -> anisotropic ES          0.000484524015 Eh    ::
         :: -> anisotropic XC          0.015267999071 Eh    ::
         :: -> dispersion             -0.017737384779 Eh    ::
         :: repulsion energy           0.527807988902 Eh    ::
         :: add. restraining           0.000000000000 Eh    ::
         :: total charge              -0.000000000000 e     ::
         :::::::::::::::::::::::::::::::::::::::::::::::::::::

           -------------------------------------------------
          |                Property Printout                |
           -------------------------------------------------

    * Orbital Energies and Occupations

         #    Occupation            Energy/Eh            Energy/eV
      -------------------------------------------------------------
         1        2.0000           -0.7400347             -20.1374
       ...           ...                  ...                  ...
        19        2.0000           -0.4985949             -13.5675
        20        2.0000           -0.4893085             -13.3148
        21        2.0000           -0.4872530             -13.2588
        22        2.0000           -0.4815025             -13.1023
        23        2.0000           -0.4741042             -12.9010
        24        2.0000           -0.4601025             -12.5200
        25        2.0000           -0.4483512             -12.2003
        26        2.0000           -0.4343090             -11.8181
        27        2.0000           -0.4321276             -11.7588
        28        2.0000           -0.4192943             -11.4096
        29        2.0000           -0.4183922             -11.3850
        30        2.0000           -0.4173626             -11.3570
        31        2.0000           -0.4099601             -11.1556 (HOMO)
        32                         -0.2716490              -7.3919 (LUMO)
        33                         -0.2348217              -6.3898
        34                         -0.2196223              -5.9762
        35                         -0.1875677              -5.1040
        36                         -0.0915270              -2.4906
        37                          0.0161645               0.4399
        38                          0.1046206               2.8469
        39                          0.1095911               2.9821
        40                          0.1202278               3.2716
        41                          0.1280361               3.4840
        42                          0.1559530               4.2437
       ...                                ...                  ...
        58                          0.6956336              18.9292
      -------------------------------------------------------------
                  HL-Gap            0.1383111 Eh            3.7636 eV
             Fermi-level           -0.3408046 Eh           -9.2738 eV

     #   Z          covCN         q      C6AA      α(0)
     1   6 C        2.837    -0.089    30.231     9.010
     2   6 C        2.884    -0.032    28.807     8.799
     3   6 C        3.704     0.076    19.447     6.305
     4   8 O        1.704    -0.269    18.452     5.800
     5   6 C        2.723     0.353    21.005     7.503
     6   8 O        0.856    -0.419    22.070     6.299
     7   6 C        2.973    -0.019    28.490     8.755
     8   6 C        2.921    -0.022    28.558     8.763
     9   6 C        2.919    -0.026    28.659     8.779
    10   6 C        2.920    -0.022    28.546     8.762
    11   6 C        2.918    -0.026    28.645     8.777
    12   6 C        2.925    -0.019    28.485     8.752
    13   1 H        0.926     0.046     2.376     2.410
    14   1 H        0.926     0.051     2.312     2.378
    15   1 H        0.925     0.054     2.271     2.356
    16   1 H        0.923     0.068     2.103     2.268
    17   1 H        0.924     0.058     2.218     2.329
    18   1 H        0.926     0.053     2.280     2.361
    19   1 H        0.926     0.040     2.447     2.446
    20   1 H        0.926     0.041     2.441     2.443
    21   1 H        0.926     0.042     2.420     2.433
    22   1 H        0.926     0.061     2.183     2.310

 Mol. C6AA /au·bohr⁶  :       5767.987910
 Mol. C8AA /au·bohr⁸  :     138195.897983
 Mol. α(0) /au        :        120.039126


Wiberg/Mayer (AO) data.
largest (>0.10) Wiberg bond orders for each atom

 ---------------------------------------------------------------------------
     #   Z sym  total        # sym  WBO       # sym  WBO       # sym  WBO
 ---------------------------------------------------------------------------
     1   6 C    3.989 --     2 C    1.985    14 H    0.976    13 H    0.974
     2   6 C    3.988 --     1 C    1.985     3 C    1.011    15 H    0.964
     3   6 C    3.928 --     2 C    1.011    17 H    0.968    16 H    0.950
                             4 O    0.936
     4   8 O    2.304 --     5 C    1.121     3 C    0.936     6 O    0.169
     5   6 C    3.917 --     6 O    1.721     4 O    1.121     7 C    1.001
     6   8 O    2.031 --     5 C    1.721     4 O    0.169
     7   6 C    3.987 --     8 C    1.389    12 C    1.388     5 C    1.001
                            10 C    0.103
     8   6 C    3.990 --     9 C    1.454     7 C    1.389    18 H    0.967
                            11 C    0.108
     9   6 C    3.992 --     8 C    1.454    10 C    1.433    19 H    0.970
                            12 C    0.108
    10   6 C    3.991 --    11 C    1.434     9 C    1.433    20 H    0.971
                             7 C    0.103
    11   6 C    3.991 --    12 C    1.453    10 C    1.434    21 H    0.970
                             8 C    0.108
    12   6 C    3.988 --    11 C    1.453     7 C    1.388    22 H    0.966
                             9 C    0.108
    13   1 H    0.998 --     1 C    0.974
    14   1 H    0.997 --     1 C    0.976
    15   1 H    0.997 --     2 C    0.964
    16   1 H    0.995 --     3 C    0.950
    17   1 H    0.996 --     3 C    0.968
    18   1 H    0.997 --     8 C    0.967
    19   1 H    0.998 --     9 C    0.970
    20   1 H    0.998 --    10 C    0.971
    21   1 H    0.998 --    11 C    0.970
    22   1 H    0.996 --    12 C    0.966
 ---------------------------------------------------------------------------

Topologies differ in total number of bonds
Writing topology from bond orders to xtbtopo.mol

molecular dipole:
                 x           y           z       tot (Debye)
 q only:       -0.228       0.417       0.675
   full:       -0.232       0.409       0.759       2.269
molecular quadrupole (traceless):
                xx          xy          yy          xz          yz          zz
 q only:       10.382       1.107      -4.906       2.277      -2.134      -5.477
  q+dip:       10.988       1.148      -6.514       3.635      -1.465      -4.474
   full:        9.857       0.973      -4.317       2.885      -3.148      -5.540

           -------------------------------------------------
          |                Geometry Summary                 |
           -------------------------------------------------

      molecular mass/u    :      162.1855763
   center of mass at/Å    :       -0.1538915      -0.1483663      -0.0371033
  moments of inertia/u·Å² :        0.1961650E+03   0.1107788E+04   0.1235393E+04
rotational constants/cm⁻¹ :        0.8593597E-01   0.1521738E-01   0.1364556E-01

 * 20 selected distances

     #   Z          #   Z                                           value/Å
     1   6 C        2   6 C                                       1.3186737
     3   6 C        4   8 O                                       1.4281328 (max)
     4   8 O        5   6 C                                       1.3407146
     5   6 C        6   8 O                                       1.2076469
     7   6 C        8   6 C                                       1.3922956
     8   6 C        9   6 C                                       1.3824471
     9   6 C       10   6 C                                       1.3861234
    10   6 C       11   6 C                                       1.3859918
     7   6 C       12   6 C                                       1.3929658
    11   6 C       12   6 C                                       1.3816140
     1   6 C       13   1 H                                       1.0777173
     1   6 C       14   1 H                                       1.0761006 (min)
     2   6 C       15   1 H                                       1.0814958
     3   6 C       16   1 H                                       1.0983007
     3   6 C       17   1 H                                       1.0920103
     8   6 C       18   1 H                                       1.0786435
     9   6 C       19   1 H                                       1.0800204
    10   6 C       20   1 H                                       1.0801871
    11   6 C       21   1 H                                       1.0798238
    12   6 C       22   1 H                                       1.0795518

 * 3 distinct bonds (by element types)

   Z      Z             #   av. dist./Å        max./Å        min./Å
   1 H    6 C          10     1.0823851     1.0983007     1.0761006
   6 C    6 C           7     1.3771588     1.3929658     1.3186737
   6 C    8 O           3     1.3254981     1.4281328     1.2076469


optimized geometry written to: xtbopt.xyz


           -------------------------------------------------
          | TOTAL ENERGY              -34.604758581649 Eh   |
          | GRADIENT NORM               0.000183592319 Eh/α |
          | HOMO-LUMO GAP               3.763637830814 eV   |
           -------------------------------------------------

------------------------------------------------------------------------
 * finished run on 2026/07/09 at 15:25:40.626     
------------------------------------------------------------------------
 total:
 * wall-time:     0 d,  0 h,  0 min, 13.707 sec
 *  cpu-time:     0 d,  0 h,  3 min, 37.786 sec
 * ratio c/w:    15.889 speedup
 SCF:
 * wall-time:     0 d,  0 h,  0 min,  0.232 sec
 *  cpu-time:     0 d,  0 h,  0 min,  3.705 sec
 * ratio c/w:    15.959 speedup
 ANC optimizer:
 * wall-time:     0 d,  0 h,  0 min, 13.338 sec
 *  cpu-time:     0 d,  0 h,  3 min, 32.261 sec
 * ratio c/w:    15.914 speedup

