22
 energy: -34.604758581649 gnorm: 0.000183592319 xtb: 6.7.1 (edcfbbe)
C            4.23277645485988        1.24990824851531        0.16274226406753
C            3.15835028386068        0.65105005389057       -0.31252328219093
C            2.51017270398380       -0.53983313068153        0.32384941858208
O            1.11584882713136       -0.31744834760396        0.53825285772770
C            0.28041345093974       -0.68244095786078       -0.44477485225403
O            0.64412750877142       -1.20342062171895       -1.47176221981749
C           -1.13611250158577       -0.38763670139110       -0.11834859066225
C           -1.50351248999054        0.24750352662931        1.06491000335945
C           -2.83817034013310        0.49899066164286        1.32298424650489
C           -3.80905083566165        0.12128810080686        0.40861591811476
C           -3.44665618452226       -0.50982448399407       -0.77093477350148
C           -2.11462500965864       -0.76377744231519       -1.03561890983928
H            4.71853391339534        0.91264131604530        1.06372227700083
H            4.67811191904298        2.09419538621026       -0.33409563296710
H            2.67523506595296        0.99606880960797       -1.21651150131674
H            2.62598906512194       -1.41399074335006       -0.33090179818484
H            2.93678973179233       -0.74733544762935        1.30742812504638
H           -0.74175499574290        0.53931164321543        1.77063308647387
H           -3.12459519544127        0.99164689909035        2.24042330710016
H           -4.85033797361199        0.31987914156774        0.61618936706877
H           -4.20417329500689       -0.80285424127972       -1.48249682839337
H           -1.80736010349905       -1.25392166939671       -1.94708955868540
