      -----------------------------------------------------------      
     |                   =====================                   |     
     |                           x T B                           |     
     |                   =====================                   |     
     |                         S. Grimme                         |     
     |          Mulliken Center for Theoretical Chemistry        |     
     |                    University of Bonn                     |     
      -----------------------------------------------------------      

   * xtb version 6.7.1 (edcfbbe) compiled by 'conda@5dfe00f5fb80' on 2026-06-10

   xtb is free software: you can redistribute it and/or modify it under
   the terms of the GNU Lesser General Public License as published by
   the Free Software Foundation, either version 3 of the License, or
   (at your option) any later version.
   
   xtb is distributed in the hope that it will be useful,
   but WITHOUT ANY WARRANTY; without even the implied warranty of
   MERCHANTABILITY or FITNESS FOR A PARTICULAR PURPOSE.  See the
   GNU Lesser General Public License for more details.
   
   Cite this work as:
   * C. Bannwarth, E. Caldeweyher, S. Ehlert, A. Hansen, P. Pracht,
     J. Seibert, S. Spicher, S. Grimme, WIREs Comput. Mol. Sci., 2020, 11,
     e01493. DOI: 10.1002/wcms.1493
   
   for GFN2-xTB:
   * C. Bannwarth, S. Ehlert and S. Grimme., J. Chem. Theory Comput., 2019,
     15, 1652-1671. DOI: 10.1021/acs.jctc.8b01176
   for GFN1-xTB:
   * S. Grimme, C. Bannwarth, P. Shushkov, J. Chem. Theory Comput., 2017,
     13, 1989-2009. DOI: 10.1021/acs.jctc.7b00118
   for GFN0-xTB:
   * P. Pracht, E. Caldeweyher, S. Ehlert, S. Grimme, ChemRxiv, 2019, preprint.
     DOI: 10.26434/chemrxiv.8326202.v1
   for GFN-FF:
   * S. Spicher and S. Grimme, Angew. Chem. Int. Ed., 2020, 59, 15665-15673.
     DOI: 10.1002/anie.202004239
   
   for ALPB and GBSA implicit solvation:
   * S. Ehlert, M. Stahn, S. Spicher, S. Grimme, J. Chem. Theory Comput.,
     2021, 17, 4250-4261. DOI: 10.1021/acs.jctc.1c00471
   
   for ddCOSMO and CPCM-X implicit solvation:
   * M. Stahn, S. Ehlert, S. Grimme, J. Phys. Chem. A,
     2023, XX, XXXX-XXXX. DOI: 10.1021/acs.jpca.3c04382
   
   for DFT-D4:
   * E. Caldeweyher, C. Bannwarth and S. Grimme, J. Chem. Phys., 2017,
     147, 034112. DOI: 10.1063/1.4993215
   * E. Caldeweyher, S. Ehlert, A. Hansen, H. Neugebauer, S. Spicher,
     C. Bannwarth and S. Grimme, J. Chem. Phys., 2019, 150, 154122.
     DOI: 10.1063/1.5090222
   * E. Caldeweyher, J.-M. Mewes, S. Ehlert and S. Grimme, Phys. Chem. Chem. Phys.
     2020, 22, 8499-8512. DOI: 10.1039/D0CP00502A
   
   for sTDA-xTB:
   * S. Grimme and C. Bannwarth, J. Chem. Phys., 2016, 145, 054103.
     DOI: 10.1063/1.4959605
   
   in the mass-spec context:
   * V. Asgeirsson, C. Bauer and S. Grimme, Chem. Sci., 2017, 8, 4879.
     DOI: 10.1039/c7sc00601b
   * J. Koopman and S. Grimme, ACS Omega 2019, 4, 12, 15120-15133.
     DOI: 10.1021/acsomega.9b02011
   
   for metadynamics refer to:
   * S. Grimme, J. Chem. Theory Comput., 2019, 155, 2847-2862
     DOI: 10.1021/acs.jctc.9b00143
   
   for SPH calculations refer to:
   * S. Spicher and S. Grimme, J. Chem. Theory Comput., 2021, 17, 1701-1714
     DOI: 10.1021/acs.jctc.0c01306
   
   for ONIOM refer to:
   * C. Plett, A. Katbashev, S. Ehlert, S. Grimme, M. Bursch,
     Phys. Chem. Chem. Phys., 2023, 25, 17860-17868. DOI: 10.1039/D3CP02178E
   
   for DIPRO refer to:
   * J. Kohn, N. Gildemeister, S. Grimme, D. Fazzi, A. Hansen,
     J. Chem. Phys., 2023, just accepted.
   
   for PTB refer to:
   * S. Grimme, M. Mueller, A. Hansen, J. Chem. Phys., 2023, 158, 124111.
     DOI: 10.1063/5.0137838
   
   with help from (in alphabetical order)
   P. Atkinson, C. Bannwarth, F. Bohle, G. Brandenburg, E. Caldeweyher
   M. Checinski, S. Dohm, S. Ehlert, S. Ehrlich, I. Gerasimov, C. Hölzer
   A. Katbashev, J. Kohn, J. Koopman, C. Lavigne, S. Lehtola, F. März, M. Müller,
   F. Musil, H. Neugebauer, J. Pisarek, C. Plett, P. Pracht, F. Pultar,
   J. Seibert, P. Shushkov, S. Spicher, M. Stahn, M. Steiner, T. Strunk,
   J. Stückrath, T. Rose, and J. Unsleber
   
 * started run on 2026/07/08 at 02:13:41.420     
   ID    Z sym.   atoms
    1    6 C      1-3, 5, 6, 8-13
    2    7 N      4
    3    8 O      7
    4    1 H      14-28

           -------------------------------------------------
          |                Calculation Setup                |
           -------------------------------------------------

          program call               : /home/ws/xd2484/miniforge3/envs/p3z_dft/bin/xtb xtb_input.xyz --gfn 2 --opt tight --cycles 500 --chrg 0 --uhf 0
          hostname                   : gpu10
          coordinate file            : xtb_input.xyz
          omp threads                :                    16


           -------------------------------------------------
          |                 G F N 2 - x T B                 |
           -------------------------------------------------

        Reference                      10.1021/acs.jctc.8b01176
      * Hamiltonian:
        H0-scaling (s, p, d)           1.850000    2.230000    2.230000
        zeta-weighting                 0.500000
      * Dispersion:
        s8                             2.700000
        a1                             0.520000
        a2                             5.000000
        s9                             5.000000
      * Repulsion:
        kExp                           1.500000    1.000000
        rExp                           1.000000
      * Coulomb:
        alpha                          2.000000
        third order                    shell-resolved
        anisotropic                    true
        a3                             3.000000
        a5                             4.000000
        cn-shift                       1.200000
        cn-exp                         4.000000
        max-rad                        5.000000


          ...................................................
          :                      SETUP                      :
          :.................................................:
          :  # basis functions                  67          :
          :  # atomic orbitals                  67          :
          :  # shells                           41          :
          :  # electrons                        70          :
          :  max. iterations                   250          :
          :  Hamiltonian                  GFN2-xTB          :
          :  restarted?                      false          :
          :  GBSA solvation                  false          :
          :  PC potential                    false          :
          :  electronic temp.          300.0000000     K    :
          :  accuracy                    1.0000000          :
          :  -> integral cutoff          0.2500000E+02      :
          :  -> integral neglect         0.1000000E-07      :
          :  -> SCF convergence          0.1000000E-05 Eh   :
          :  -> wf. convergence          0.1000000E-03 e    :
          :  Broyden damping             0.4000000          :
          :  net charge                          0          :
          :  unpaired electrons                  0          :
          ...................................................

 iter      E             dE          RMSdq      gap      omega  full diag
   1    -38.6784543 -0.386785E+02  0.399E+00    3.60       0.0  T
   2    -38.7461133 -0.676591E-01  0.229E+00    3.73       1.0  T
   3    -38.7462417 -0.128380E-03  0.113E+00    3.73       1.0  T
   4    -38.7514883 -0.524662E-02  0.289E-01    3.69       1.0  T
   5    -38.7529005 -0.141213E-02  0.885E-02    3.72       1.0  T
   6    -38.7529876 -0.871164E-04  0.432E-02    3.72       1.0  T
   7    -38.7529992 -0.115898E-04  0.186E-02    3.72       1.0  T
   8    -38.7530003 -0.114059E-05  0.531E-03    3.72       3.6  T
   9    -38.7530004 -0.100795E-06  0.160E-03    3.72      11.8  T
  10    -38.7530004 -0.211981E-07  0.895E-04    3.72      21.1  T
  11    -38.7530005 -0.357384E-08  0.352E-04    3.72      53.6  T

   *** convergence criteria satisfied after 11 iterations ***

         #    Occupation            Energy/Eh            Energy/eV
      -------------------------------------------------------------
         1        2.0000           -0.6889616             -18.7476
       ...           ...                  ...                  ...
        29        2.0000           -0.4417175             -12.0197
        30        2.0000           -0.4346423             -11.8272
        31        2.0000           -0.4317127             -11.7475
        32        2.0000           -0.4247640             -11.5584
        33        2.0000           -0.4118260             -11.2064
        34        2.0000           -0.3931944             -10.6994
        35        2.0000           -0.3794175             -10.3245 (HOMO)
        36                         -0.2426957              -6.6041 (LUMO)
        37                         -0.2363768              -6.4321
        38                         -0.2062385              -5.6120
        39                         -0.1070228              -2.9122
        40                         -0.0328470              -0.8938
       ...                                ...                  ...
        67                          0.6257576              17.0277
      -------------------------------------------------------------
                  HL-Gap            0.1367218 Eh            3.7204 eV
             Fermi-level           -0.3110566 Eh           -8.4643 eV

 SCC (total)                   0 d,  0 h,  0 min,  0.218 sec
 SCC setup                      ...        0 min,  0.010 sec (  4.524%)
 Dispersion                     ...        0 min,  0.021 sec (  9.480%)
 classical contributions        ...        0 min,  0.010 sec (  4.674%)
 integral evaluation            ...        0 min,  0.012 sec (  5.379%)
 iterations                     ...        0 min,  0.138 sec ( 63.325%)
 molecular gradient             ...        0 min,  0.027 sec ( 12.504%)
 printout                       ...        0 min,  0.000 sec (  0.098%)

         :::::::::::::::::::::::::::::::::::::::::::::::::::::
         ::                     SUMMARY                     ::
         :::::::::::::::::::::::::::::::::::::::::::::::::::::
         :: total energy             -38.199420428633 Eh    ::
         :: gradient norm              0.050108876359 Eh/a0 ::
         :: HOMO-LUMO gap              3.720388859747 eV    ::
         ::.................................................::
         :: SCC energy               -38.752846660921 Eh    ::
         :: -> isotropic ES            0.038718053751 Eh    ::
         :: -> anisotropic ES          0.006080312867 Eh    ::
         :: -> anisotropic XC          0.020200001280 Eh    ::
         :: -> dispersion             -0.024497328091 Eh    ::
         :: repulsion energy           0.553426232288 Eh    ::
         :: add. restraining           0.000000000000 Eh    ::
         :: total charge              -0.000000000000 e     ::
         :::::::::::::::::::::::::::::::::::::::::::::::::::::

      ----------------------------------------------------------- 
     |                   =====================                   |
     |                        A N C O P T                        |
     |                   =====================                   |
     |               Approximate Normal Coordinate               |
     |                Rational Function Optimizer                |
      ----------------------------------------------------------- 
      ----------------------------------------------------------- 
     |                   =====================                   |
     |                        A N C O P T                        |
     |                   =====================                   |
     |               Approximate Normal Coordinate               |
     |                Rational Function Optimizer                |
      ----------------------------------------------------------- 

          ...................................................
          :                      SETUP                      :
          :.................................................:
          :   optimization level             tight          :
          :   max. optcycles                   500          :
          :   ANC micro-cycles                  20          :
          :   degrees of freedom                78          :
          :.................................................:
          :   RF solver                   davidson          :
          :   write xtbopt.log                true          :
          :   linear?                        false          :
          :   energy convergence         0.1000000E-05 Eh   :
          :   grad. convergence          0.8000000E-03 Eh/α :
          :   maxmium RF displ.          1.0000000          :
          :   Hlow (freq-cutoff)         0.1000000E-01      :
          :   Hmax (freq-cutoff)         5.0000000          :
          :   S6 in model hess.         20.0000000          :
          ...................................................

generating ANC from exact Hessian ...
Using Lindh-Hessian (1995)
 Shifting diagonal of input Hessian by    8.7196834569878146E-003
 Lowest  eigenvalues of input Hessian
    0.000000    0.000000    0.000000    0.000000    0.000000    0.000000
    0.010000    0.010130    0.010773    0.010903    0.011687    0.014250
    0.017104    0.018939    0.019889    0.022379    0.022501    0.023427
 Highest eigenvalues
    1.662291    1.698522    1.850293    1.951584    1.973928    2.176285


........................................................................
.............................. CYCLE    1 ..............................
........................................................................

 iter      E             dE          RMSdq      gap      omega  full diag
   1    -38.7530005 -0.387530E+02  0.109E-04    3.72       0.0  T
   2    -38.7530005 -0.107370E-09  0.697E-05    3.72     271.3  T
   3    -38.7530005 -0.911555E-10  0.360E-05    3.72     524.7  T
     SCC iter.                  ...        0 min,  0.025 sec
     gradient                   ...        0 min,  0.022 sec
 * total energy  :   -38.1994204 Eh     change       -0.1126956E-08 Eh
   gradient norm :     0.0501143 Eh/α   predicted     0.0000000E+00 (-100.00%)
   displ. norm   :     0.2570079 α      lambda       -0.6699913E-02
   maximum displ.:     0.1055553 α      in ANC's #18, #44, #9, ...

........................................................................
.............................. CYCLE    2 ..............................
........................................................................

 iter      E             dE          RMSdq      gap      omega  full diag
   1    -38.7850412 -0.387850E+02  0.174E-01    3.78       0.0  T
   2    -38.7851129 -0.717321E-04  0.107E-01    3.79       1.0  T
   3    -38.7850982  0.147349E-04  0.465E-02    3.79       1.0  T
   4    -38.7851269 -0.286609E-04  0.961E-03    3.79       2.0  T
   5    -38.7851284 -0.150325E-05  0.354E-03    3.79       5.3  T
   6    -38.7851285 -0.113789E-06  0.186E-03    3.79      10.2  T
   7    -38.7851285 -0.170034E-07  0.613E-04    3.79      30.8  T
   8    -38.7851285 -0.917680E-09  0.227E-04    3.79      83.4  T
     SCC iter.                  ...        0 min,  0.069 sec
     gradient                   ...        0 min,  0.028 sec
 * total energy  :   -38.2037176 Eh     change       -0.4297136E-02 Eh
   gradient norm :     0.0144520 Eh/α   predicted    -0.3572231E-02 ( -16.87%)
   displ. norm   :     0.1985305 α      lambda       -0.1119247E-02
   maximum displ.:     0.0787230 α      in ANC's #6, #9, #11, ...

........................................................................
.............................. CYCLE    3 ..............................
........................................................................

 iter      E             dE          RMSdq      gap      omega  full diag
   1    -38.7963405 -0.387963E+02  0.892E-02    3.79       0.0  T
   2    -38.7963640 -0.235255E-04  0.567E-02    3.80       1.0  T
   3    -38.7963610  0.302781E-05  0.248E-02    3.80       1.0  T
   4    -38.7963675 -0.652138E-05  0.672E-03    3.80       2.8  T
   5    -38.7963686 -0.102210E-05  0.135E-03    3.80      14.0  T
   6    -38.7963686 -0.886908E-08  0.784E-04    3.80      24.1  T
   7    -38.7963686 -0.311083E-08  0.259E-04    3.80      72.9  T
     SCC iter.                  ...        0 min,  0.077 sec
     gradient                   ...        0 min,  0.033 sec
 * total energy  :   -38.2043818 Eh     change       -0.6642334E-03 Eh
   gradient norm :     0.0045837 Eh/α   predicted    -0.5819569E-03 ( -12.39%)
   displ. norm   :     0.1499929 α      lambda       -0.2379035E-03
   maximum displ.:     0.0875267 α      in ANC's #6, #1, #4, ...

........................................................................
.............................. CYCLE    4 ..............................
........................................................................

 iter      E             dE          RMSdq      gap      omega  full diag
   1    -38.7973742 -0.387974E+02  0.585E-02    3.80       0.0  T
   2    -38.7973779 -0.361562E-05  0.354E-02    3.80       1.0  T
   3    -38.7973771  0.790037E-06  0.781E-03    3.80       2.4  T
   4    -38.7973781 -0.100363E-05  0.261E-03    3.80       7.2  T
   5    -38.7973783 -0.195767E-06  0.763E-04    3.80      24.8  T
   6    -38.7973783 -0.680842E-09  0.242E-04    3.80      78.2  T
     SCC iter.                  ...        0 min,  0.068 sec
     gradient                   ...        0 min,  0.033 sec
 * total energy  :   -38.2045688 Eh     change       -0.1870502E-03 Eh
   gradient norm :     0.0028860 Eh/α   predicted    -0.1216288E-03 ( -34.98%)
   displ. norm   :     0.2846711 α      lambda       -0.3163082E-03
   maximum displ.:     0.1676838 α      in ANC's #6, #1, #4, ...

........................................................................
.............................. CYCLE    5 ..............................
........................................................................

 iter      E             dE          RMSdq      gap      omega  full diag
   1    -38.7961157 -0.387961E+02  0.107E-01    3.79       0.0  T
   2    -38.7961201 -0.446786E-05  0.636E-02    3.79       1.0  T
   3    -38.7961193  0.795421E-06  0.987E-03    3.79       1.9  T
   4    -38.7961208 -0.141596E-05  0.307E-03    3.79       6.1  T
   5    -38.7961209 -0.109515E-06  0.139E-03    3.79      13.6  T
   6    -38.7961209 -0.478325E-08  0.476E-04    3.79      39.7  T
   7    -38.7961209 -0.694001E-09  0.188E-04    3.79     100.6  T
     SCC iter.                  ...        0 min,  0.076 sec
     gradient                   ...        0 min,  0.029 sec
 * total energy  :   -38.2047861 Eh     change       -0.2172847E-03 Eh
   gradient norm :     0.0061299 Eh/α   predicted    -0.1709732E-03 ( -21.31%)
   displ. norm   :     0.2138639 α      lambda       -0.1657156E-03
   maximum displ.:     0.1230577 α      in ANC's #1, #6, #4, ...

........................................................................
.............................. CYCLE    6 ..............................
........................................................................

 iter      E             dE          RMSdq      gap      omega  full diag
   1    -38.7951547 -0.387952E+02  0.802E-02    3.80       0.0  T
   2    -38.7951567 -0.198231E-05  0.472E-02    3.80       1.0  T
   3    -38.7951542  0.245986E-05  0.124E-02    3.80       1.5  T
   4    -38.7951573 -0.306234E-05  0.178E-03    3.80      10.6  T
   5    -38.7951573 -0.260315E-07  0.812E-04    3.80      23.3  T
   6    -38.7951573 -0.902538E-09  0.401E-04    3.80      47.1  T
     SCC iter.                  ...        0 min,  0.068 sec
     gradient                   ...        0 min,  0.035 sec
 * total energy  :   -38.2049141 Eh     change       -0.1280150E-03 Eh
   gradient norm :     0.0064879 Eh/α   predicted    -0.8665359E-04 ( -32.31%)
   displ. norm   :     0.2154178 α      lambda       -0.1701669E-03
   maximum displ.:     0.1375860 α      in ANC's #1, #2, #6, ...

........................................................................
.............................. CYCLE    7 ..............................
........................................................................

 iter      E             dE          RMSdq      gap      omega  full diag
   1    -38.7953345 -0.387953E+02  0.789E-02    3.82       0.0  T
   2    -38.7953379 -0.340667E-05  0.462E-02    3.81       1.0  T
   3    -38.7953343  0.356616E-05  0.156E-02    3.81       1.2  T
   4    -38.7953388 -0.447115E-05  0.229E-03    3.81       8.3  T
   5    -38.7953389 -0.767270E-07  0.824E-04    3.81      22.9  T
   6    -38.7953389 -0.174724E-08  0.420E-04    3.81      45.0  T
     SCC iter.                  ...        0 min,  0.078 sec
     gradient                   ...        0 min,  0.038 sec
 * total energy  :   -38.2050402 Eh     change       -0.1260722E-03 Eh
   gradient norm :     0.0034970 Eh/α   predicted    -0.8903316E-04 ( -29.38%)
   displ. norm   :     0.2070835 α      lambda       -0.1060569E-03
   maximum displ.:     0.1378502 α      in ANC's #1, #2, #6, ...

........................................................................
.............................. CYCLE    8 ..............................
........................................................................

 iter      E             dE          RMSdq      gap      omega  full diag
   1    -38.7954882 -0.387955E+02  0.737E-02    3.83       0.0  T
   2    -38.7954906 -0.244192E-05  0.432E-02    3.82       1.0  T
   3    -38.7954888  0.183820E-05  0.119E-02    3.82       1.6  T
   4    -38.7954911 -0.229698E-05  0.187E-03    3.82      10.1  T
   5    -38.7954911 -0.426516E-07  0.637E-04    3.82      29.7  T
   6    -38.7954911 -0.402565E-09  0.295E-04    3.82      64.1  T
     SCC iter.                  ...        0 min,  0.086 sec
     gradient                   ...        0 min,  0.041 sec
 * total energy  :   -38.2051179 Eh     change       -0.7766389E-04 Eh
   gradient norm :     0.0018872 Eh/α   predicted    -0.5530307E-04 ( -28.79%)
   displ. norm   :     0.2257552 α      lambda       -0.6082999E-04
   maximum displ.:     0.1643457 α      in ANC's #1, #2, #5, ...

........................................................................
.............................. CYCLE    9 ..............................
........................................................................

 iter      E             dE          RMSdq      gap      omega  full diag
   1    -38.7971132 -0.387971E+02  0.767E-02    3.84       0.0  T
   2    -38.7971150 -0.182317E-05  0.447E-02    3.83       1.0  T
   3    -38.7971136  0.137262E-05  0.104E-02    3.83       1.8  T
   4    -38.7971154 -0.175374E-05  0.172E-03    3.83      11.0  T
   5    -38.7971154 -0.322344E-07  0.663E-04    3.83      28.5  T
   6    -38.7971154 -0.595662E-09  0.315E-04    3.83      60.0  T
     SCC iter.                  ...        0 min,  0.076 sec
     gradient                   ...        0 min,  0.036 sec
 * total energy  :   -38.2051742 Eh     change       -0.5633636E-04 Eh
   gradient norm :     0.0033286 Eh/α   predicted    -0.3110563E-04 ( -44.79%)
   displ. norm   :     0.0970533 α      lambda       -0.3279855E-04
   maximum displ.:     0.0706008 α      in ANC's #1, #2, #5, ...

........................................................................
.............................. CYCLE   10 ..............................
........................................................................

 iter      E             dE          RMSdq      gap      omega  full diag
   1    -38.7967883 -0.387968E+02  0.338E-02    3.83       0.0  T
   2    -38.7967892 -0.959466E-06  0.200E-02    3.83       1.0  T
   3    -38.7967890  0.182314E-06  0.420E-03    3.83       4.5  T
   4    -38.7967893 -0.251054E-06  0.110E-03    3.83      17.1  T
   5    -38.7967893 -0.269944E-07  0.358E-04    3.83      52.8  T
   6    -38.7967893 -0.664741E-09  0.166E-04    3.83     113.7  T
     SCC iter.                  ...        0 min,  0.064 sec
     gradient                   ...        0 min,  0.031 sec
 * total energy  :   -38.2051989 Eh     change       -0.2468247E-04 Eh
   gradient norm :     0.0019407 Eh/α   predicted    -0.1655424E-04 ( -32.93%)
   displ. norm   :     0.1195585 α      lambda       -0.2980097E-04
   maximum displ.:     0.0896401 α      in ANC's #1, #2, #3, ...

........................................................................
.............................. CYCLE   11 ..............................
........................................................................

 iter      E             dE          RMSdq      gap      omega  full diag
   1    -38.7974499 -0.387974E+02  0.407E-02    3.84       0.0  T
   2    -38.7974500 -0.175399E-06  0.239E-02    3.84       1.0  T
   3    -38.7974500 -0.181553E-07  0.142E-03    3.83      13.3  T
   4    -38.7974501 -0.286643E-07  0.636E-04    3.83      29.7  T
   5    -38.7974501 -0.251692E-08  0.291E-04    3.84      64.9  T
     SCC iter.                  ...        0 min,  0.060 sec
     gradient                   ...        0 min,  0.037 sec
 * total energy  :   -38.2052320 Eh     change       -0.3307095E-04 Eh
   gradient norm :     0.0012392 Eh/α   predicted    -0.1501065E-04 ( -54.61%)
   displ. norm   :     0.1094624 α      lambda       -0.2052521E-04
   maximum displ.:     0.0811124 α      in ANC's #1, #2, #3, ...

........................................................................
.............................. CYCLE   12 ..............................
........................................................................

 iter      E             dE          RMSdq      gap      omega  full diag
   1    -38.7970015 -0.387970E+02  0.378E-02    3.84       0.0  T
   2    -38.7970020 -0.517509E-06  0.222E-02    3.84       1.0  T
   3    -38.7970016  0.399725E-06  0.451E-03    3.84       4.2  T
   4    -38.7970021 -0.485062E-06  0.105E-03    3.84      18.0  T
   5    -38.7970021 -0.266542E-07  0.347E-04    3.84      54.4  T
   6    -38.7970021 -0.890594E-10  0.124E-04    3.84     152.3  T
     SCC iter.                  ...        0 min,  0.094 sec
     gradient                   ...        0 min,  0.046 sec
 * total energy  :   -38.2052544 Eh     change       -0.2247434E-04 Eh
   gradient norm :     0.0014510 Eh/α   predicted    -0.1032164E-04 ( -54.07%)
   displ. norm   :     0.1053606 α      lambda       -0.1588658E-04
   maximum displ.:     0.0736269 α      in ANC's #1, #2, #4, ...

........................................................................
.............................. CYCLE   13 ..............................
........................................................................

 iter      E             dE          RMSdq      gap      omega  full diag
   1    -38.7970880 -0.387971E+02  0.379E-02    3.84       0.0  T
   2    -38.7970883 -0.285123E-06  0.223E-02    3.84       1.0  T
   3    -38.7970880  0.303463E-06  0.382E-03    3.84       4.9  T
   4    -38.7970884 -0.390388E-06  0.778E-04    3.84      24.3  T
   5    -38.7970884 -0.578937E-08  0.349E-04    3.84      54.2  T
     SCC iter.                  ...        0 min,  0.082 sec
     gradient                   ...        0 min,  0.050 sec
 * total energy  :   -38.2052701 Eh     change       -0.1567283E-04 Eh
   gradient norm :     0.0014925 Eh/α   predicted    -0.7983549E-05 ( -49.06%)
   displ. norm   :     0.0833419 α      lambda       -0.1099429E-04
   maximum displ.:     0.0635600 α      in ANC's #1, #2, #4, ...

........................................................................
.............................. CYCLE   14 ..............................
........................................................................

 iter      E             dE          RMSdq      gap      omega  full diag
   1    -38.7968877 -0.387969E+02  0.318E-02    3.84       0.0  T
   2    -38.7968879 -0.196286E-06  0.186E-02    3.84       1.0  T
   3    -38.7968877  0.181324E-06  0.331E-03    3.84       5.7  T
   4    -38.7968879 -0.229653E-06  0.547E-04    3.84      34.5  T
   5    -38.7968879 -0.324930E-08  0.229E-04    3.84      82.6  T
     SCC iter.                  ...        0 min,  0.074 sec
     gradient                   ...        0 min,  0.041 sec
 * total energy  :   -38.2052825 Eh     change       -0.1235588E-04 Eh
   gradient norm :     0.0008917 Eh/α   predicted    -0.5517193E-05 ( -55.35%)
   displ. norm   :     0.0799710 α      lambda       -0.8855274E-05
   maximum displ.:     0.0622333 α      in ANC's #1, #2, #4, ...

........................................................................
.............................. CYCLE   15 ..............................
........................................................................

 iter      E             dE          RMSdq      gap      omega  full diag
   1    -38.7968313 -0.387968E+02  0.306E-02    3.84       0.0  T
   2    -38.7968315 -0.203538E-06  0.179E-02    3.84       1.1  T
   3    -38.7968314  0.114726E-06  0.290E-03    3.84       6.5  T
   4    -38.7968316 -0.148753E-06  0.546E-04    3.84      34.6  T
   5    -38.7968316 -0.374939E-08  0.181E-04    3.84     104.5  T
     SCC iter.                  ...        0 min,  0.083 sec
     gradient                   ...        0 min,  0.041 sec
 * total energy  :   -38.2052926 Eh     change       -0.1016317E-04 Eh
   gradient norm :     0.0007761 Eh/α   predicted    -0.4444281E-05 ( -56.27%)
   displ. norm   :     0.0719338 α      lambda       -0.6900409E-05
   maximum displ.:     0.0575207 α      in ANC's #1, #3, #2, ...

........................................................................
.............................. CYCLE   16 ..............................
........................................................................

 iter      E             dE          RMSdq      gap      omega  full diag
   1    -38.7970915 -0.387971E+02  0.273E-02    3.84       0.0  T
   2    -38.7970916 -0.150367E-06  0.160E-02    3.84       1.2  T
   3    -38.7970915  0.124364E-06  0.280E-03    3.84       6.8  T
   4    -38.7970917 -0.155422E-06  0.478E-04    3.84      39.5  T
   5    -38.7970917 -0.300899E-08  0.170E-04    3.84     111.2  T
     SCC iter.                  ...        0 min,  0.073 sec
     gradient                   ...        0 min,  0.040 sec
 * total energy  :   -38.2053002 Eh     change       -0.7556318E-05 Eh
   gradient norm :     0.0004661 Eh/α   predicted    -0.3459411E-05 ( -54.22%)
   displ. norm   :     0.0600328 α      lambda       -0.4580805E-05
   maximum displ.:     0.0499830 α      in ANC's #1, #3, #13, ...

........................................................................
.............................. CYCLE   17 ..............................
........................................................................

 iter      E             dE          RMSdq      gap      omega  full diag
   1    -38.7971918 -0.387972E+02  0.224E-02    3.84       0.0  T
   2    -38.7971920 -0.114661E-06  0.131E-02    3.84       1.4  T
   3    -38.7971918  0.113466E-06  0.257E-03    3.84       7.4  T
   4    -38.7971920 -0.139267E-06  0.390E-04    3.84      48.4  T
   5    -38.7971920 -0.193257E-08  0.142E-04    3.84     133.1  T
     SCC iter.                  ...        0 min,  0.060 sec
     gradient                   ...        0 min,  0.029 sec
 * total energy  :   -38.2053053 Eh     change       -0.5120311E-05 Eh
   gradient norm :     0.0006613 Eh/α   predicted    -0.2295170E-05 ( -55.18%)
   displ. norm   :     0.0464095 α      lambda       -0.3488938E-05
   maximum displ.:     0.0386372 α      in ANC's #1, #3, #4, ...

........................................................................
.............................. CYCLE   18 ..............................
........................................................................

 iter      E             dE          RMSdq      gap      omega  full diag
   1    -38.7972500 -0.387972E+02  0.165E-02    3.84       0.0  T
   2    -38.7972500 -0.482678E-07  0.970E-03    3.84       1.9  T
   3    -38.7972500  0.534377E-07  0.173E-03    3.84      10.9  T
   4    -38.7972501 -0.667986E-07  0.290E-04    3.84      65.1  T
   5    -38.7972501 -0.974289E-09  0.123E-04    3.84     153.7  T
     SCC iter.                  ...        0 min,  0.063 sec
     gradient                   ...        0 min,  0.036 sec
 * total energy  :   -38.2053096 Eh     change       -0.4286523E-05 Eh
   gradient norm :     0.0004871 Eh/α   predicted    -0.1751140E-05 ( -59.15%)
   displ. norm   :     0.0545471 α      lambda       -0.4152038E-05
   maximum displ.:     0.0428853 α      in ANC's #1, #4, #11, ...

........................................................................
.............................. CYCLE   19 ..............................
........................................................................

 iter      E             dE          RMSdq      gap      omega  full diag
   1    -38.7973525 -0.387974E+02  0.182E-02    3.84       0.0  T
   2    -38.7973525 -0.644547E-07  0.106E-02    3.84       1.8  T
   3    -38.7973524  0.964560E-07  0.221E-03    3.84       8.6  T
   4    -38.7973525 -0.117062E-06  0.337E-04    3.84      56.1  T
   5    -38.7973525 -0.169366E-08  0.142E-04    3.84     132.6  T
     SCC iter.                  ...        0 min,  0.075 sec
     gradient                   ...        0 min,  0.040 sec
 * total energy  :   -38.2053146 Eh     change       -0.4991198E-05 Eh
   gradient norm :     0.0004276 Eh/α   predicted    -0.2081999E-05 ( -58.29%)
   displ. norm   :     0.0682457 α      lambda       -0.4265381E-05
   maximum displ.:     0.0527996 α      in ANC's #1, #4, #6, ...

........................................................................
.............................. CYCLE   20 ..............................
........................................................................

 iter      E             dE          RMSdq      gap      omega  full diag
   1    -38.7973338 -0.387973E+02  0.206E-02    3.84       0.0  T
   2    -38.7973339 -0.814980E-07  0.121E-02    3.84       1.6  T
   3    -38.7973338  0.110389E-06  0.238E-03    3.84       7.9  T
   4    -38.7973340 -0.135797E-06  0.380E-04    3.84      49.7  T
   5    -38.7973340 -0.158131E-08  0.173E-04    3.84     109.3  T
     SCC iter.                  ...        0 min,  0.069 sec
     gradient                   ...        0 min,  0.036 sec
 * total energy  :   -38.2053193 Eh     change       -0.4741086E-05 Eh
   gradient norm :     0.0004251 Eh/α   predicted    -0.2141320E-05 ( -54.83%)
   displ. norm   :     0.0549554 α      lambda       -0.2470613E-05
   maximum displ.:     0.0430461 α      in ANC's #1, #6, #4, ...
 * RMSD in coord.:     0.3903643 α      energy gain  -0.5898908E-02 Eh

generating ANC from exact Hessian ...
Using Lindh-Hessian (1995)
 Shifting diagonal of input Hessian by    8.5525470461107998E-003
 Lowest  eigenvalues of input Hessian
    0.000000    0.000000    0.000000    0.000000    0.000000    0.000000
    0.010000    0.010081    0.010776    0.011035    0.011635    0.014671
    0.017725    0.019095    0.019877    0.022721    0.024060    0.024681
 Highest eigenvalues
    1.742430    1.818802    1.915374    2.025169    2.065549    2.316525


........................................................................
.............................. CYCLE   21 ..............................
........................................................................

 iter      E             dE          RMSdq      gap      omega  full diag
   1    -38.7971956 -0.387972E+02  0.156E-02    3.84       0.0  T
   2    -38.7971956 -0.369817E-07  0.910E-03    3.84       2.1  T
   3    -38.7971956  0.508492E-07  0.180E-03    3.84      10.5  T
   4    -38.7971957 -0.638343E-07  0.259E-04    3.84      73.0  T
   5    -38.7971957 -0.429011E-09  0.128E-04    3.84     148.0  T
     SCC iter.                  ...        0 min,  0.072 sec
     gradient                   ...        0 min,  0.037 sec
 * total energy  :   -38.2053217 Eh     change       -0.2399990E-05 Eh
   gradient norm :     0.0004694 Eh/α   predicted     0.0000000E+00 (-100.00%)
   displ. norm   :     0.0082349 α      lambda       -0.6100896E-06
   maximum displ.:     0.0040016 α      in ANC's #1, #5, #3, ...

........................................................................
.............................. CYCLE   22 ..............................
........................................................................

 iter      E             dE          RMSdq      gap      omega  full diag
   1    -38.7972703 -0.387973E+02  0.317E-03    3.84       0.0  T
   2    -38.7972703 -0.440472E-08  0.189E-03    3.84      10.0  T
   3    -38.7972703  0.126532E-08  0.279E-04    3.84      67.7  T
   4    -38.7972703 -0.165799E-08  0.806E-05    3.84     234.4  T
     SCC iter.                  ...        0 min,  0.051 sec
     gradient                   ...        0 min,  0.035 sec
 * total energy  :   -38.2053223 Eh     change       -0.6089472E-06 Eh
   gradient norm :     0.0001694 Eh/α   predicted    -0.3443527E-06 ( -43.45%)
   displ. norm   :     0.0137334 α      lambda       -0.5235257E-06
   maximum displ.:     0.0075092 α      in ANC's #5, #1, #3, ...

   *** GEOMETRY OPTIMIZATION CONVERGED AFTER 22 ITERATIONS ***

------------------------------------------------------------------------
 total energy gain   :        -0.0059019 Eh       -3.7035 kcal/mol
 total RMSD          :         0.3907773 a0        0.2068 Å
 total power (kW/mol):        -0.7043400 (step)   -5.0323 (real)
------------------------------------------------------------------------

 ANCopt (total)                0 d,  0 h,  0 min,  3.079 sec
 optimizer setup                ...        0 min,  0.001 sec (  0.023%)
 model hessian                  ...        0 min,  0.024 sec (  0.768%)
 ANC generation                 ...        0 min,  0.002 sec (  0.077%)
 coordinate transformation      ...        0 min,  0.000 sec (  0.009%)
 single point calculation       ...        0 min,  2.961 sec ( 96.144%)
 optimization log               ...        0 min,  0.003 sec (  0.099%)
 hessian update                 ...        0 min,  0.082 sec (  2.674%)
 rational function              ...        0 min,  0.002 sec (  0.071%)

================
 final structure:
================
28
 xtb: 6.7.1 (edcfbbe)
C            3.36421624498330       -1.49808620707801        1.03904020538665
C            2.37691022276837       -0.84679232629664        0.08017909985840
C            1.38042653714793        0.03450075476116        0.83572378348461
N            0.37532253351466        0.62696744771993       -0.03871281536808
C            0.78159393779519        1.63908339922354       -0.85888282647757
C           -0.20421163837726        2.12158352388959       -1.90050381232009
O            1.90517911947959        2.09452173351561       -0.78176506955872
C           -0.94721107280814        0.15169923798288        0.06115570019342
C           -2.00168884688733        1.03264641569995        0.28923516313608
C           -3.29427189995116        0.55766528738219        0.41029367756305
C           -3.55155245038350       -0.80014240931605        0.32277243696854
C           -2.50439137376038       -1.68260368711436        0.11969152486747
C           -1.21006038505430       -1.21371620073473       -0.01020426584981
H            4.07497736219142       -2.11204082987391        0.49174414201586
H            3.91696663536267       -0.73908954848311        1.58717085158779
H            2.84412610454942       -2.13017097973075        1.75657077379689
H            2.91319094354920       -0.22409441439123       -0.63646426363492
H            1.84179910090104       -1.61826667051100       -0.47801829075323
H            1.92946657976280        0.85252458397751        1.31292792199758
H            0.86286723150858       -0.54222979445958        1.60514148830632
H           -0.71382222968217        3.01410431607482       -1.54395016480117
H           -0.94006144698920        1.36350975551978       -2.15132480873117
H            0.36150520850152        2.39899202522190       -2.78713545507146
H           -1.80109534062554        2.08834162503093        0.38618641537864
H           -4.10300910107893        1.25141375969516        0.58597159653069
H           -4.56127835160629       -1.16898882205816        0.42003508175501
H           -2.69559947589490       -2.74368860593917        0.05684380929812
H           -0.40029414891769       -1.90764336970572       -0.17372189955459

 Bond Distances (Angstroems)
 ---------------------------
C1-C2=1.5226         C1-H14=1.0870        C1-H15=1.0872        C1-H16=1.0885        C2-C1=1.5226         C2-C3=1.5299         
C2-H17=1.0904        C2-H18=1.0923        C3-C2=1.5299         C3-N4=1.4580         C3-H19=1.0947        C3-H20=1.0920        
N4-C3=1.4580         N4-C5=1.3646         N4-C8=1.4089         C5-N4=1.3646         C5-C6=1.5131         C5-O7=1.2148         
C6-C5=1.5131         C6-H21=1.0879        C6-H22=1.0858        C6-H23=1.0877        O7-C5=1.2148         C8-N4=1.4089         
C8-C9=1.3928         C8-C13=1.3923        C9-C8=1.3928         C9-C10=1.3824        C9-H24=1.0789        C10-C9=1.3824        
C10-C11=1.3847       C10-H25=1.0799       C11-C10=1.3847       C11-C12=1.3844       C11-H26=1.0794       C12-C11=1.3844       
C12-C13=1.3828       C12-H27=1.0800       C13-C8=1.3923        C13-C12=1.3828       C13-H28=1.0789       H14-C1=1.0870        
H15-C1=1.0872        H16-C1=1.0885        H17-C2=1.0904        H18-C2=1.0923        H19-C3=1.0947        H20-C3=1.0920        
H21-C6=1.0879        H22-C6=1.0858        H23-C6=1.0877        H24-C9=1.0789        H25-C10=1.0799       H26-C11=1.0794       
H27-C12=1.0800       H28-C13=1.0789       
 C  H  Rav=1.0860 sigma=0.0052  Rmin=1.0789  Rmax=1.0947    15
 C  C  Rav=1.4317 sigma=0.0640  Rmin=1.3824  Rmax=1.5299     9
 N  C  Rav=1.4105 sigma=0.0382  Rmin=1.3646  Rmax=1.4580     3
 O  C  Rav=1.2148 sigma=0.0000  Rmin=1.2148  Rmax=1.2148     1

 selected bond angles (degree)
 --------------------
H14-C1-C2=110.40               H15-C1-C2=110.40               H15-C1-H14=108.40              H16-C1-C2=110.71               
H16-C1-H14=108.44              H16-C1-H15=108.42              C3-C2-C1=110.96                H17-C2-C1=109.83               
H17-C2-C3=108.42               H18-C2-C1=109.72               H18-C2-C3=109.89               H18-C2-H17=107.96              
N4-C3-C2=112.76                H19-C3-C2=108.61               H19-C3-N4=107.67               H20-C3-C2=110.64               
H20-C3-N4=108.09               H20-C3-H19=108.98              C5-N4-C3=117.17                C8-N4-C3=117.87                
C8-N4-C5=124.91                C6-C5-N4=117.15                O7-C5-N4=121.02                O7-C5-C6=121.78                
H21-C6-C5=109.95               H22-C6-C5=112.20               H22-C6-H21=109.33              H23-C6-C5=107.67               
H23-C6-H21=107.55              H23-C6-H22=110.01              C9-C8-N4=120.59                C13-C8-N4=120.29               
C13-C8-C9=119.06               C10-C9-C8=120.33               H24-C9-C8=119.53               H24-C9-C10=120.14              
C11-C10-C9=120.34              H25-C10-C9=119.59              H25-C10-C11=120.07             

 selected dihedral angles (degree)
 ---------------------------------
C3-C2-C1-H14=180.69           C3-C2-C1-H15=300.53           C3-C2-C1-H16= 60.60           H17-C2-C1-H14=300.55          
H17-C2-C1-H15= 60.39          H17-C2-C1-H16=180.46          H18-C2-C1-H14= 59.08          H18-C2-C1-H15=178.92          
H18-C2-C1-H16=298.98          N4-C3-C2-C1=182.79            N4-C3-C2-H17= 62.10           N4-C3-C2-H18=304.31           
H19-C3-C2-C1= 63.55           H19-C3-C2-H17=302.85          H19-C3-C2-H18=185.06          H20-C3-C2-C1=303.98           
H20-C3-C2-H17=183.28          H20-C3-C2-H18= 65.49          C5-N4-C3-C2=287.02            C5-N4-C3-H19= 46.81           
C5-N4-C3-H20=164.40           C8-N4-C3-C2=109.44            C8-N4-C3-H19=229.22           C8-N4-C3-H20=346.81           
C6-C5-N4-C3=171.61            C6-C5-N4-C8=349.01            O7-C5-N4-C3=354.21            O7-C5-N4-C8=171.61            
H21-C6-C5-N4= 98.00           H21-C6-C5-O7=275.37           H22-C6-C5-N4=336.09           H22-C6-C5-O7=153.47           
H23-C6-C5-N4=214.89           H23-C6-C5-O7= 32.27           C9-C8-N4-C3=125.58            C9-C8-N4-C5=308.20            
C13-C8-N4-C3=308.33           C13-C8-N4-C5=130.95           C10-C9-C8-N4=181.17           C10-C9-C8-C13=358.45          
H24-C9-C8-N4=  0.23           H24-C9-C8-C13=177.51          C11-C10-C9-C8=  0.81          C11-C10-C9-H24=181.76         
H25-C10-C9-C8=180.07          H25-C10-C9-H24=  1.01         
           -------------------------------------------------
          |                Final Singlepoint                |
           -------------------------------------------------

          ...................................................
          :                      SETUP                      :
          :.................................................:
          :  # basis functions                  67          :
          :  # atomic orbitals                  67          :
          :  # shells                           41          :
          :  # electrons                        70          :
          :  max. iterations                   250          :
          :  Hamiltonian                  GFN2-xTB          :
          :  restarted?                      false          :
          :  GBSA solvation                  false          :
          :  PC potential                    false          :
          :  electronic temp.          300.0000000     K    :
          :  accuracy                    1.0000000          :
          :  -> integral cutoff          0.2500000E+02      :
          :  -> integral neglect         0.1000000E-07      :
          :  -> SCF convergence          0.1000000E-05 Eh   :
          :  -> wf. convergence          0.1000000E-03 e    :
          :  Broyden damping             0.4000000          :
          :  net charge                          0          :
          :  unpaired electrons                  0          :
          ...................................................

 iter      E             dE          RMSdq      gap      omega  full diag
   1    -38.7972703 -0.387973E+02  0.312E-05    3.84       0.0  T
   2    -38.7972703 -0.445510E-11  0.189E-05    3.84    1001.3  T
   3    -38.7972703 -0.239453E-11  0.114E-05    3.84    1659.8  T

   *** convergence criteria satisfied after 3 iterations ***

         #    Occupation            Energy/Eh            Energy/eV
      -------------------------------------------------------------
         1        2.0000           -0.6915010             -18.8167
       ...           ...                  ...                  ...
        29        2.0000           -0.4433254             -12.0635
        30        2.0000           -0.4365861             -11.8801
        31        2.0000           -0.4312307             -11.7344
        32        2.0000           -0.4209698             -11.4552
        33        2.0000           -0.4168665             -11.3435
        34        2.0000           -0.3905581             -10.6276
        35        2.0000           -0.3808281             -10.3629 (HOMO)
        36                         -0.2396897              -6.5223 (LUMO)
        37                         -0.2350908              -6.3971
        38                         -0.1972728              -5.3681
        39                         -0.1044289              -2.8417
        40                         -0.0081387              -0.2215
       ...                                ...                  ...
        67                          0.6628196              18.0362
      -------------------------------------------------------------
                  HL-Gap            0.1411383 Eh            3.8406 eV
             Fermi-level           -0.3102589 Eh           -8.4426 eV

 SCC (total)                   0 d,  0 h,  0 min,  0.112 sec
 SCC setup                      ...        0 min,  0.005 sec (  4.024%)
 Dispersion                     ...        0 min,  0.009 sec (  7.710%)
 classical contributions        ...        0 min,  0.004 sec (  3.939%)
 integral evaluation            ...        0 min,  0.012 sec ( 10.470%)
 iterations                     ...        0 min,  0.040 sec ( 36.137%)
 molecular gradient             ...        0 min,  0.042 sec ( 37.567%)
 printout                       ...        0 min,  0.000 sec (  0.128%)

         :::::::::::::::::::::::::::::::::::::::::::::::::::::
         ::                     SUMMARY                     ::
         :::::::::::::::::::::::::::::::::::::::::::::::::::::
         :: total energy             -38.205322345370 Eh    ::
         :: gradient norm              0.000169266294 Eh/a0 ::
         :: HOMO-LUMO gap              3.840569761528 eV    ::
         ::.................................................::
         :: SCC energy               -38.797102803233 Eh    ::
         :: -> isotropic ES            0.039271839946 Eh    ::
         :: -> anisotropic ES          0.005394270285 Eh    ::
         :: -> anisotropic XC          0.019209039433 Eh    ::
         :: -> dispersion             -0.024899264823 Eh    ::
         :: repulsion energy           0.591780457863 Eh    ::
         :: add. restraining           0.000000000000 Eh    ::
         :: total charge              -0.000000000000 e     ::
         :::::::::::::::::::::::::::::::::::::::::::::::::::::

           -------------------------------------------------
          |                Property Printout                |
           -------------------------------------------------

    * Orbital Energies and Occupations

         #    Occupation            Energy/Eh            Energy/eV
      -------------------------------------------------------------
         1        2.0000           -0.6915010             -18.8167
       ...           ...                  ...                  ...
        23        2.0000           -0.4863060             -13.2331
        24        2.0000           -0.4758377             -12.9482
        25        2.0000           -0.4699158             -12.7871
        26        2.0000           -0.4656494             -12.6710
        27        2.0000           -0.4608970             -12.5416
        28        2.0000           -0.4521187             -12.3028
        29        2.0000           -0.4433254             -12.0635
        30        2.0000           -0.4365861             -11.8801
        31        2.0000           -0.4312307             -11.7344
        32        2.0000           -0.4209698             -11.4552
        33        2.0000           -0.4168665             -11.3435
        34        2.0000           -0.3905581             -10.6276
        35        2.0000           -0.3808281             -10.3629 (HOMO)
        36                         -0.2396897              -6.5223 (LUMO)
        37                         -0.2350908              -6.3971
        38                         -0.1972728              -5.3681
        39                         -0.1044289              -2.8417
        40                         -0.0081387              -0.2215
        41                          0.0856022               2.3294
        42                          0.1018368               2.7711
        43                          0.1099475               2.9918
        44                          0.1194367               3.2500
        45                          0.1375424               3.7427
        46                          0.1416337               3.8541
       ...                                ...                  ...
        67                          0.6628196              18.0362
      -------------------------------------------------------------
                  HL-Gap            0.1411383 Eh            3.8406 eV
             Fermi-level           -0.3102589 Eh           -8.4426 eV

     #   Z          covCN         q      C6AA      α(0)
     1   6 C        3.753    -0.105    22.569     6.774
     2   6 C        3.800    -0.057    21.603     6.618
     3   6 C        3.755     0.006    20.531     6.461
     4   7 N        2.740    -0.103    23.261     7.163
     5   6 C        2.763     0.272    22.397     7.750
     6   6 C        3.754    -0.136    23.173     6.864
     7   8 O        0.859    -0.437    22.426     6.349
     8   6 C        2.915     0.065    26.554     8.450
     9   6 C        2.923    -0.044    29.105     8.847
    10   6 C        2.920    -0.028    28.702     8.786
    11   6 C        2.919    -0.034    28.841     8.807
    12   6 C        2.920    -0.029    28.717     8.788
    13   6 C        2.923    -0.045    29.112     8.848
    14   1 H        0.925     0.041     2.438     2.442
    15   1 H        0.925     0.041     2.437     2.441
    16   1 H        0.925     0.033     2.538     2.491
    17   1 H        0.924     0.056     2.246     2.344
    18   1 H        0.924     0.031     2.579     2.512
    19   1 H        0.924     0.063     2.159     2.298
    20   1 H        0.924     0.041     2.439     2.442
    21   1 H        0.925     0.062     2.173     2.305
    22   1 H        0.925     0.046     2.368     2.406
    23   1 H        0.925     0.068     2.103     2.268
    24   1 H        0.926     0.040     2.450     2.448
    25   1 H        0.926     0.037     2.484     2.465
    26   1 H        0.926     0.036     2.503     2.474
    27   1 H        0.926     0.037     2.491     2.468
    28   1 H        0.926     0.042     2.424     2.435

 Mol. C6AA /au·bohr⁶  :       7757.447700
 Mol. C8AA /au·bohr⁸  :     178296.481387
 Mol. α(0) /au        :        136.742555


Wiberg/Mayer (AO) data.
largest (>0.10) Wiberg bond orders for each atom

 ---------------------------------------------------------------------------
     #   Z sym  total        # sym  WBO       # sym  WBO       # sym  WBO
 ---------------------------------------------------------------------------
     1   6 C    3.996 --     2 C    1.018    16 H    0.988    15 H    0.987
                            14 H    0.987
     2   6 C    3.995 --     1 C    1.018     3 C    0.998    18 H    0.975
                            17 H    0.975
     3   6 C    3.967 --     2 C    0.998    20 H    0.974     4 N    0.968
                            19 H    0.965
     4   7 N    3.506 --     5 C    1.205     8 C    1.035     3 C    0.968
                             7 O    0.174
     5   6 C    3.950 --     7 O    1.690     4 N    1.205     6 C    0.985
     6   6 C    3.995 --     5 C    0.985    22 H    0.981    23 H    0.976
                            21 H    0.963
     7   8 O    1.999 --     5 C    1.690     4 N    0.174
     8   6 C    3.968 --    13 C    1.385     9 C    1.381     4 N    1.035
                            11 C    0.103
     9   6 C    3.991 --    10 C    1.451     8 C    1.381    24 H    0.968
                            12 C    0.108
    10   6 C    3.992 --     9 C    1.451    11 C    1.434    25 H    0.970
                            13 C    0.108
    11   6 C    3.986 --    12 C    1.436    10 C    1.434    26 H    0.971
                             8 C    0.103
    12   6 C    3.992 --    13 C    1.449    11 C    1.436    27 H    0.971
                             9 C    0.108
    13   6 C    3.991 --    12 C    1.449     8 C    1.385    28 H    0.966
                            10 C    0.108
    14   1 H    0.998 --     1 C    0.987
    15   1 H    0.998 --     1 C    0.987
    16   1 H    0.999 --     1 C    0.988
    17   1 H    0.997 --     2 C    0.975
    18   1 H    0.999 --     2 C    0.975
    19   1 H    0.995 --     3 C    0.965
    20   1 H    0.998 --     3 C    0.974
    21   1 H    0.996 --     6 C    0.963
    22   1 H    0.998 --     6 C    0.981
    23   1 H    0.995 --     6 C    0.976
    24   1 H    0.998 --     9 C    0.968
    25   1 H    0.998 --    10 C    0.970
    26   1 H    0.999 --    11 C    0.971
    27   1 H    0.998 --    12 C    0.971
    28   1 H    0.998 --    13 C    0.966
 ---------------------------------------------------------------------------

Topologies differ in total number of bonds
Writing topology from bond orders to xtbtopo.mol

molecular dipole:
                 x           y           z       tot (Debye)
 q only:       -0.972      -0.818       0.245
   full:       -1.188      -0.847       0.235       3.757
molecular quadrupole (traceless):
                xx          xy          yy          xz          yz          zz
 q only:       -0.218      -8.336      -1.992       3.454       0.340       2.209
  q+dip:       -0.818      -9.048       0.903       2.524       1.251      -0.085
   full:       -1.843      -9.683      -0.617       3.172       1.108       2.461

           -------------------------------------------------
          |                Geometry Summary                 |
           -------------------------------------------------

      molecular mass/u    :      177.2433143
   center of mass at/Å    :       -0.1720163       0.1918411      -0.0448447
  moments of inertia/u·Å² :        0.4277142E+03   0.8854698E+03   0.1207207E+04
rotational constants/cm⁻¹ :        0.3941331E-01   0.1903807E-01   0.1396416E-01

 * 27 selected distances

     #   Z          #   Z                                           value/Å
     1   6 C        2   6 C                                       1.5226201
     2   6 C        3   6 C                                       1.5298711 (max)
     3   6 C        4   7 N                                       1.4580434
     4   7 N        5   6 C                                       1.3645931
     5   6 C        7   8 O                                       1.2148313
     4   7 N        8   6 C                                       1.4088822
     8   6 C        9   6 C                                       1.3928431
     9   6 C       10   6 C                                       1.3824014
    10   6 C       11   6 C                                       1.3847366
    11   6 C       12   6 C                                       1.3843867
     8   6 C       13   6 C                                       1.3923152
    12   6 C       13   6 C                                       1.3827586
     1   6 C       14   1 H                                       1.0870395
     1   6 C       15   1 H                                       1.0872241
     1   6 C       16   1 H                                       1.0885198
     2   6 C       17   1 H                                       1.0903796
     2   6 C       18   1 H                                       1.0922917
     3   6 C       19   1 H                                       1.0946835
     3   6 C       20   1 H                                       1.0920117
     6   6 C       21   1 H                                       1.0878543
     6   6 C       22   1 H                                       1.0858463
     6   6 C       23   1 H                                       1.0877072
     9   6 C       24   1 H                                       1.0789485
    10   6 C       25   1 H                                       1.0799101
    11   6 C       26   1 H                                       1.0793768
    12   6 C       27   1 H                                       1.0800055
    13   6 C       28   1 H                                       1.0788858 (min)

 * 4 distinct bonds (by element types)

   Z      Z             #   av. dist./Å        max./Å        min./Å
   1 H    6 C          15     1.0860456     1.0946835     1.0788858
   6 C    6 C           8     1.4214916     1.5298711     1.3824014
   6 C    7 N           3     1.4105062     1.4580434     1.3645931
   6 C    8 O           1     1.2148313     1.2148313     1.2148313


optimized geometry written to: xtbopt.xyz


           -------------------------------------------------
          | TOTAL ENERGY              -38.205322345370 Eh   |
          | GRADIENT NORM               0.000169266294 Eh/α |
          | HOMO-LUMO GAP               3.840569761528 eV   |
           -------------------------------------------------

------------------------------------------------------------------------
 * finished run on 2026/07/08 at 02:13:44.937     
------------------------------------------------------------------------
 total:
 * wall-time:     0 d,  0 h,  0 min,  3.517 sec
 *  cpu-time:     0 d,  0 h,  0 min, 56.099 sec
 * ratio c/w:    15.951 speedup
 SCF:
 * wall-time:     0 d,  0 h,  0 min,  0.218 sec
 *  cpu-time:     0 d,  0 h,  0 min,  3.423 sec
 * ratio c/w:    15.715 speedup
 ANC optimizer:
 * wall-time:     0 d,  0 h,  0 min,  3.200 sec
 *  cpu-time:     0 d,  0 h,  0 min, 51.117 sec
 * ratio c/w:    15.975 speedup

