      -----------------------------------------------------------      
     |                   =====================                   |     
     |                           x T B                           |     
     |                   =====================                   |     
     |                         S. Grimme                         |     
     |          Mulliken Center for Theoretical Chemistry        |     
     |                    University of Bonn                     |     
      -----------------------------------------------------------      

   * xtb version 6.7.1 (edcfbbe) compiled by 'conda@5dfe00f5fb80' on 2026-06-10

   xtb is free software: you can redistribute it and/or modify it under
   the terms of the GNU Lesser General Public License as published by
   the Free Software Foundation, either version 3 of the License, or
   (at your option) any later version.
   
   xtb is distributed in the hope that it will be useful,
   but WITHOUT ANY WARRANTY; without even the implied warranty of
   MERCHANTABILITY or FITNESS FOR A PARTICULAR PURPOSE.  See the
   GNU Lesser General Public License for more details.
   
   Cite this work as:
   * C. Bannwarth, E. Caldeweyher, S. Ehlert, A. Hansen, P. Pracht,
     J. Seibert, S. Spicher, S. Grimme, WIREs Comput. Mol. Sci., 2020, 11,
     e01493. DOI: 10.1002/wcms.1493
   
   for GFN2-xTB:
   * C. Bannwarth, S. Ehlert and S. Grimme., J. Chem. Theory Comput., 2019,
     15, 1652-1671. DOI: 10.1021/acs.jctc.8b01176
   for GFN1-xTB:
   * S. Grimme, C. Bannwarth, P. Shushkov, J. Chem. Theory Comput., 2017,
     13, 1989-2009. DOI: 10.1021/acs.jctc.7b00118
   for GFN0-xTB:
   * P. Pracht, E. Caldeweyher, S. Ehlert, S. Grimme, ChemRxiv, 2019, preprint.
     DOI: 10.26434/chemrxiv.8326202.v1
   for GFN-FF:
   * S. Spicher and S. Grimme, Angew. Chem. Int. Ed., 2020, 59, 15665-15673.
     DOI: 10.1002/anie.202004239
   
   for ALPB and GBSA implicit solvation:
   * S. Ehlert, M. Stahn, S. Spicher, S. Grimme, J. Chem. Theory Comput.,
     2021, 17, 4250-4261. DOI: 10.1021/acs.jctc.1c00471
   
   for ddCOSMO and CPCM-X implicit solvation:
   * M. Stahn, S. Ehlert, S. Grimme, J. Phys. Chem. A,
     2023, XX, XXXX-XXXX. DOI: 10.1021/acs.jpca.3c04382
   
   for DFT-D4:
   * E. Caldeweyher, C. Bannwarth and S. Grimme, J. Chem. Phys., 2017,
     147, 034112. DOI: 10.1063/1.4993215
   * E. Caldeweyher, S. Ehlert, A. Hansen, H. Neugebauer, S. Spicher,
     C. Bannwarth and S. Grimme, J. Chem. Phys., 2019, 150, 154122.
     DOI: 10.1063/1.5090222
   * E. Caldeweyher, J.-M. Mewes, S. Ehlert and S. Grimme, Phys. Chem. Chem. Phys.
     2020, 22, 8499-8512. DOI: 10.1039/D0CP00502A
   
   for sTDA-xTB:
   * S. Grimme and C. Bannwarth, J. Chem. Phys., 2016, 145, 054103.
     DOI: 10.1063/1.4959605
   
   in the mass-spec context:
   * V. Asgeirsson, C. Bauer and S. Grimme, Chem. Sci., 2017, 8, 4879.
     DOI: 10.1039/c7sc00601b
   * J. Koopman and S. Grimme, ACS Omega 2019, 4, 12, 15120-15133.
     DOI: 10.1021/acsomega.9b02011
   
   for metadynamics refer to:
   * S. Grimme, J. Chem. Theory Comput., 2019, 155, 2847-2862
     DOI: 10.1021/acs.jctc.9b00143
   
   for SPH calculations refer to:
   * S. Spicher and S. Grimme, J. Chem. Theory Comput., 2021, 17, 1701-1714
     DOI: 10.1021/acs.jctc.0c01306
   
   for ONIOM refer to:
   * C. Plett, A. Katbashev, S. Ehlert, S. Grimme, M. Bursch,
     Phys. Chem. Chem. Phys., 2023, 25, 17860-17868. DOI: 10.1039/D3CP02178E
   
   for DIPRO refer to:
   * J. Kohn, N. Gildemeister, S. Grimme, D. Fazzi, A. Hansen,
     J. Chem. Phys., 2023, just accepted.
   
   for PTB refer to:
   * S. Grimme, M. Mueller, A. Hansen, J. Chem. Phys., 2023, 158, 124111.
     DOI: 10.1063/5.0137838
   
   with help from (in alphabetical order)
   P. Atkinson, C. Bannwarth, F. Bohle, G. Brandenburg, E. Caldeweyher
   M. Checinski, S. Dohm, S. Ehlert, S. Ehrlich, I. Gerasimov, C. Hölzer
   A. Katbashev, J. Kohn, J. Koopman, C. Lavigne, S. Lehtola, F. März, M. Müller,
   F. Musil, H. Neugebauer, J. Pisarek, C. Plett, P. Pracht, F. Pultar,
   J. Seibert, P. Shushkov, S. Spicher, M. Stahn, M. Steiner, T. Strunk,
   J. Stückrath, T. Rose, and J. Unsleber
   
 * started run on 2026/07/08 at 08:00:49.406     
   ID    Z sym.   atoms
    1    6 C      1-5, 7-12
    2    8 O      6
    3    1 H      13-28

           -------------------------------------------------
          |                Calculation Setup                |
           -------------------------------------------------

          program call               : /home/ws/xd2484/miniforge3/envs/p3z_dft/bin/xtb xtb_input.xyz --gfn 2 --opt tight --cycles 500 --chrg 0 --uhf 0
          hostname                   : gpu10
          coordinate file            : xtb_input.xyz
          omp threads                :                    16


           -------------------------------------------------
          |                 G F N 2 - x T B                 |
           -------------------------------------------------

        Reference                      10.1021/acs.jctc.8b01176
      * Hamiltonian:
        H0-scaling (s, p, d)           1.850000    2.230000    2.230000
        zeta-weighting                 0.500000
      * Dispersion:
        s8                             2.700000
        a1                             0.520000
        a2                             5.000000
        s9                             5.000000
      * Repulsion:
        kExp                           1.500000    1.000000
        rExp                           1.000000
      * Coulomb:
        alpha                          2.000000
        third order                    shell-resolved
        anisotropic                    true
        a3                             3.000000
        a5                             4.000000
        cn-shift                       1.200000
        cn-exp                         4.000000
        max-rad                        5.000000


          ...................................................
          :                      SETUP                      :
          :.................................................:
          :  # basis functions                  64          :
          :  # atomic orbitals                  64          :
          :  # shells                           40          :
          :  # electrons                        66          :
          :  max. iterations                   250          :
          :  Hamiltonian                  GFN2-xTB          :
          :  restarted?                      false          :
          :  GBSA solvation                  false          :
          :  PC potential                    false          :
          :  electronic temp.          300.0000000     K    :
          :  accuracy                    1.0000000          :
          :  -> integral cutoff          0.2500000E+02      :
          :  -> integral neglect         0.1000000E-07      :
          :  -> SCF convergence          0.1000000E-05 Eh   :
          :  -> wf. convergence          0.1000000E-03 e    :
          :  Broyden damping             0.4000000          :
          :  net charge                          0          :
          :  unpaired electrons                  0          :
          ...................................................

 iter      E             dE          RMSdq      gap      omega  full diag
   1    -36.2453245 -0.362453E+02  0.356E+00    4.64       0.0  T
   2    -36.2909452 -0.456206E-01  0.203E+00    4.49       1.0  T
   3    -36.2919499 -0.100475E-02  0.674E-01    4.38       1.0  T
   4    -36.2925016 -0.551678E-03  0.181E-01    4.44       1.0  T
   5    -36.2929422 -0.440584E-03  0.702E-02    4.46       1.0  T
   6    -36.2929757 -0.335057E-04  0.373E-02    4.46       1.0  T
   7    -36.2929830 -0.732831E-05  0.101E-02    4.46       1.9  T
   8    -36.2929833 -0.263115E-06  0.323E-03    4.46       5.9  T
   9    -36.2929834 -0.100397E-06  0.165E-03    4.46      11.4  T
  10    -36.2929834 -0.982513E-08  0.433E-04    4.46      43.7  T
  11    -36.2929834 -0.270784E-08  0.179E-04    4.46     105.6  T

   *** convergence criteria satisfied after 11 iterations ***

         #    Occupation            Energy/Eh            Energy/eV
      -------------------------------------------------------------
         1        2.0000           -0.6806084             -18.5203
       ...           ...                  ...                  ...
        27        2.0000           -0.4314550             -11.7405
        28        2.0000           -0.4283873             -11.6570
        29        2.0000           -0.4254771             -11.5778
        30        2.0000           -0.4174994             -11.3607
        31        2.0000           -0.4075933             -11.0912
        32        2.0000           -0.4063064             -11.0562
        33        2.0000           -0.3953544             -10.7581 (HOMO)
        34                         -0.2313076              -6.2942 (LUMO)
        35                         -0.2295667              -6.2468
        36                         -0.1063501              -2.8939
        37                          0.0247368               0.6731
        38                          0.0691502               1.8817
       ...                                ...                  ...
        64                          0.6261282              17.0378
      -------------------------------------------------------------
                  HL-Gap            0.1640468 Eh            4.4639 eV
             Fermi-level           -0.3133310 Eh           -8.5262 eV

 SCC (total)                   0 d,  0 h,  0 min,  0.249 sec
 SCC setup                      ...        0 min,  0.005 sec (  1.832%)
 Dispersion                     ...        0 min,  0.011 sec (  4.239%)
 classical contributions        ...        0 min,  0.005 sec (  2.075%)
 integral evaluation            ...        0 min,  0.017 sec (  6.695%)
 iterations                     ...        0 min,  0.169 sec ( 67.988%)
 molecular gradient             ...        0 min,  0.042 sec ( 17.082%)
 printout                       ...        0 min,  0.000 sec (  0.076%)

         :::::::::::::::::::::::::::::::::::::::::::::::::::::
         ::                     SUMMARY                     ::
         :::::::::::::::::::::::::::::::::::::::::::::::::::::
         :: total energy             -35.765943827506 Eh    ::
         :: gradient norm              0.032696463174 Eh/a0 ::
         :: HOMO-LUMO gap              4.463940141893 eV    ::
         ::.................................................::
         :: SCC energy               -36.292705621519 Eh    ::
         :: -> isotropic ES            0.028803697449 Eh    ::
         :: -> anisotropic ES          0.007027361768 Eh    ::
         :: -> anisotropic XC          0.018591760983 Eh    ::
         :: -> dispersion             -0.023383572821 Eh    ::
         :: repulsion energy           0.526761794014 Eh    ::
         :: add. restraining           0.000000000000 Eh    ::
         :: total charge               0.000000000000 e     ::
         :::::::::::::::::::::::::::::::::::::::::::::::::::::

      ----------------------------------------------------------- 
     |                   =====================                   |
     |                        A N C O P T                        |
     |                   =====================                   |
     |               Approximate Normal Coordinate               |
     |                Rational Function Optimizer                |
      ----------------------------------------------------------- 
      ----------------------------------------------------------- 
     |                   =====================                   |
     |                        A N C O P T                        |
     |                   =====================                   |
     |               Approximate Normal Coordinate               |
     |                Rational Function Optimizer                |
      ----------------------------------------------------------- 

          ...................................................
          :                      SETUP                      :
          :.................................................:
          :   optimization level             tight          :
          :   max. optcycles                   500          :
          :   ANC micro-cycles                  20          :
          :   degrees of freedom                78          :
          :.................................................:
          :   RF solver                   davidson          :
          :   write xtbopt.log                true          :
          :   linear?                        false          :
          :   energy convergence         0.1000000E-05 Eh   :
          :   grad. convergence          0.8000000E-03 Eh/α :
          :   maxmium RF displ.          1.0000000          :
          :   Hlow (freq-cutoff)         0.1000000E-01      :
          :   Hmax (freq-cutoff)         5.0000000          :
          :   S6 in model hess.         20.0000000          :
          ...................................................

generating ANC from exact Hessian ...
Using Lindh-Hessian (1995)
 Shifting diagonal of input Hessian by    9.1540818202659521E-003
 Lowest  eigenvalues of input Hessian
    0.000000    0.000000    0.000000    0.000000    0.000000    0.000000
    0.010000    0.010100    0.010444    0.013520    0.013941    0.016653
    0.017757    0.018813    0.019405    0.020592    0.023195    0.024183
 Highest eigenvalues
    1.406909    1.526940    1.561292    1.829003    1.928816    1.943806


........................................................................
.............................. CYCLE    1 ..............................
........................................................................

 iter      E             dE          RMSdq      gap      omega  full diag
   1    -36.2929834 -0.362930E+02  0.725E-05    4.46       0.0  T
   2    -36.2929834 -0.299707E-10  0.443E-05    4.46     426.4  T
   3    -36.2929834 -0.133298E-10  0.285E-05    4.46     664.0  T
     SCC iter.                  ...        0 min,  0.046 sec
     gradient                   ...        0 min,  0.035 sec
 * total energy  :   -35.7659438 Eh     change       -0.4449419E-09 Eh
   gradient norm :     0.0326974 Eh/α   predicted     0.0000000E+00 (-100.00%)
   displ. norm   :     0.2166090 α      lambda       -0.4086978E-02
   maximum displ.:     0.0712674 α      in ANC's #6, #13, #28, ...

........................................................................
.............................. CYCLE    2 ..............................
........................................................................

 iter      E             dE          RMSdq      gap      omega  full diag
   1    -36.3185055 -0.363185E+02  0.159E-01    4.56       0.0  T
   2    -36.3185126 -0.707022E-05  0.939E-02    4.56       1.0  T
   3    -36.3185095  0.303935E-05  0.127E-02    4.56       1.5  T
   4    -36.3185140 -0.450991E-05  0.456E-03    4.56       4.1  T
   5    -36.3185144 -0.338917E-06  0.239E-03    4.56       7.9  T
   6    -36.3185144 -0.139734E-07  0.784E-04    4.56      24.1  T
   7    -36.3185144 -0.539062E-08  0.209E-04    4.56      90.5  T
     SCC iter.                  ...        0 min,  0.086 sec
     gradient                   ...        0 min,  0.042 sec
 * total energy  :   -35.7684505 Eh     change       -0.2506669E-02 Eh
   gradient norm :     0.0109854 Eh/α   predicted    -0.2139407E-02 ( -14.65%)
   displ. norm   :     0.1358862 α      lambda       -0.6008703E-03
   maximum displ.:     0.0637492 α      in ANC's #2, #6, #12, ...

........................................................................
.............................. CYCLE    3 ..............................
........................................................................

 iter      E             dE          RMSdq      gap      omega  full diag
   1    -36.3274533 -0.363275E+02  0.589E-02    4.58       0.0  T
   2    -36.3274549 -0.153970E-05  0.355E-02    4.58       1.0  T
   3    -36.3274528  0.211158E-05  0.876E-03    4.58       2.2  T
   4    -36.3274554 -0.262567E-05  0.190E-03    4.58      10.0  T
   5    -36.3274554 -0.419582E-07  0.953E-04    4.58      19.8  T
   6    -36.3274554 -0.119288E-08  0.345E-04    4.58      54.7  T
     SCC iter.                  ...        0 min,  0.087 sec
     gradient                   ...        0 min,  0.045 sec
 * total energy  :   -35.7688181 Eh     change       -0.3675975E-03 Eh
   gradient norm :     0.0052503 Eh/α   predicted    -0.3061376E-03 ( -16.72%)
   displ. norm   :     0.1149859 α      lambda       -0.1888182E-03
   maximum displ.:     0.0753995 α      in ANC's #2, #6, #1, ...

........................................................................
.............................. CYCLE    4 ..............................
........................................................................

 iter      E             dE          RMSdq      gap      omega  full diag
   1    -36.3287579 -0.363288E+02  0.387E-02    4.58       0.0  T
   2    -36.3287589 -0.990739E-06  0.236E-02    4.59       1.0  T
   3    -36.3287577  0.124406E-05  0.712E-03    4.59       2.7  T
   4    -36.3287593 -0.160166E-05  0.146E-03    4.59      13.0  T
   5    -36.3287593 -0.202652E-07  0.723E-04    4.59      26.2  T
   6    -36.3287593 -0.250833E-08  0.302E-04    4.59      62.5  T
     SCC iter.                  ...        0 min,  0.109 sec
     gradient                   ...        0 min,  0.048 sec
 * total energy  :   -35.7689663 Eh     change       -0.1482544E-03 Eh
   gradient norm :     0.0038103 Eh/α   predicted    -0.9566132E-04 ( -35.47%)
   displ. norm   :     0.2107683 α      lambda       -0.2557182E-03
   maximum displ.:     0.1437619 α      in ANC's #2, #3, #17, ...

........................................................................
.............................. CYCLE    5 ..............................
........................................................................

 iter      E             dE          RMSdq      gap      omega  full diag
   1    -36.3276913 -0.363277E+02  0.725E-02    4.59       0.0  T
   2    -36.3276943 -0.300486E-05  0.439E-02    4.60       1.0  T
   3    -36.3276907  0.359878E-05  0.124E-02    4.60       1.5  T
   4    -36.3276954 -0.469422E-05  0.260E-03    4.61       7.3  T
   5    -36.3276954 -0.537960E-07  0.124E-03    4.60      15.2  T
   6    -36.3276954 -0.800500E-08  0.552E-04    4.60      34.2  T
   7    -36.3276954 -0.637385E-09  0.180E-04    4.60     105.1  T
     SCC iter.                  ...        0 min,  0.112 sec
     gradient                   ...        0 min,  0.045 sec
 * total energy  :   -35.7691443 Eh     change       -0.1779068E-03 Eh
   gradient norm :     0.0074112 Eh/α   predicted    -0.1335407E-03 ( -24.94%)
   displ. norm   :     0.1797499 α      lambda       -0.1611793E-03
   maximum displ.:     0.1294727 α      in ANC's #2, #3, #1, ...

........................................................................
.............................. CYCLE    6 ..............................
........................................................................

 iter      E             dE          RMSdq      gap      omega  full diag
   1    -36.3262299 -0.363262E+02  0.639E-02    4.61       0.0  T
   2    -36.3262309 -0.102990E-05  0.382E-02    4.61       1.0  T
   3    -36.3262294  0.149508E-05  0.772E-03    4.61       2.4  T
   4    -36.3262314 -0.194566E-05  0.174E-03    4.61      10.9  T
   5    -36.3262314 -0.129145E-07  0.871E-04    4.61      21.7  T
   6    -36.3262314 -0.280836E-08  0.315E-04    4.61      60.0  T
     SCC iter.                  ...        0 min,  0.106 sec
     gradient                   ...        0 min,  0.060 sec
 * total energy  :   -35.7692697 Eh     change       -0.1254742E-03 Eh
   gradient norm :     0.0082326 Eh/α   predicted    -0.8320335E-04 ( -33.69%)
   displ. norm   :     0.2248386 α      lambda       -0.2120082E-03
   maximum displ.:     0.1615476 α      in ANC's #2, #3, #1, ...

........................................................................
.............................. CYCLE    7 ..............................
........................................................................

 iter      E             dE          RMSdq      gap      omega  full diag
   1    -36.3250986 -0.363251E+02  0.860E-02    4.62       0.0  T
   2    -36.3250993 -0.732913E-06  0.507E-02    4.62       1.0  T
   3    -36.3250986  0.710665E-06  0.577E-03    4.62       3.3  T
   4    -36.3250996 -0.105128E-05  0.173E-03    4.62      10.9  T
   5    -36.3250996 -0.115265E-07  0.863E-04    4.62      21.9  T
   6    -36.3250996 -0.174654E-08  0.224E-04    4.62      84.3  T
     SCC iter.                  ...        0 min,  0.114 sec
     gradient                   ...        0 min,  0.049 sec
 * total energy  :   -35.7694241 Eh     change       -0.1544041E-03 Eh
   gradient norm :     0.0044106 Eh/α   predicted    -0.1113871E-03 ( -27.86%)
   displ. norm   :     0.2730297 α      lambda       -0.1589283E-03
   maximum displ.:     0.1922129 α      in ANC's #2, #3, #1, ...

........................................................................
.............................. CYCLE    8 ..............................
........................................................................

 iter      E             dE          RMSdq      gap      omega  full diag
   1    -36.3245447 -0.363245E+02  0.107E-01    4.64       0.0  T
   2    -36.3245459 -0.120296E-05  0.631E-02    4.64       1.0  T
   3    -36.3245438  0.210071E-05  0.907E-03    4.64       2.1  T
   4    -36.3245465 -0.273380E-05  0.215E-03    4.64       8.8  T
   5    -36.3245465 -0.129119E-07  0.112E-03    4.64      16.9  T
   6    -36.3245465 -0.631056E-08  0.231E-04    4.64      82.0  T
   7    -36.3245465 -0.656058E-09  0.919E-05    4.64     205.7  T
     SCC iter.                  ...        0 min,  0.097 sec
     gradient                   ...        0 min,  0.036 sec
 * total energy  :   -35.7695268 Eh     change       -0.1026518E-03 Eh
   gradient norm :     0.0060343 Eh/α   predicted    -0.8538959E-04 ( -16.82%)
   displ. norm   :     0.1855539 α      lambda       -0.1258034E-03
   maximum displ.:     0.1312916 α      in ANC's #2, #3, #1, ...

........................................................................
.............................. CYCLE    9 ..............................
........................................................................

 iter      E             dE          RMSdq      gap      omega  full diag
   1    -36.3263413 -0.363263E+02  0.772E-02    4.65       0.0  T
   2    -36.3263422 -0.907417E-06  0.453E-02    4.64       1.0  T
   3    -36.3263419  0.280102E-06  0.429E-03    4.64       4.4  T
   4    -36.3263424 -0.477207E-06  0.165E-03    4.64      11.5  T
   5    -36.3263424 -0.442232E-07  0.690E-04    4.64      27.4  T
   6    -36.3263424 -0.207163E-08  0.378E-04    4.64      50.0  T
     SCC iter.                  ...        0 min,  0.087 sec
     gradient                   ...        0 min,  0.036 sec
 * total energy  :   -35.7695937 Eh     change       -0.6695143E-04 Eh
   gradient norm :     0.0037213 Eh/α   predicted    -0.6506771E-04 (  -2.81%)
   displ. norm   :     0.1366390 α      lambda       -0.4547240E-04
   maximum displ.:     0.0990226 α      in ANC's #2, #3, #1, ...

........................................................................
.............................. CYCLE   10 ..............................
........................................................................

 iter      E             dE          RMSdq      gap      omega  full diag
   1    -36.3268763 -0.363269E+02  0.523E-02    4.65       0.0  T
   2    -36.3268765 -0.208490E-06  0.309E-02    4.65       1.0  T
   3    -36.3268761  0.387137E-06  0.381E-03    4.65       5.0  T
   4    -36.3268766 -0.502215E-06  0.900E-04    4.65      21.0  T
   5    -36.3268766 -0.185665E-08  0.426E-04    4.65      44.4  T
     SCC iter.                  ...        0 min,  0.082 sec
     gradient                   ...        0 min,  0.047 sec
 * total energy  :   -35.7696257 Eh     change       -0.3195762E-04 Eh
   gradient norm :     0.0016558 Eh/α   predicted    -0.2316199E-04 ( -27.52%)
   displ. norm   :     0.1310877 α      lambda       -0.2639162E-04
   maximum displ.:     0.0951008 α      in ANC's #2, #3, #9, ...

........................................................................
.............................. CYCLE   11 ..............................
........................................................................

 iter      E             dE          RMSdq      gap      omega  full diag
   1    -36.3281526 -0.363282E+02  0.489E-02    4.65       0.0  T
   2    -36.3281527 -0.107533E-06  0.288E-02    4.65       1.0  T
   3    -36.3281526  0.487266E-07  0.191E-03    4.65       9.9  T
   4    -36.3281527 -0.924691E-07  0.614E-04    4.65      30.8  T
   5    -36.3281527 -0.189969E-08  0.301E-04    4.65      62.8  T
     SCC iter.                  ...        0 min,  0.073 sec
     gradient                   ...        0 min,  0.038 sec
 * total energy  :   -35.7696510 Eh     change       -0.2530285E-04 Eh
   gradient norm :     0.0013360 Eh/α   predicted    -0.1329817E-04 ( -47.44%)
   displ. norm   :     0.0852801 α      lambda       -0.1435827E-04
   maximum displ.:     0.0602011 α      in ANC's #2, #3, #8, ...

........................................................................
.............................. CYCLE   12 ..............................
........................................................................

 iter      E             dE          RMSdq      gap      omega  full diag
   1    -36.3278104 -0.363278E+02  0.322E-02    4.65       0.0  T
   2    -36.3278104 -0.402779E-07  0.189E-02    4.65       1.0  T
   3    -36.3278104  0.214072E-07  0.111E-03    4.65      17.1  T
   4    -36.3278104 -0.386398E-07  0.361E-04    4.65      52.4  T
   5    -36.3278104 -0.634081E-09  0.172E-04    4.65     109.6  T
     SCC iter.                  ...        0 min,  0.087 sec
     gradient                   ...        0 min,  0.046 sec
 * total energy  :   -35.7696682 Eh     change       -0.1723455E-04 Eh
   gradient norm :     0.0013638 Eh/α   predicted    -0.7209443E-05 ( -58.17%)
   displ. norm   :     0.1101467 α      lambda       -0.1738640E-04
   maximum displ.:     0.0667061 α      in ANC's #2, #3, #8, ...

........................................................................
.............................. CYCLE   13 ..............................
........................................................................

 iter      E             dE          RMSdq      gap      omega  full diag
   1    -36.3275830 -0.363276E+02  0.365E-02    4.65       0.0  T
   2    -36.3275831 -0.797172E-07  0.215E-02    4.65       1.0  T
   3    -36.3275830  0.100723E-06  0.198E-03    4.65       9.5  T
   4    -36.3275831 -0.134406E-06  0.458E-04    4.65      41.3  T
   5    -36.3275831 -0.111873E-08  0.229E-04    4.65      82.5  T
     SCC iter.                  ...        0 min,  0.081 sec
     gradient                   ...        0 min,  0.054 sec
 * total energy  :   -35.7696876 Eh     change       -0.1935150E-04 Eh
   gradient norm :     0.0013320 Eh/α   predicted    -0.8740700E-05 ( -54.83%)
   displ. norm   :     0.1166225 α      lambda       -0.1311847E-04
   maximum displ.:     0.0706902 α      in ANC's #2, #3, #1, ...

........................................................................
.............................. CYCLE   14 ..............................
........................................................................

 iter      E             dE          RMSdq      gap      omega  full diag
   1    -36.3271615 -0.363272E+02  0.390E-02    4.65       0.0  T
   2    -36.3271616 -0.712585E-07  0.230E-02    4.65       1.0  T
   3    -36.3271616  0.567594E-07  0.162E-03    4.65      11.7  T
   4    -36.3271616 -0.874810E-07  0.438E-04    4.65      43.1  T
   5    -36.3271616 -0.838988E-09  0.208E-04    4.65      90.9  T
     SCC iter.                  ...        0 min,  0.097 sec
     gradient                   ...        0 min,  0.059 sec
 * total energy  :   -35.7697028 Eh     change       -0.1519352E-04 Eh
   gradient norm :     0.0012782 Eh/α   predicted    -0.6599547E-05 ( -56.56%)
   displ. norm   :     0.1283194 α      lambda       -0.1365776E-04
   maximum displ.:     0.0773748 α      in ANC's #2, #1, #3, ...

........................................................................
.............................. CYCLE   15 ..............................
........................................................................

 iter      E             dE          RMSdq      gap      omega  full diag
   1    -36.3271712 -0.363272E+02  0.412E-02    4.65       0.0  T
   2    -36.3271713 -0.861269E-07  0.242E-02    4.65       1.0  T
   3    -36.3271712  0.100734E-06  0.207E-03    4.65       9.1  T
   4    -36.3271713 -0.143835E-06  0.483E-04    4.65      39.1  T
   5    -36.3271713 -0.410267E-09  0.228E-04    4.65      82.9  T
     SCC iter.                  ...        0 min,  0.068 sec
     gradient                   ...        0 min,  0.040 sec
 * total energy  :   -35.7697200 Eh     change       -0.1726890E-04 Eh
   gradient norm :     0.0011788 Eh/α   predicted    -0.6880852E-05 ( -60.15%)
   displ. norm   :     0.1936126 α      lambda       -0.2134076E-04
   maximum displ.:     0.1179709 α      in ANC's #2, #1, #3, ...

........................................................................
.............................. CYCLE   16 ..............................
........................................................................

 iter      E             dE          RMSdq      gap      omega  full diag
   1    -36.3271075 -0.363271E+02  0.622E-02    4.64       0.0  T
   2    -36.3271077 -0.176290E-06  0.365E-02    4.64       1.0  T
   3    -36.3271076  0.126967E-06  0.251E-03    4.64       7.5  T
   4    -36.3271078 -0.207689E-06  0.651E-04    4.64      29.0  T
   5    -36.3271078 -0.139386E-08  0.308E-04    4.64      61.3  T
     SCC iter.                  ...        0 min,  0.073 sec
     gradient                   ...        0 min,  0.047 sec
 * total energy  :   -35.7697471 Eh     change       -0.2709831E-04 Eh
   gradient norm :     0.0012074 Eh/α   predicted    -0.1085053E-04 ( -59.96%)
   displ. norm   :     0.2927921 α      lambda       -0.3215498E-04
   maximum displ.:     0.1772899 α      in ANC's #2, #1, #3, ...

........................................................................
.............................. CYCLE   17 ..............................
........................................................................

 iter      E             dE          RMSdq      gap      omega  full diag
   1    -36.3267924 -0.363268E+02  0.924E-02    4.64       0.0  T
   2    -36.3267928 -0.424824E-06  0.543E-02    4.64       1.0  T
   3    -36.3267924  0.431965E-06  0.445E-03    4.64       4.2  T
   4    -36.3267930 -0.647179E-06  0.106E-03    4.64      17.9  T
   5    -36.3267930 -0.204956E-08  0.509E-04    4.64      37.2  T
   6    -36.3267930 -0.164250E-08  0.921E-05    4.64     205.1  T
     SCC iter.                  ...        0 min,  0.083 sec
     gradient                   ...        0 min,  0.040 sec
 * total energy  :   -35.7697844 Eh     change       -0.3725774E-04 Eh
   gradient norm :     0.0015962 Eh/α   predicted    -0.1669153E-04 ( -55.20%)
   displ. norm   :     0.3064287 α      lambda       -0.3219134E-04
   maximum displ.:     0.1883050 α      in ANC's #1, #2, #3, ...

........................................................................
.............................. CYCLE   18 ..............................
........................................................................

 iter      E             dE          RMSdq      gap      omega  full diag
   1    -36.3271008 -0.363271E+02  0.941E-02    4.63       0.0  T
   2    -36.3271014 -0.556866E-06  0.553E-02    4.63       1.0  T
   3    -36.3271007  0.729054E-06  0.543E-03    4.63       3.5  T
   4    -36.3271016 -0.989072E-06  0.110E-03    4.63      17.2  T
   5    -36.3271017 -0.468632E-08  0.572E-04    4.63      33.0  T
   6    -36.3271017 -0.136427E-08  0.149E-04    4.63     126.9  T
     SCC iter.                  ...        0 min,  0.098 sec
     gradient                   ...        0 min,  0.042 sec
 * total energy  :   -35.7698167 Eh     change       -0.3232387E-04 Eh
   gradient norm :     0.0017979 Eh/α   predicted    -0.1676935E-04 ( -48.12%)
   displ. norm   :     0.2184430 α      lambda       -0.1965964E-04
   maximum displ.:     0.1398779 α      in ANC's #1, #2, #3, ...

........................................................................
.............................. CYCLE   19 ..............................
........................................................................

 iter      E             dE          RMSdq      gap      omega  full diag
   1    -36.3274000 -0.363274E+02  0.672E-02    4.64       0.0  T
   2    -36.3274003 -0.244065E-06  0.396E-02    4.64       1.0  T
   3    -36.3274000  0.276434E-06  0.344E-03    4.64       5.5  T
   4    -36.3274004 -0.408559E-06  0.875E-04    4.64      21.6  T
   5    -36.3274004 -0.945377E-09  0.373E-04    4.64      50.6  T
     SCC iter.                  ...        0 min,  0.072 sec
     gradient                   ...        0 min,  0.039 sec
 * total energy  :   -35.7698349 Eh     change       -0.1820003E-04 Eh
   gradient norm :     0.0014383 Eh/α   predicted    -0.1004187E-04 ( -44.82%)
   displ. norm   :     0.1202733 α      lambda       -0.1145566E-04
   maximum displ.:     0.0854713 α      in ANC's #1, #2, #3, ...

........................................................................
.............................. CYCLE   20 ..............................
........................................................................

 iter      E             dE          RMSdq      gap      omega  full diag
   1    -36.3281700 -0.363282E+02  0.362E-02    4.63       0.0  T
   2    -36.3281702 -0.133176E-06  0.213E-02    4.63       1.0  T
   3    -36.3281699  0.269539E-06  0.308E-03    4.63       6.1  T
   4    -36.3281702 -0.334015E-06  0.529E-04    4.63      35.8  T
   5    -36.3281702 -0.109114E-08  0.280E-04    4.63      67.5  T
     SCC iter.                  ...        0 min,  0.074 sec
     gradient                   ...        0 min,  0.050 sec
 * total energy  :   -35.7698454 Eh     change       -0.1045439E-04 Eh
   gradient norm :     0.0013537 Eh/α   predicted    -0.5769030E-05 ( -44.82%)
   displ. norm   :     0.1743869 α      lambda       -0.1108201E-04
   maximum displ.:     0.1150610 α      in ANC's #1, #2, #3, ...
 * RMSD in coord.:     0.5177963 α      energy gain  -0.3901553E-02 Eh

generating ANC from exact Hessian ...
Using Lindh-Hessian (1995)
 Shifting diagonal of input Hessian by    9.0924456416779376E-003
 Lowest  eigenvalues of input Hessian
    0.000000    0.000000    0.000000    0.000000    0.000000    0.000000
    0.010000    0.010118    0.010557    0.013447    0.014272    0.017208
    0.018113    0.019296    0.019819    0.021301    0.024556    0.025464
 Highest eigenvalues
    1.473381    1.588230    1.616649    1.898705    2.002956    2.025028


........................................................................
.............................. CYCLE   21 ..............................
........................................................................

 iter      E             dE          RMSdq      gap      omega  full diag
   1    -36.3270362 -0.363270E+02  0.535E-02    4.63       0.0  T
   2    -36.3270365 -0.234689E-06  0.314E-02    4.63       1.0  T
   3    -36.3270363  0.149478E-06  0.266E-03    4.63       7.1  T
   4    -36.3270365 -0.218137E-06  0.713E-04    4.63      26.5  T
   5    -36.3270365 -0.638757E-08  0.364E-04    4.63      51.9  T
     SCC iter.                  ...        0 min,  0.089 sec
     gradient                   ...        0 min,  0.048 sec
 * total energy  :   -35.7698536 Eh     change       -0.8176441E-05 Eh
   gradient norm :     0.0015533 Eh/α   predicted     0.0000000E+00 (-100.00%)
   displ. norm   :     0.0298078 α      lambda       -0.2397536E-05
   maximum displ.:     0.0178442 α      in ANC's #1, #4, #7, ...

........................................................................
.............................. CYCLE   22 ..............................
........................................................................

 iter      E             dE          RMSdq      gap      omega  full diag
   1    -36.3278704 -0.363279E+02  0.107E-02    4.63       0.0  T
   2    -36.3278705 -0.528208E-07  0.637E-03    4.63       3.0  T
   3    -36.3278704  0.868786E-07  0.181E-03    4.63      10.4  T
   4    -36.3278705 -0.105583E-06  0.298E-04    4.63      63.5  T
   5    -36.3278705 -0.123777E-08  0.141E-04    4.63     133.6  T
     SCC iter.                  ...        0 min,  0.072 sec
     gradient                   ...        0 min,  0.042 sec
 * total energy  :   -35.7698633 Eh     change       -0.9722647E-05 Eh
   gradient norm :     0.0005664 Eh/α   predicted    -0.5064239E-05 ( -47.91%)
   displ. norm   :     0.0532371 α      lambda       -0.8497469E-05
   maximum displ.:     0.0351045 α      in ANC's #4, #1, #7, ...

........................................................................
.............................. CYCLE   23 ..............................
........................................................................

 iter      E             dE          RMSdq      gap      omega  full diag
   1    -36.3281457 -0.363281E+02  0.107E-02    4.64       0.0  T
   2    -36.3281458 -0.393701E-07  0.649E-03    4.64       2.9  T
   3    -36.3281456  0.124099E-06  0.211E-03    4.64       9.0  T
   4    -36.3281458 -0.151449E-06  0.293E-04    4.64      64.6  T
   5    -36.3281458 -0.203215E-10  0.139E-04    4.64     135.6  T
     SCC iter.                  ...        0 min,  0.073 sec
     gradient                   ...        0 min,  0.037 sec
 * total energy  :   -35.7698735 Eh     change       -0.1024082E-04 Eh
   gradient norm :     0.0009657 Eh/α   predicted    -0.4274890E-05 ( -58.26%)
   displ. norm   :     0.0924355 α      lambda       -0.1138179E-04
   maximum displ.:     0.0581487 α      in ANC's #4, #1, #7, ...

........................................................................
.............................. CYCLE   24 ..............................
........................................................................

 iter      E             dE          RMSdq      gap      omega  full diag
   1    -36.3278034 -0.363278E+02  0.179E-02    4.64       0.0  T
   2    -36.3278035 -0.838624E-07  0.108E-02    4.64       1.8  T
   3    -36.3278033  0.242855E-06  0.295E-03    4.64       6.4  T
   4    -36.3278036 -0.296363E-06  0.441E-04    4.64      42.9  T
   5    -36.3278036 -0.112770E-09  0.227E-04    4.64      83.3  T
     SCC iter.                  ...        0 min,  0.073 sec
     gradient                   ...        0 min,  0.043 sec
 * total energy  :   -35.7698857 Eh     change       -0.1218283E-04 Eh
   gradient norm :     0.0008431 Eh/α   predicted    -0.5712673E-05 ( -53.11%)
   displ. norm   :     0.0756911 α      lambda       -0.5923320E-05
   maximum displ.:     0.0489016 α      in ANC's #1, #4, #7, ...

........................................................................
.............................. CYCLE   25 ..............................
........................................................................

 iter      E             dE          RMSdq      gap      omega  full diag
   1    -36.3277309 -0.363277E+02  0.145E-02    4.64       0.0  T
   2    -36.3277310 -0.352492E-07  0.870E-03    4.64       2.2  T
   3    -36.3277309  0.105923E-06  0.190E-03    4.64      10.0  T
   4    -36.3277310 -0.127534E-06  0.289E-04    4.64      65.5  T
   5    -36.3277310 -0.527365E-10  0.146E-04    4.64     129.7  T
     SCC iter.                  ...        0 min,  0.078 sec
     gradient                   ...        0 min,  0.040 sec
 * total energy  :   -35.7698917 Eh     change       -0.5961596E-05 Eh
   gradient norm :     0.0005414 Eh/α   predicted    -0.2969676E-05 ( -50.19%)
   displ. norm   :     0.0456100 α      lambda        0.5308913E-06
   maximum displ.:     0.0284387 α      in ANC's #1, #4, #7, ...

........................................................................
.............................. CYCLE   26 ..............................
........................................................................

 iter      E             dE          RMSdq      gap      omega  full diag
   1    -36.3275988 -0.363276E+02  0.918E-03    4.64       0.0  T
   2    -36.3275988 -0.152990E-07  0.550E-03    4.64       3.4  T
   3    -36.3275987  0.403899E-07  0.118E-03    4.64      16.0  T
   4    -36.3275988 -0.490329E-07  0.190E-04    4.65      99.3  T
   5    -36.3275988 -0.700666E-10  0.990E-05    4.65     190.8  T
     SCC iter.                  ...        0 min,  0.066 sec
     gradient                   ...        0 min,  0.037 sec
 * total energy  :   -35.7698916 Eh     change        0.4718137E-07 Eh
   gradient norm :     0.0008234 Eh/α   predicted     0.2638898E-06 ( 459.31%)
   displ. norm   :     0.0125886 α      lambda       -0.2728212E-05
   maximum displ.:     0.0072123 α      in ANC's #1, #4, #8, ...

........................................................................
.............................. CYCLE   27 ..............................
........................................................................

 iter      E             dE          RMSdq      gap      omega  full diag
   1    -36.3277257 -0.363277E+02  0.655E-03    4.65       0.0  T
   2    -36.3277257 -0.640318E-08  0.390E-03    4.65       4.8  T
   3    -36.3277257  0.619281E-08  0.530E-04    4.65      35.7  T
   4    -36.3277257 -0.866169E-08  0.142E-04    4.64     132.7  T
     SCC iter.                  ...        0 min,  0.059 sec
     gradient                   ...        0 min,  0.037 sec
 * total energy  :   -35.7698944 Eh     change       -0.2789290E-05 Eh
   gradient norm :     0.0003803 Eh/α   predicted    -0.1369717E-05 ( -50.89%)
   displ. norm   :     0.0191625 α      lambda       -0.1825975E-05
   maximum displ.:     0.0132260 α      in ANC's #1, #4, #8, ...

........................................................................
.............................. CYCLE   28 ..............................
........................................................................

 iter      E             dE          RMSdq      gap      omega  full diag
   1    -36.3278459 -0.363278E+02  0.667E-03    4.64       0.0  T
   2    -36.3278459 -0.786676E-08  0.399E-03    4.64       4.7  T
   3    -36.3278459  0.152482E-07  0.748E-04    4.64      25.3  T
   4    -36.3278459 -0.195910E-07  0.166E-04    4.64     113.6  T
     SCC iter.                  ...        0 min,  0.052 sec
     gradient                   ...        0 min,  0.039 sec
 * total energy  :   -35.7698964 Eh     change       -0.1960231E-05 Eh
   gradient norm :     0.0003550 Eh/α   predicted    -0.9137750E-06 ( -53.38%)
   displ. norm   :     0.0189051 α      lambda       -0.1131543E-05
   maximum displ.:     0.0149815 α      in ANC's #1, #4, #8, ...

........................................................................
.............................. CYCLE   29 ..............................
........................................................................

 iter      E             dE          RMSdq      gap      omega  full diag
   1    -36.3278685 -0.363279E+02  0.618E-03    4.64       0.0  T
   2    -36.3278685 -0.517886E-08  0.369E-03    4.64       5.1  T
   3    -36.3278685  0.121458E-07  0.665E-04    4.64      28.4  T
   4    -36.3278685 -0.156033E-07  0.149E-04    4.64     126.8  T
     SCC iter.                  ...        0 min,  0.057 sec
     gradient                   ...        0 min,  0.041 sec
 * total energy  :   -35.7698977 Eh     change       -0.1380096E-05 Eh
   gradient norm :     0.0003215 Eh/α   predicted    -0.5662144E-06 ( -58.97%)
   displ. norm   :     0.0185691 α      lambda       -0.9691311E-06
   maximum displ.:     0.0149657 α      in ANC's #1, #4, #9, ...

........................................................................
.............................. CYCLE   30 ..............................
........................................................................

 iter      E             dE          RMSdq      gap      omega  full diag
   1    -36.3277987 -0.363278E+02  0.582E-03    4.64       0.0  T
   2    -36.3277987 -0.520717E-08  0.346E-03    4.64       5.5  T
   3    -36.3277987  0.143450E-07  0.702E-04    4.64      26.9  T
   4    -36.3277987 -0.177533E-07  0.133E-04    4.64     141.7  T
     SCC iter.                  ...        0 min,  0.077 sec
     gradient                   ...        0 min,  0.047 sec
 * total energy  :   -35.7698990 Eh     change       -0.1240823E-05 Eh
   gradient norm :     0.0002330 Eh/α   predicted    -0.4873986E-06 ( -60.72%)
   displ. norm   :     0.0178242 α      lambda       -0.8328043E-06
   maximum displ.:     0.0148867 α      in ANC's #1, #4, #9, ...

........................................................................
.............................. CYCLE   31 ..............................
........................................................................

 iter      E             dE          RMSdq      gap      omega  full diag
   1    -36.3277361 -0.363277E+02  0.510E-03    4.64       0.0  T
   2    -36.3277361 -0.397829E-08  0.302E-03    4.64       6.3  T
   3    -36.3277361  0.980199E-08  0.587E-04    4.64      32.2  T
   4    -36.3277361 -0.121202E-07  0.108E-04    4.64     174.5  T
     SCC iter.                  ...        0 min,  0.057 sec
     gradient                   ...        0 min,  0.036 sec
 * total energy  :   -35.7699001 Eh     change       -0.1062225E-05 Eh
   gradient norm :     0.0001731 Eh/α   predicted    -0.4171733E-06 ( -60.73%)
   displ. norm   :     0.0159923 α      lambda       -0.6442663E-06
   maximum displ.:     0.0138340 α      in ANC's #1, #2, #8, ...

........................................................................
.............................. CYCLE   32 ..............................
........................................................................

 iter      E             dE          RMSdq      gap      omega  full diag
   1    -36.3277191 -0.363277E+02  0.432E-03    4.64       0.0  T
   2    -36.3277191 -0.214579E-08  0.254E-03    4.64       7.4  T
   3    -36.3277191  0.513035E-08  0.427E-04    4.64      44.2  T
   4    -36.3277191 -0.636253E-08  0.740E-05    4.64     255.4  T
     SCC iter.                  ...        0 min,  0.054 sec
     gradient                   ...        0 min,  0.030 sec
 * total energy  :   -35.7699009 Eh     change       -0.8538960E-06 Eh
   gradient norm :     0.0001402 Eh/α   predicted    -0.3239817E-06 ( -62.06%)
   displ. norm   :     0.0149672 α      lambda       -0.5441975E-06
   maximum displ.:     0.0127992 α      in ANC's #1, #2, #8, ...

   *** GEOMETRY OPTIMIZATION CONVERGED AFTER 32 ITERATIONS ***

------------------------------------------------------------------------
 total energy gain   :        -0.0039571 Eh       -2.4831 kcal/mol
 total RMSD          :         0.5226321 a0        0.2766 Å
 total power (kW/mol):        -0.3246657 (step)   -2.0231 (real)
------------------------------------------------------------------------

 ANCopt (total)                0 d,  0 h,  0 min,  5.135 sec
 optimizer setup                ...        0 min,  0.001 sec (  0.014%)
 model hessian                  ...        0 min,  0.035 sec (  0.673%)
 ANC generation                 ...        0 min,  0.002 sec (  0.047%)
 coordinate transformation      ...        0 min,  0.001 sec (  0.014%)
 single point calculation       ...        0 min,  4.955 sec ( 96.492%)
 optimization log               ...        0 min,  0.004 sec (  0.083%)
 hessian update                 ...        0 min,  0.129 sec (  2.511%)
 rational function              ...        0 min,  0.003 sec (  0.063%)

================
 final structure:
================
28
 xtb: 6.7.1 (edcfbbe)
C           -2.93092694800940        0.78205446479024        0.36643508197852
C           -1.67459023547807        0.35407330788290       -0.39047227990618
C           -1.95135884878057        0.35395498212971       -1.89224726104665
C           -1.22551428243631       -1.02236904755672        0.10502709683664
C            0.17680718209677       -1.44555093164672       -0.35554400409657
O            0.38140300880043       -2.75343051289046        0.15230518125492
C            1.22123477516139       -0.47619528368513        0.14647279433184
C            1.78235692460421        0.47492365985356       -0.69520186455508
C            2.72066474024211        1.37058876933040       -0.21341517777862
C            3.11276682919196        1.31962793049108        1.11335855949729
C            2.56387359727750        0.36837654309970        1.95668741964590
C            1.62248841181820       -0.52313905722527        1.47579957620153
H           -3.73598860806732        0.07031830959489        0.19628938616072
H           -3.26285419489173        1.76227309304529        0.03180104370037
H           -2.73750688989833        0.83309899973099        1.43533846689976
H           -0.87928998133083        1.07791453382028       -0.17898031800895
H           -2.29607337924908        1.33513173949165       -2.21158834204630
H           -2.72113090223441       -0.37568908821847       -2.13480720930982
H           -1.05668797453751        0.11063268965298       -2.45885675300590
H           -1.22058967992392       -1.03181241038971        1.19657768591300
H           -1.92907768438904       -1.78721221724245       -0.22856085233925
H            0.21111157898441       -1.47599099892310       -1.45661440676854
H            1.29073928918591       -3.01652462947994       -0.02557837688777
H            1.48228114669182        0.51550477675738       -1.73290307268129
H            3.14886380068659        2.10829755050217       -0.87635699611443
H            3.84627889989569        2.01823235949479        1.48820422715972
H            2.86843641736024        0.32283714469188        2.99216377413414
H            1.19228300723035       -1.26992667709833        2.12742406731207

 Bond Distances (Angstroems)
 ---------------------------
C1-C2=1.5279         C1-H13=1.0880        C1-H14=1.0877        C1-H15=1.0875        C2-C1=1.5279         C2-C3=1.5271         
C2-C4=1.5303         C2-H16=1.0960        C3-C2=1.5271         C3-H17=1.0879        C3-H18=1.0880        C3-H19=1.0866        
C4-C2=1.5303         C4-C5=1.5355         C4-H20=1.0916        C4-H21=1.0915        C5-C4=1.5355         C5-O6=1.4179         
C5-C7=1.5108         C5-H22=1.1020        O6-C5=1.4179         O6-H23=0.9632        C7-C5=1.5108         C7-C8=1.3885         
C7-C12=1.3894        C8-C7=1.3885         C8-C9=1.3837         C8-H24=1.0810        C9-C8=1.3837         C9-C10=1.3844        
C9-H25=1.0803        C10-C9=1.3844        C10-C11=1.3847       C10-H26=1.0801       C11-C10=1.3847       C11-C12=1.3828       
C11-H27=1.0803       C12-C7=1.3894        C12-C11=1.3828       C12-H28=1.0805       H13-C1=1.0880        H14-C1=1.0877        
H15-C1=1.0875        H16-C2=1.0960        H17-C3=1.0879        H18-C3=1.0880        H19-C3=1.0866        H20-C4=1.0916        
H21-C4=1.0915        H22-C5=1.1020        H23-O6=0.9632        H24-C8=1.0810        H25-C9=1.0803        H26-C10=1.0801       
H27-C11=1.0803       H28-C12=1.0805       
 C  H  Rav=1.0873 sigma=0.0061  Rmin=1.0801  Rmax=1.1020    15
 C  C  Rav=1.4496 sigma=0.0703  Rmin=1.3828  Rmax=1.5355    11
 O  H  Rav=0.9632 sigma=0.0000  Rmin=0.9632  Rmax=0.9632     1
 O  C  Rav=1.4179 sigma=0.0000  Rmin=1.4179  Rmax=1.4179     1

 selected bond angles (degree)
 --------------------
H13-C1-C2=110.35               H14-C1-C2=110.55               H14-C1-H13=108.40              H15-C1-C2=110.72               
H15-C1-H13=108.42              H15-C1-H14=108.32              C3-C2-C1=109.77                C4-C2-C1=109.44                
C4-C2-C3=111.81                H16-C2-C1=108.43               H16-C2-C3=108.74               H16-C2-C4=108.58               
H17-C3-C2=110.25               H18-C3-C2=110.34               H18-C3-H17=108.37              H19-C3-C2=111.32               
H19-C3-H17=108.05              H19-C3-H18=108.43              C5-C4-C2=114.76                H20-C4-C2=109.44               
H20-C4-C5=107.06               H21-C4-C2=110.01               H21-C4-C5=107.69               H21-C4-H20=107.61              
O6-C5-C4=106.18                C7-C5-C4=110.78                C7-C5-O6=111.91                H22-C5-C4=109.62               
H22-C5-O6=109.14               H22-C5-C7=109.16               H23-O6-C5=108.79               C8-C7-C5=121.16                
C12-C7-C5=119.73               C12-C7-C8=119.11               C9-C8-C7=120.42                H24-C8-C7=119.70               
H24-C8-C9=119.88               C10-C9-C8=120.13               H25-C9-C8=119.81               H25-C9-C10=120.06              
C11-C10-C9=119.78              H26-C10-C9=120.07              H26-C10-C11=120.14             

 selected dihedral angles (degree)
 ---------------------------------
C3-C2-C1-H13= 62.64           C3-C2-C1-H14=302.73           C3-C2-C1-H15=182.68           C4-C2-C1-H13=299.58           
C4-C2-C1-H14=179.67           C4-C2-C1-H15= 59.62           H16-C2-C1-H13=181.30          H16-C2-C1-H14= 61.40          
H16-C2-C1-H15=301.34          H17-C3-C2-C1= 56.70           H17-C3-C2-C4=178.35           H17-C3-C2-H16=298.23          
H18-C3-C2-C1=297.03           H18-C3-C2-C4= 58.68           H18-C3-C2-H16=178.56          H19-C3-C2-C1=176.59           
H19-C3-C2-C4=298.25           H19-C3-C2-H16= 58.13          C5-C4-C2-C1=192.08            C5-C4-C2-C3= 70.24            
C5-C4-C2-H16=310.26           H20-C4-C2-C1=312.44           H20-C4-C2-C3=190.60           H20-C4-C2-H16= 70.62          
H21-C4-C2-C1= 70.47           H21-C4-C2-C3=308.63           H21-C4-C2-H16=188.65          O6-C5-C4-C2=182.42            
O6-C5-C4-H20= 60.76           O6-C5-C4-H21=305.29           C7-C5-C4-C2= 60.72            C7-C5-C4-H20=299.05           
C7-C5-C4-H21=183.58           H22-C5-C4-C2=300.19           H22-C5-C4-H20=178.52          H22-C5-C4-H21= 63.05          
H23-O6-C5-C4=186.63           H23-O6-C5-C7=307.62           H23-O6-C5-H22= 68.55          C8-C7-C5-C4=257.11            
C8-C7-C5-O6=138.83            C8-C7-C5-H22= 17.91           C12-C7-C5-C4= 76.47           C12-C7-C5-O6=318.19           
C12-C7-C5-H22=197.27          C9-C8-C7-C5=178.86            C9-C8-C7-C12=359.49           H24-C8-C7-C5=358.94           
H24-C8-C7-C12=179.57          C10-C9-C8-C7=  0.35           C10-C9-C8-H24=180.27          H25-C9-C8-C7=180.17           
H25-C9-C8-H24=  0.09          C11-C10-C9-C8=  0.07          C11-C10-C9-H25=180.25         H26-C10-C9-C8=179.91          
H26-C10-C9-H25=  0.09         
           -------------------------------------------------
          |                Final Singlepoint                |
           -------------------------------------------------

          ...................................................
          :                      SETUP                      :
          :.................................................:
          :  # basis functions                  64          :
          :  # atomic orbitals                  64          :
          :  # shells                           40          :
          :  # electrons                        66          :
          :  max. iterations                   250          :
          :  Hamiltonian                  GFN2-xTB          :
          :  restarted?                      false          :
          :  GBSA solvation                  false          :
          :  PC potential                    false          :
          :  electronic temp.          300.0000000     K    :
          :  accuracy                    1.0000000          :
          :  -> integral cutoff          0.2500000E+02      :
          :  -> integral neglect         0.1000000E-07      :
          :  -> SCF convergence          0.1000000E-05 Eh   :
          :  -> wf. convergence          0.1000000E-03 e    :
          :  Broyden damping             0.4000000          :
          :  net charge                          0          :
          :  unpaired electrons                  0          :
          ...................................................

 iter      E             dE          RMSdq      gap      omega  full diag
   1    -36.3277191 -0.363277E+02  0.355E-05    4.64       0.0  T
   2    -36.3277191 -0.649436E-11  0.217E-05    4.64     872.2  T
   3    -36.3277191 -0.242295E-11  0.133E-05    4.64    1420.1  T

   *** convergence criteria satisfied after 3 iterations ***

         #    Occupation            Energy/Eh            Energy/eV
      -------------------------------------------------------------
         1        2.0000           -0.6836989             -18.6044
       ...           ...                  ...                  ...
        27        2.0000           -0.4308220             -11.7233
        28        2.0000           -0.4283082             -11.6549
        29        2.0000           -0.4246316             -11.5548
        30        2.0000           -0.4178551             -11.3704
        31        2.0000           -0.4056348             -11.0379
        32        2.0000           -0.4047338             -11.0134
        33        2.0000           -0.3954743             -10.7614 (HOMO)
        34                         -0.2249222              -6.1204 (LUMO)
        35                         -0.2235317              -6.0826
        36                         -0.0959170              -2.6100
        37                          0.0366768               0.9980
        38                          0.0867789               2.3614
       ...                                ...                  ...
        64                          0.6632806              18.0488
      -------------------------------------------------------------
                  HL-Gap            0.1705521 Eh            4.6410 eV
             Fermi-level           -0.3101982 Eh           -8.4409 eV

 SCC (total)                   0 d,  0 h,  0 min,  0.095 sec
 SCC setup                      ...        0 min,  0.003 sec (  3.206%)
 Dispersion                     ...        0 min,  0.006 sec (  6.337%)
 classical contributions        ...        0 min,  0.003 sec (  3.103%)
 integral evaluation            ...        0 min,  0.011 sec ( 11.082%)
 iterations                     ...        0 min,  0.038 sec ( 39.337%)
 molecular gradient             ...        0 min,  0.035 sec ( 36.761%)
 printout                       ...        0 min,  0.000 sec (  0.146%)

         :::::::::::::::::::::::::::::::::::::::::::::::::::::
         ::                     SUMMARY                     ::
         :::::::::::::::::::::::::::::::::::::::::::::::::::::
         :: total energy             -35.769900904205 Eh    ::
         :: gradient norm              0.000140387388 Eh/a0 ::
         :: HOMO-LUMO gap              4.640959081166 eV    ::
         ::.................................................::
         :: SCC energy               -36.327426171618 Eh    ::
         :: -> isotropic ES            0.027993481347 Eh    ::
         :: -> anisotropic ES          0.006812982809 Eh    ::
         :: -> anisotropic XC          0.017618553116 Eh    ::
         :: -> dispersion             -0.023784290513 Eh    ::
         :: repulsion energy           0.557525267413 Eh    ::
         :: add. restraining           0.000000000000 Eh    ::
         :: total charge               0.000000000000 e     ::
         :::::::::::::::::::::::::::::::::::::::::::::::::::::

           -------------------------------------------------
          |                Property Printout                |
           -------------------------------------------------

    * Orbital Energies and Occupations

         #    Occupation            Energy/Eh            Energy/eV
      -------------------------------------------------------------
         1        2.0000           -0.6836989             -18.6044
       ...           ...                  ...                  ...
        21        2.0000           -0.4774807             -12.9929
        22        2.0000           -0.4727173             -12.8633
        23        2.0000           -0.4613778             -12.5547
        24        2.0000           -0.4561232             -12.4117
        25        2.0000           -0.4486574             -12.2086
        26        2.0000           -0.4365178             -11.8783
        27        2.0000           -0.4308220             -11.7233
        28        2.0000           -0.4283082             -11.6549
        29        2.0000           -0.4246316             -11.5548
        30        2.0000           -0.4178551             -11.3704
        31        2.0000           -0.4056348             -11.0379
        32        2.0000           -0.4047338             -11.0134
        33        2.0000           -0.3954743             -10.7614 (HOMO)
        34                         -0.2249222              -6.1204 (LUMO)
        35                         -0.2235317              -6.0826
        36                         -0.0959170              -2.6100
        37                          0.0366768               0.9980
        38                          0.0867789               2.3614
        39                          0.0957830               2.6064
        40                          0.1049145               2.8549
        41                          0.1096932               2.9849
        42                          0.1240502               3.3756
        43                          0.1389063               3.7798
        44                          0.1452021               3.9511
       ...                                ...                  ...
        64                          0.6632806              18.0488
      -------------------------------------------------------------
                  HL-Gap            0.1705521 Eh            4.6410 eV
             Fermi-level           -0.3101982 Eh           -8.4409 eV

     #   Z          covCN         q      C6AA      α(0)
     1   6 C        3.757    -0.108    22.609     6.779
     2   6 C        3.849    -0.012    20.753     6.480
     3   6 C        3.756    -0.106    22.584     6.776
     4   6 C        3.809    -0.068    21.790     6.645
     5   6 C        3.729     0.115    18.793     6.189
     6   8 O        1.656    -0.445    21.750     6.296
     7   6 C        2.971    -0.008    28.216     8.713
     8   6 C        2.923    -0.038    28.945     8.823
     9   6 C        2.919    -0.030    28.752     8.793
    10   6 C        2.920    -0.032    28.791     8.799
    11   6 C        2.919    -0.031    28.763     8.795
    12   6 C        2.925    -0.033    28.814     8.803
    13   1 H        0.925     0.038     2.474     2.460
    14   1 H        0.925     0.036     2.500     2.473
    15   1 H        0.925     0.034     2.531     2.488
    16   1 H        0.924     0.028     2.618     2.531
    17   1 H        0.925     0.036     2.509     2.477
    18   1 H        0.925     0.038     2.473     2.459
    19   1 H        0.925     0.031     2.579     2.511
    20   1 H        0.924     0.048     2.347     2.396
    21   1 H        0.924     0.051     2.305     2.374
    22   1 H        0.923     0.013     2.844     2.637
    23   1 H        0.805     0.284     0.773     1.381
    24   1 H        0.926     0.026     2.641     2.541
    25   1 H        0.926     0.030     2.586     2.515
    26   1 H        0.926     0.030     2.590     2.517
    27   1 H        0.926     0.031     2.579     2.511
    28   1 H        0.926     0.043     2.409     2.427

 Mol. C6AA /au·bohr⁶  :       7134.585572
 Mol. C8AA /au·bohr⁸  :     162566.523618
 Mol. α(0) /au        :        130.587732


Wiberg/Mayer (AO) data.
largest (>0.10) Wiberg bond orders for each atom

 ---------------------------------------------------------------------------
     #   Z sym  total        # sym  WBO       # sym  WBO       # sym  WBO
 ---------------------------------------------------------------------------
     1   6 C    3.996 --     2 C    1.008    13 H    0.987    15 H    0.987
                            14 H    0.986
     2   6 C    3.996 --     3 C    1.010     1 C    1.008     4 C    0.997
                            16 H    0.967
     3   6 C    3.997 --     2 C    1.010    18 H    0.986    17 H    0.986
                            19 H    0.984
     4   6 C    3.993 --     2 C    0.997     5 C    0.977    20 H    0.973
                            21 H    0.972
     5   6 C    3.954 --     7 C    0.989     6 O    0.980     4 C    0.977
                            22 H    0.957
     6   8 O    1.957 --     5 C    0.980    23 H    0.904
     7   6 C    3.988 --     8 C    1.413    12 C    1.413     5 C    0.989
                            10 C    0.110
     8   6 C    3.992 --     9 C    1.444     7 C    1.413    24 H    0.968
                            11 C    0.111
     9   6 C    3.993 --     8 C    1.444    10 C    1.439    25 H    0.971
                            12 C    0.111
    10   6 C    3.992 --     9 C    1.439    11 C    1.438    26 H    0.972
                             7 C    0.110
    11   6 C    3.992 --    12 C    1.446    10 C    1.438    27 H    0.971
                             8 C    0.111
    12   6 C    3.992 --    11 C    1.446     7 C    1.413    28 H    0.967
                             9 C    0.111
    13   1 H    0.998 --     1 C    0.987
    14   1 H    0.998 --     1 C    0.986
    15   1 H    0.999 --     1 C    0.987
    16   1 H    0.999 --     2 C    0.967
    17   1 H    0.999 --     3 C    0.986
    18   1 H    0.998 --     3 C    0.986
    19   1 H    0.999 --     3 C    0.984
    20   1 H    0.998 --     4 C    0.973
    21   1 H    0.996 --     4 C    0.972
    22   1 H    1.000 --     5 C    0.957
    23   1 H    0.919 --     6 O    0.904
    24   1 H    0.999 --     8 C    0.968
    25   1 H    0.999 --     9 C    0.971
    26   1 H    0.999 --    10 C    0.972
    27   1 H    0.999 --    11 C    0.971
    28   1 H    0.998 --    12 C    0.967
 ---------------------------------------------------------------------------

Topologies differ in total number of bonds
Writing topology from bond orders to xtbtopo.mol

molecular dipole:
                 x           y           z       tot (Debye)
 q only:        0.168       0.284      -0.131
   full:        0.389       0.346      -0.242       1.461
molecular quadrupole (traceless):
                xx          xy          yy          xz          yz          zz
 q only:        2.604      -2.380      -3.251       0.343       0.878       0.647
  q+dip:        2.002      -0.441      -4.882       1.372       1.152       2.880
   full:        2.919      -2.726      -4.351       0.530       1.511       1.433

           -------------------------------------------------
          |                Geometry Summary                 |
           -------------------------------------------------

      molecular mass/u    :      164.2445518
   center of mass at/Å    :        0.3977530      -0.1470600       0.1218057
  moments of inertia/u·Å² :        0.3746585E+03   0.8268745E+03   0.9456752E+03
rotational constants/cm⁻¹ :        0.4499466E-01   0.2038717E-01   0.1782603E-01

 * 27 selected distances

     #   Z          #   Z                                           value/Å
     1   6 C        2   6 C                                       1.5278936
     2   6 C        3   6 C                                       1.5270656
     2   6 C        4   6 C                                       1.5302885
     4   6 C        5   6 C                                       1.5354851 (max)
     5   6 C        6   8 O                                       1.4178574
     7   6 C        8   6 C                                       1.3884891
     8   6 C        9   6 C                                       1.3837472
     9   6 C       10   6 C                                       1.3844385
    10   6 C       11   6 C                                       1.3846902
     7   6 C       12   6 C                                       1.3893589
    11   6 C       12   6 C                                       1.3828448
     1   6 C       13   1 H                                       1.0879533
     1   6 C       14   1 H                                       1.0876509
     1   6 C       15   1 H                                       1.0874610
     2   6 C       16   1 H                                       1.0959825
     3   6 C       17   1 H                                       1.0878947
     3   6 C       18   1 H                                       1.0880097
     3   6 C       19   1 H                                       1.0865948
     4   6 C       20   1 H                                       1.0916026
     4   6 C       21   1 H                                       1.0914521
     5   6 C       22   1 H                                       1.1020252
     6   8 O       23   1 H                                       0.9631997 (min)
     8   6 C       24   1 H                                       1.0809793
     9   6 C       25   1 H                                       1.0803059
    10   6 C       26   1 H                                       1.0800915
    11   6 C       27   1 H                                       1.0802980
    12   6 C       28   1 H                                       1.0804551

 * 4 distinct bonds (by element types)

   Z      Z             #   av. dist./Å        max./Å        min./Å
   1 H    6 C          15     1.0872504     1.1020252     1.0800915
   6 C    6 C          10     1.4434302     1.5354851     1.3828448
   1 H    8 O           1     0.9631997     0.9631997     0.9631997
   6 C    8 O           1     1.4178574     1.4178574     1.4178574


optimized geometry written to: xtbopt.xyz


           -------------------------------------------------
          | TOTAL ENERGY              -35.769900904205 Eh   |
          | GRADIENT NORM               0.000140387388 Eh/α |
          | HOMO-LUMO GAP               4.640959081166 eV   |
           -------------------------------------------------

------------------------------------------------------------------------
 * finished run on 2026/07/08 at 08:00:54.944     
------------------------------------------------------------------------
 total:
 * wall-time:     0 d,  0 h,  0 min,  5.538 sec
 *  cpu-time:     0 d,  0 h,  1 min, 28.379 sec
 * ratio c/w:    15.958 speedup
 SCF:
 * wall-time:     0 d,  0 h,  0 min,  0.249 sec
 *  cpu-time:     0 d,  0 h,  0 min,  3.979 sec
 * ratio c/w:    15.999 speedup
 ANC optimizer:
 * wall-time:     0 d,  0 h,  0 min,  5.236 sec
 *  cpu-time:     0 d,  0 h,  1 min, 23.605 sec
 * ratio c/w:    15.967 speedup

