31
REP_00144 MMFF geometry for GFN2-xTB preoptimization
C   3.460302935689 -0.525019499644  1.565262108050
C   3.546899028360  0.802135208244  0.835195755404
O   2.244832705368  1.195610004780  0.373365093931
C   1.866072904714  0.697851192151 -0.842488504973
O   2.556418362218 -0.035189617763 -1.535638537247
C   0.463810091971  1.168983825356 -1.170040750225
C   0.208323948682  1.047075385058 -2.612993133974
N  -0.040685663124  0.986325618692 -3.745395364858
C  -0.580641564972  0.425503861100 -0.301261927718
C  -0.665868082522 -1.085134791334 -0.598368178368
C  -1.694037036368 -1.777164257758  0.295637150710
C  -3.066547866391 -1.121151384973  0.189139747904
C  -2.996472078662  0.374145147923  0.479942582050
C  -1.973752542899  1.074525804007 -0.412639937329
H   4.434728874152 -0.807581751158  1.973453326417
H   3.117529416776 -1.320473279818  0.895999035145
H   2.736919765583 -0.465948728754  2.385165278497
H   4.267165434182  0.762111794861  0.010169520000
H   3.889855820673  1.580395628438  1.524719045704
H   0.432179614713  2.240621951098 -0.928337528031
H  -0.266931620931  0.525630706436  0.748295599283
H  -0.941064591870 -1.254149675722 -1.646420640978
H   0.310189303002 -1.558929994732 -0.443584863961
H  -1.352405402044 -1.743838186464  1.337545787103
H  -1.769215270179 -2.834781648021  0.018582998238
H  -3.760019491459 -1.600927001596  0.888904195361
H  -3.469357057989 -1.278696049308 -0.818955673535
H  -2.729650969957  0.529979050324  1.532491268363
H  -3.984218160350  0.824913836355  0.331348919004
H  -1.915949790745  2.132167031588 -0.129025997360
H  -2.328411015622  1.041009820635 -1.450067646888
