      -----------------------------------------------------------      
     |                   =====================                   |     
     |                           x T B                           |     
     |                   =====================                   |     
     |                         S. Grimme                         |     
     |          Mulliken Center for Theoretical Chemistry        |     
     |                    University of Bonn                     |     
      -----------------------------------------------------------      

   * xtb version 6.7.1 (edcfbbe) compiled by 'conda@5dfe00f5fb80' on 2026-06-10

   xtb is free software: you can redistribute it and/or modify it under
   the terms of the GNU Lesser General Public License as published by
   the Free Software Foundation, either version 3 of the License, or
   (at your option) any later version.
   
   xtb is distributed in the hope that it will be useful,
   but WITHOUT ANY WARRANTY; without even the implied warranty of
   MERCHANTABILITY or FITNESS FOR A PARTICULAR PURPOSE.  See the
   GNU Lesser General Public License for more details.
   
   Cite this work as:
   * C. Bannwarth, E. Caldeweyher, S. Ehlert, A. Hansen, P. Pracht,
     J. Seibert, S. Spicher, S. Grimme, WIREs Comput. Mol. Sci., 2020, 11,
     e01493. DOI: 10.1002/wcms.1493
   
   for GFN2-xTB:
   * C. Bannwarth, S. Ehlert and S. Grimme., J. Chem. Theory Comput., 2019,
     15, 1652-1671. DOI: 10.1021/acs.jctc.8b01176
   for GFN1-xTB:
   * S. Grimme, C. Bannwarth, P. Shushkov, J. Chem. Theory Comput., 2017,
     13, 1989-2009. DOI: 10.1021/acs.jctc.7b00118
   for GFN0-xTB:
   * P. Pracht, E. Caldeweyher, S. Ehlert, S. Grimme, ChemRxiv, 2019, preprint.
     DOI: 10.26434/chemrxiv.8326202.v1
   for GFN-FF:
   * S. Spicher and S. Grimme, Angew. Chem. Int. Ed., 2020, 59, 15665-15673.
     DOI: 10.1002/anie.202004239
   
   for ALPB and GBSA implicit solvation:
   * S. Ehlert, M. Stahn, S. Spicher, S. Grimme, J. Chem. Theory Comput.,
     2021, 17, 4250-4261. DOI: 10.1021/acs.jctc.1c00471
   
   for ddCOSMO and CPCM-X implicit solvation:
   * M. Stahn, S. Ehlert, S. Grimme, J. Phys. Chem. A,
     2023, XX, XXXX-XXXX. DOI: 10.1021/acs.jpca.3c04382
   
   for DFT-D4:
   * E. Caldeweyher, C. Bannwarth and S. Grimme, J. Chem. Phys., 2017,
     147, 034112. DOI: 10.1063/1.4993215
   * E. Caldeweyher, S. Ehlert, A. Hansen, H. Neugebauer, S. Spicher,
     C. Bannwarth and S. Grimme, J. Chem. Phys., 2019, 150, 154122.
     DOI: 10.1063/1.5090222
   * E. Caldeweyher, J.-M. Mewes, S. Ehlert and S. Grimme, Phys. Chem. Chem. Phys.
     2020, 22, 8499-8512. DOI: 10.1039/D0CP00502A
   
   for sTDA-xTB:
   * S. Grimme and C. Bannwarth, J. Chem. Phys., 2016, 145, 054103.
     DOI: 10.1063/1.4959605
   
   in the mass-spec context:
   * V. Asgeirsson, C. Bauer and S. Grimme, Chem. Sci., 2017, 8, 4879.
     DOI: 10.1039/c7sc00601b
   * J. Koopman and S. Grimme, ACS Omega 2019, 4, 12, 15120-15133.
     DOI: 10.1021/acsomega.9b02011
   
   for metadynamics refer to:
   * S. Grimme, J. Chem. Theory Comput., 2019, 155, 2847-2862
     DOI: 10.1021/acs.jctc.9b00143
   
   for SPH calculations refer to:
   * S. Spicher and S. Grimme, J. Chem. Theory Comput., 2021, 17, 1701-1714
     DOI: 10.1021/acs.jctc.0c01306
   
   for ONIOM refer to:
   * C. Plett, A. Katbashev, S. Ehlert, S. Grimme, M. Bursch,
     Phys. Chem. Chem. Phys., 2023, 25, 17860-17868. DOI: 10.1039/D3CP02178E
   
   for DIPRO refer to:
   * J. Kohn, N. Gildemeister, S. Grimme, D. Fazzi, A. Hansen,
     J. Chem. Phys., 2023, just accepted.
   
   for PTB refer to:
   * S. Grimme, M. Mueller, A. Hansen, J. Chem. Phys., 2023, 158, 124111.
     DOI: 10.1063/5.0137838
   
   with help from (in alphabetical order)
   P. Atkinson, C. Bannwarth, F. Bohle, G. Brandenburg, E. Caldeweyher
   M. Checinski, S. Dohm, S. Ehlert, S. Ehrlich, I. Gerasimov, C. Hölzer
   A. Katbashev, J. Kohn, J. Koopman, C. Lavigne, S. Lehtola, F. März, M. Müller,
   F. Musil, H. Neugebauer, J. Pisarek, C. Plett, P. Pracht, F. Pultar,
   J. Seibert, P. Shushkov, S. Spicher, M. Stahn, M. Steiner, T. Strunk,
   J. Stückrath, T. Rose, and J. Unsleber
   
 * started run on 2026/07/07 at 15:01:18.178     
   ID    Z sym.   atoms
    1    6 C      1, 2, 4, 6, 7, 9-14
    2    8 O      3, 5
    3    7 N      8
    4    1 H      15-31

           -------------------------------------------------
          |                Calculation Setup                |
           -------------------------------------------------

          program call               : /home/ws/xd2484/miniforge3/envs/p3z_dft/bin/xtb xtb_input.xyz --gfn 2 --opt tight --cycles 500 --chrg 0 --uhf 0
          hostname                   : gpu10
          coordinate file            : xtb_input.xyz
          omp threads                :                    16


           -------------------------------------------------
          |                 G F N 2 - x T B                 |
           -------------------------------------------------

        Reference                      10.1021/acs.jctc.8b01176
      * Hamiltonian:
        H0-scaling (s, p, d)           1.850000    2.230000    2.230000
        zeta-weighting                 0.500000
      * Dispersion:
        s8                             2.700000
        a1                             0.520000
        a2                             5.000000
        s9                             5.000000
      * Repulsion:
        kExp                           1.500000    1.000000
        rExp                           1.000000
      * Coulomb:
        alpha                          2.000000
        third order                    shell-resolved
        anisotropic                    true
        a3                             3.000000
        a5                             4.000000
        cn-shift                       1.200000
        cn-exp                         4.000000
        max-rad                        5.000000


          ...................................................
          :                      SETUP                      :
          :.................................................:
          :  # basis functions                  73          :
          :  # atomic orbitals                  73          :
          :  # shells                           45          :
          :  # electrons                        78          :
          :  max. iterations                   250          :
          :  Hamiltonian                  GFN2-xTB          :
          :  restarted?                      false          :
          :  GBSA solvation                  false          :
          :  PC potential                    false          :
          :  electronic temp.          300.0000000     K    :
          :  accuracy                    1.0000000          :
          :  -> integral cutoff          0.2500000E+02      :
          :  -> integral neglect         0.1000000E-07      :
          :  -> SCF convergence          0.1000000E-05 Eh   :
          :  -> wf. convergence          0.1000000E-03 e    :
          :  Broyden damping             0.4000000          :
          :  net charge                          0          :
          :  unpaired electrons                  0          :
          ...................................................

 iter      E             dE          RMSdq      gap      omega  full diag
   1    -43.7366578 -0.437367E+02  0.429E+00    4.96       0.0  T
   2    -43.8100385 -0.733807E-01  0.251E+00    4.37       1.0  T
   3    -43.7986638  0.113747E-01  0.154E+00    4.68       1.0  T
   4    -43.8204022 -0.217384E-01  0.739E-01    4.55       1.0  T
   5    -43.8313991 -0.109969E-01  0.150E-01    4.40       1.0  T
   6    -43.8315705 -0.171376E-03  0.805E-02    4.46       1.0  T
   7    -43.8316274 -0.569559E-04  0.174E-02    4.46       1.0  T
   8    -43.8316289 -0.144485E-05  0.720E-03    4.47       2.5  T
   9    -43.8316291 -0.251004E-06  0.203E-03    4.46       8.9  T
  10    -43.8316291 -0.132897E-07  0.813E-04    4.46      22.1  T
  11    -43.8316291 -0.254597E-08  0.304E-04    4.46      59.1  T

   *** convergence criteria satisfied after 11 iterations ***

         #    Occupation            Energy/Eh            Energy/eV
      -------------------------------------------------------------
         1        2.0000           -0.7534110             -20.5014
       ...           ...                  ...                  ...
        33        2.0000           -0.4536547             -12.3446
        34        2.0000           -0.4489354             -12.2162
        35        2.0000           -0.4391539             -11.9500
        36        2.0000           -0.4320539             -11.7568
        37        2.0000           -0.4306435             -11.7184
        38        2.0000           -0.4263788             -11.6024
        39        2.0000           -0.4218101             -11.4780 (HOMO)
        40                         -0.2577640              -7.0141 (LUMO)
        41                         -0.2218489              -6.0368
        42                         -0.2180610              -5.9337
        43                         -0.0183113              -0.4983
        44                          0.0340307               0.9260
       ...                                ...                  ...
        73                          1.0311259              28.0584
      -------------------------------------------------------------
                  HL-Gap            0.1640462 Eh            4.4639 eV
             Fermi-level           -0.3397870 Eh           -9.2461 eV

 SCC (total)                   0 d,  0 h,  0 min,  0.327 sec
 SCC setup                      ...        0 min,  0.005 sec (  1.502%)
 Dispersion                     ...        0 min,  0.012 sec (  3.622%)
 classical contributions        ...        0 min,  0.006 sec (  1.769%)
 integral evaluation            ...        0 min,  0.019 sec (  5.771%)
 iterations                     ...        0 min,  0.234 sec ( 71.700%)
 molecular gradient             ...        0 min,  0.051 sec ( 15.561%)
 printout                       ...        0 min,  0.000 sec (  0.066%)

         :::::::::::::::::::::::::::::::::::::::::::::::::::::
         ::                     SUMMARY                     ::
         :::::::::::::::::::::::::::::::::::::::::::::::::::::
         :: total energy             -43.277328172213 Eh    ::
         :: gradient norm              0.083648536283 Eh/a0 ::
         :: HOMO-LUMO gap              4.463923045343 eV    ::
         ::.................................................::
         :: SCC energy               -43.831310080634 Eh    ::
         :: -> isotropic ES            0.053821318701 Eh    ::
         :: -> anisotropic ES          0.004794804435 Eh    ::
         :: -> anisotropic XC          0.029335125543 Eh    ::
         :: -> dispersion             -0.026064759694 Eh    ::
         :: repulsion energy           0.553981908421 Eh    ::
         :: add. restraining           0.000000000000 Eh    ::
         :: total charge               0.000000000000 e     ::
         :::::::::::::::::::::::::::::::::::::::::::::::::::::

      ----------------------------------------------------------- 
     |                   =====================                   |
     |                        A N C O P T                        |
     |                   =====================                   |
     |               Approximate Normal Coordinate               |
     |                Rational Function Optimizer                |
      ----------------------------------------------------------- 
      ----------------------------------------------------------- 
     |                   =====================                   |
     |                        A N C O P T                        |
     |                   =====================                   |
     |               Approximate Normal Coordinate               |
     |                Rational Function Optimizer                |
      ----------------------------------------------------------- 

          ...................................................
          :                      SETUP                      :
          :.................................................:
          :   optimization level             tight          :
          :   max. optcycles                   500          :
          :   ANC micro-cycles                  20          :
          :   degrees of freedom                87          :
          :.................................................:
          :   RF solver                   davidson          :
          :   write xtbopt.log                true          :
          :   linear?                        false          :
          :   energy convergence         0.1000000E-05 Eh   :
          :   grad. convergence          0.8000000E-03 Eh/α :
          :   maxmium RF displ.          1.0000000          :
          :   Hlow (freq-cutoff)         0.1000000E-01      :
          :   Hmax (freq-cutoff)         5.0000000          :
          :   S6 in model hess.         20.0000000          :
          ...................................................

generating ANC from exact Hessian ...
Using Lindh-Hessian (1995)
 Shifting diagonal of input Hessian by    9.5024411334867168E-003
 Lowest  eigenvalues of input Hessian
    0.000000    0.000000    0.000000    0.000000    0.000000    0.000000
    0.010000    0.010391    0.011139    0.011482    0.013312    0.014669
    0.015631    0.017963    0.018578    0.020651    0.023650    0.026639
 Highest eigenvalues
    1.268678    1.271823    1.289154    1.670732    2.241874    2.448516


........................................................................
.............................. CYCLE    1 ..............................
........................................................................

 iter      E             dE          RMSdq      gap      omega  full diag
   1    -43.8316291 -0.438316E+02  0.119E-04    4.46       0.0  T
   2    -43.8316291 -0.476490E-10  0.734E-05    4.46     244.6  T
   3    -43.8316291 -0.986233E-11  0.373E-05    4.46     482.0  T
     SCC iter.                  ...        0 min,  0.050 sec
     gradient                   ...        0 min,  0.039 sec
 * total energy  :   -43.2773282 Eh     change       -0.4224816E-09 Eh
   gradient norm :     0.0836529 Eh/α   predicted     0.0000000E+00 (-100.00%)
   displ. norm   :     0.2464207 α      lambda       -0.8285419E-02
   maximum displ.:     0.1125974 α      in ANC's #13, #15, #17, ...

........................................................................
.............................. CYCLE    2 ..............................
........................................................................

 iter      E             dE          RMSdq      gap      omega  full diag
   1    -43.8675712 -0.438676E+02  0.200E-01    4.73       0.0  T
   2    -43.8676557 -0.845365E-04  0.122E-01    4.67       1.0  T
   3    -43.8676076  0.481426E-04  0.791E-02    4.69       1.0  T
   4    -43.8677002 -0.925765E-04  0.223E-02    4.68       1.0  T
   5    -43.8677111 -0.109502E-04  0.462E-03    4.67       3.9  T
   6    -43.8677112 -0.529009E-07  0.216E-03    4.68       8.3  T
   7    -43.8677112 -0.221958E-07  0.653E-04    4.67      27.5  T
   8    -43.8677112 -0.187098E-08  0.248E-04    4.67      72.3  T
     SCC iter.                  ...        0 min,  0.119 sec
     gradient                   ...        0 min,  0.055 sec
 * total energy  :   -43.2820339 Eh     change       -0.4705724E-02 Eh
   gradient norm :     0.0243813 Eh/α   predicted    -0.4396677E-02 (  -6.57%)
   displ. norm   :     0.2375959 α      lambda       -0.1562302E-02
   maximum displ.:     0.1482786 α      in ANC's #4, #5, #13, ...

........................................................................
.............................. CYCLE    3 ..............................
........................................................................

 iter      E             dE          RMSdq      gap      omega  full diag
   1    -43.8749466 -0.438749E+02  0.289E-01    4.76       0.0  T
   2    -43.8749991 -0.525403E-04  0.162E-01    4.74       1.0  T
   3    -43.8749792  0.199117E-04  0.378E-02    4.75       1.0  T
   4    -43.8750147 -0.354671E-04  0.123E-02    4.74       1.5  T
   5    -43.8750177 -0.304166E-05  0.376E-03    4.74       4.8  T
   6    -43.8750178 -0.747671E-07  0.961E-04    4.74      18.7  T
   7    -43.8750178 -0.284928E-08  0.332E-04    4.74      54.1  T
     SCC iter.                  ...        0 min,  0.172 sec
     gradient                   ...        0 min,  0.046 sec
 * total energy  :   -43.2826598 Eh     change       -0.6259025E-03 Eh
   gradient norm :     0.0145362 Eh/α   predicted    -0.8255389E-03 (  31.90%)
   displ. norm   :     0.1532143 α      lambda       -0.8607962E-03
   maximum displ.:     0.0908493 α      in ANC's #13, #15, #10, ...

........................................................................
.............................. CYCLE    4 ..............................
........................................................................

 iter      E             dE          RMSdq      gap      omega  full diag
   1    -43.8762654 -0.438763E+02  0.131E-01    4.76       0.0  T
   2    -43.8762792 -0.138293E-04  0.751E-02    4.75       1.0  T
   3    -43.8762602  0.189708E-04  0.301E-02    4.76       1.0  T
   4    -43.8762829 -0.226901E-04  0.784E-03    4.75       2.3  T
   5    -43.8762843 -0.132822E-05  0.212E-03    4.75       8.5  T
   6    -43.8762843 -0.269416E-07  0.965E-04    4.75      18.6  T
   7    -43.8762843 -0.293348E-08  0.224E-04    4.75      80.1  T
     SCC iter.                  ...        0 min,  0.108 sec
     gradient                   ...        0 min,  0.043 sec
 * total energy  :   -43.2830257 Eh     change       -0.3659100E-03 Eh
   gradient norm :     0.0079461 Eh/α   predicted    -0.4405027E-03 (  20.39%)
   displ. norm   :     0.0747959 α      lambda       -0.1992719E-03
   maximum displ.:     0.0407505 α      in ANC's #4, #11, #5, ...

........................................................................
.............................. CYCLE    5 ..............................
........................................................................

 iter      E             dE          RMSdq      gap      omega  full diag
   1    -43.8740147 -0.438740E+02  0.737E-02    4.71       0.0  T
   2    -43.8740179 -0.316732E-05  0.414E-02    4.72       1.0  T
   3    -43.8740163  0.159227E-05  0.102E-02    4.72       1.8  T
   4    -43.8740189 -0.254163E-05  0.323E-03    4.72       5.6  T
   5    -43.8740190 -0.174876E-06  0.119E-03    4.72      15.1  T
   6    -43.8740190 -0.765075E-08  0.388E-04    4.72      46.3  T
   7    -43.8740190 -0.551942E-09  0.135E-04    4.72     132.7  T
     SCC iter.                  ...        0 min,  0.096 sec
     gradient                   ...        0 min,  0.037 sec
 * total energy  :   -43.2831556 Eh     change       -0.1299351E-03 Eh
   gradient norm :     0.0030267 Eh/α   predicted    -0.1001950E-03 ( -22.89%)
   displ. norm   :     0.0809314 α      lambda       -0.6811244E-04
   maximum displ.:     0.0397960 α      in ANC's #11, #4, #3, ...

........................................................................
.............................. CYCLE    6 ..............................
........................................................................

 iter      E             dE          RMSdq      gap      omega  full diag
   1    -43.8735146 -0.438735E+02  0.566E-02    4.71       0.0  T
   2    -43.8735158 -0.111654E-05  0.320E-02    4.71       1.0  T
   3    -43.8735162 -0.417318E-06  0.213E-03    4.71       8.4  T
   4    -43.8735162 -0.117645E-07  0.111E-03    4.71      16.2  T
   5    -43.8735162 -0.157861E-08  0.480E-04    4.71      37.4  T
   6    -43.8735162 -0.383270E-08  0.195E-04    4.71      92.3  T
     SCC iter.                  ...        0 min,  0.069 sec
     gradient                   ...        0 min,  0.036 sec
 * total energy  :   -43.2832005 Eh     change       -0.4488660E-04 Eh
   gradient norm :     0.0029024 Eh/α   predicted    -0.3429049E-04 ( -23.61%)
   displ. norm   :     0.0651844 α      lambda       -0.3050587E-04
   maximum displ.:     0.0326390 α      in ANC's #3, #11, #6, ...

........................................................................
.............................. CYCLE    7 ..............................
........................................................................

 iter      E             dE          RMSdq      gap      omega  full diag
   1    -43.8738921 -0.438739E+02  0.298E-02    4.71       0.0  T
   2    -43.8738924 -0.272260E-06  0.173E-02    4.71       1.0  T
   3    -43.8738924  0.238453E-07  0.248E-03    4.71       7.2  T
   4    -43.8738925 -0.101868E-06  0.120E-03    4.71      15.0  T
   5    -43.8738925 -0.191963E-07  0.580E-04    4.71      31.0  T
   6    -43.8738925 -0.224777E-08  0.187E-04    4.71      96.1  T
     SCC iter.                  ...        0 min,  0.074 sec
     gradient                   ...        0 min,  0.042 sec
 * total energy  :   -43.2832225 Eh     change       -0.2199892E-04 Eh
   gradient norm :     0.0020835 Eh/α   predicted    -0.1532027E-04 ( -30.36%)
   displ. norm   :     0.0783309 α      lambda       -0.2737836E-04
   maximum displ.:     0.0447133 α      in ANC's #3, #11, #6, ...

........................................................................
.............................. CYCLE    8 ..............................
........................................................................

 iter      E             dE          RMSdq      gap      omega  full diag
   1    -43.8741932 -0.438742E+02  0.333E-02    4.71       0.0  T
   2    -43.8741934 -0.252563E-06  0.195E-02    4.71       1.0  T
   3    -43.8741935 -0.292210E-07  0.200E-03    4.71       9.0  T
   4    -43.8741935 -0.405853E-07  0.122E-03    4.71      14.7  T
   5    -43.8741935 -0.187307E-07  0.641E-04    4.71      28.0  T
   6    -43.8741935 -0.272168E-08  0.218E-04    4.71      82.4  T
     SCC iter.                  ...        0 min,  0.112 sec
     gradient                   ...        0 min,  0.051 sec
 * total energy  :   -43.2832429 Eh     change       -0.2036607E-04 Eh
   gradient norm :     0.0016992 Eh/α   predicted    -0.1377335E-04 ( -32.37%)
   displ. norm   :     0.1391135 α      lambda       -0.2723922E-04
   maximum displ.:     0.0831791 α      in ANC's #3, #5, #6, ...

........................................................................
.............................. CYCLE    9 ..............................
........................................................................

 iter      E             dE          RMSdq      gap      omega  full diag
   1    -43.8745693 -0.438746E+02  0.599E-02    4.71       0.0  T
   2    -43.8745702 -0.886730E-06  0.348E-02    4.71       1.0  T
   3    -43.8745705 -0.290154E-06  0.257E-03    4.71       7.0  T
   4    -43.8745705 -0.119624E-07  0.155E-03    4.71      11.6  T
   5    -43.8745705  0.445610E-08  0.105E-03    4.71      17.0  T
   6    -43.8745705 -0.177558E-07  0.269E-04    4.71      66.7  T
   7    -43.8745705 -0.814005E-09  0.108E-04    4.71     166.1  T
     SCC iter.                  ...        0 min,  0.105 sec
     gradient                   ...        0 min,  0.038 sec
 * total energy  :   -43.2832688 Eh     change       -0.2585794E-04 Eh
   gradient norm :     0.0020244 Eh/α   predicted    -0.1373786E-04 ( -46.87%)
   displ. norm   :     0.0542916 α      lambda       -0.1576702E-04
   maximum displ.:     0.0328192 α      in ANC's #3, #5, #8, ...

........................................................................
.............................. CYCLE   10 ..............................
........................................................................

 iter      E             dE          RMSdq      gap      omega  full diag
   1    -43.8745263 -0.438745E+02  0.242E-02    4.71       0.0  T
   2    -43.8745265 -0.175757E-06  0.141E-02    4.71       1.3  T
   3    -43.8745264  0.235854E-07  0.206E-03    4.71       8.7  T
   4    -43.8745265 -0.834831E-07  0.896E-04    4.71      20.1  T
   5    -43.8745265 -0.719752E-08  0.512E-04    4.71      35.1  T
     SCC iter.                  ...        0 min,  0.064 sec
     gradient                   ...        0 min,  0.037 sec
 * total energy  :   -43.2832815 Eh     change       -0.1274145E-04 Eh
   gradient norm :     0.0012179 Eh/α   predicted    -0.7911594E-05 ( -37.91%)
   displ. norm   :     0.1468922 α      lambda       -0.2142873E-04
   maximum displ.:     0.0918208 α      in ANC's #3, #5, #8, ...

........................................................................
.............................. CYCLE   11 ..............................
........................................................................

 iter      E             dE          RMSdq      gap      omega  full diag
   1    -43.8742324 -0.438742E+02  0.643E-02    4.70       0.0  T
   2    -43.8742336 -0.119643E-05  0.371E-02    4.70       1.0  T
   3    -43.8742338 -0.262588E-06  0.383E-03    4.70       4.7  T
   4    -43.8742340 -0.182676E-06  0.223E-03    4.70       8.1  T
   5    -43.8742340 -0.390470E-07  0.116E-03    4.70      15.5  T
   6    -43.8742341 -0.149493E-07  0.327E-04    4.70      54.9  T
   7    -43.8742341 -0.961549E-09  0.140E-04    4.70     128.2  T
     SCC iter.                  ...        0 min,  0.085 sec
     gradient                   ...        0 min,  0.038 sec
 * total energy  :   -43.2832961 Eh     change       -0.1459967E-04 Eh
   gradient norm :     0.0013798 Eh/α   predicted    -0.1081888E-04 ( -25.90%)
   displ. norm   :     0.1481532 α      lambda        0.2986482E-04
   maximum displ.:     0.0928232 α      in ANC's #3, #5, #8, ...

........................................................................
.............................. CYCLE   12 ..............................
........................................................................

 iter      E             dE          RMSdq      gap      omega  full diag
   1    -43.8733794 -0.438734E+02  0.647E-02    4.68       0.0  T
   2    -43.8733806 -0.117659E-05  0.374E-02    4.68       1.0  T
   3    -43.8733808 -0.184156E-06  0.420E-03    4.68       4.3  T
   4    -43.8733810 -0.253716E-06  0.236E-03    4.68       7.6  T
   5    -43.8733811 -0.582222E-07  0.102E-03    4.68      17.7  T
   6    -43.8733811 -0.757003E-08  0.262E-04    4.68      68.5  T
   7    -43.8733811 -0.351356E-09  0.125E-04    4.68     143.7  T
     SCC iter.                  ...        0 min,  0.095 sec
     gradient                   ...        0 min,  0.036 sec
 * total energy  :   -43.2832724 Eh     change        0.2368815E-04 Eh
   gradient norm :     0.0037913 Eh/α   predicted     0.1507647E-04 ( -36.35%)
   displ. norm   :     0.0930783 α      lambda       -0.3743175E-04
   maximum displ.:     0.0516047 α      in ANC's #3, #5, #8, ...

........................................................................
.............................. CYCLE   13 ..............................
........................................................................

 iter      E             dE          RMSdq      gap      omega  full diag
   1    -43.8740855 -0.438741E+02  0.445E-02    4.70       0.0  T
   2    -43.8740861 -0.585914E-06  0.255E-02    4.69       1.0  T
   3    -43.8740860  0.101248E-06  0.401E-03    4.69       4.5  T
   4    -43.8740863 -0.353639E-06  0.155E-03    4.69      11.6  T
   5    -43.8740863 -0.169200E-07  0.682E-04    4.69      26.3  T
   6    -43.8740863 -0.403482E-08  0.167E-04    4.69     107.5  T
     SCC iter.                  ...        0 min,  0.076 sec
     gradient                   ...        0 min,  0.034 sec
 * total energy  :   -43.2832980 Eh     change       -0.2555800E-04 Eh
   gradient norm :     0.0016587 Eh/α   predicted    -0.1887867E-04 ( -26.13%)
   displ. norm   :     0.0754498 α      lambda       -0.1221172E-04
   maximum displ.:     0.0509655 α      in ANC's #5, #3, #8, ...

........................................................................
.............................. CYCLE   14 ..............................
........................................................................

 iter      E             dE          RMSdq      gap      omega  full diag
   1    -43.8744091 -0.438744E+02  0.356E-02    4.70       0.0  T
   2    -43.8744095 -0.406308E-06  0.204E-02    4.70       1.0  T
   3    -43.8744093  0.270399E-06  0.428E-03    4.70       4.2  T
   4    -43.8744097 -0.456813E-06  0.120E-03    4.70      14.9  T
   5    -43.8744097 -0.955044E-08  0.497E-04    4.70      36.1  T
   6    -43.8744097 -0.147175E-08  0.120E-04    4.70     149.3  T
     SCC iter.                  ...        0 min,  0.071 sec
     gradient                   ...        0 min,  0.035 sec
 * total energy  :   -43.2833065 Eh     change       -0.8551679E-05 Eh
   gradient norm :     0.0003409 Eh/α   predicted    -0.6123892E-05 ( -28.39%)
   displ. norm   :     0.0368290 α      lambda       -0.3776880E-05
   maximum displ.:     0.0230499 α      in ANC's #3, #1, #4, ...

........................................................................
.............................. CYCLE   15 ..............................
........................................................................

 iter      E             dE          RMSdq      gap      omega  full diag
   1    -43.8747481 -0.438747E+02  0.124E-02    4.71       0.0  T
   2    -43.8747482 -0.824418E-07  0.708E-03    4.70       2.5  T
   3    -43.8747482  0.118980E-07  0.133E-03    4.70      13.5  T
   4    -43.8747482 -0.368241E-07  0.475E-04    4.70      37.8  T
   5    -43.8747482 -0.227871E-08  0.274E-04    4.70      65.6  T
     SCC iter.                  ...        0 min,  0.094 sec
     gradient                   ...        0 min,  0.033 sec
 * total energy  :   -43.2833110 Eh     change       -0.4447335E-05 Eh
   gradient norm :     0.0010368 Eh/α   predicted    -0.1890534E-05 ( -57.49%)
   displ. norm   :     0.1056529 α      lambda       -0.9703523E-05
   maximum displ.:     0.0697915 α      in ANC's #3, #1, #2, ...

........................................................................
.............................. CYCLE   16 ..............................
........................................................................

 iter      E             dE          RMSdq      gap      omega  full diag
   1    -43.8746097 -0.438746E+02  0.359E-02    4.70       0.0  T
   2    -43.8746101 -0.422967E-06  0.207E-02    4.70       1.0  T
   3    -43.8746102 -0.449631E-07  0.233E-03    4.70       7.7  T
   4    -43.8746103 -0.746622E-07  0.139E-03    4.70      12.9  T
   5    -43.8746103 -0.304218E-07  0.567E-04    4.70      31.7  T
   6    -43.8746103 -0.141888E-08  0.144E-04    4.70     125.0  T
     SCC iter.                  ...        0 min,  0.113 sec
     gradient                   ...        0 min,  0.030 sec
 * total energy  :   -43.2833237 Eh     change       -0.1269578E-04 Eh
   gradient norm :     0.0009915 Eh/α   predicted    -0.4879167E-05 ( -61.57%)
   displ. norm   :     0.2039323 α      lambda       -0.1699225E-04
   maximum displ.:     0.1298992 α      in ANC's #3, #1, #2, ...

........................................................................
.............................. CYCLE   17 ..............................
........................................................................

 iter      E             dE          RMSdq      gap      omega  full diag
   1    -43.8736488 -0.438736E+02  0.634E-02    4.68       0.0  T
   2    -43.8736499 -0.101296E-05  0.365E-02    4.68       1.0  T
   3    -43.8736502 -0.359609E-06  0.283E-03    4.68       6.3  T
   4    -43.8736503 -0.605275E-07  0.161E-03    4.68      11.1  T
   5    -43.8736503  0.594646E-09  0.828E-04    4.68      21.7  T
   6    -43.8736503 -0.142623E-07  0.243E-04    4.68      74.0  T
     SCC iter.                  ...        0 min,  0.081 sec
     gradient                   ...        0 min,  0.036 sec
 * total energy  :   -43.2833434 Eh     change       -0.1972071E-04 Eh
   gradient norm :     0.0015449 Eh/α   predicted    -0.8654066E-05 ( -56.12%)
   displ. norm   :     0.2820291 α      lambda       -0.1904634E-04
   maximum displ.:     0.1817058 α      in ANC's #3, #1, #2, ...

........................................................................
.............................. CYCLE   18 ..............................
........................................................................

 iter      E             dE          RMSdq      gap      omega  full diag
   1    -43.8725790 -0.438726E+02  0.879E-02    4.66       0.0  T
   2    -43.8725809 -0.189744E-05  0.509E-02    4.66       1.0  T
   3    -43.8725815 -0.627814E-06  0.394E-03    4.66       4.6  T
   4    -43.8725816 -0.119751E-06  0.226E-03    4.66       8.0  T
   5    -43.8725816  0.112617E-08  0.130E-03    4.66      13.8  T
   6    -43.8725816 -0.317075E-07  0.371E-04    4.66      48.5  T
   7    -43.8725816 -0.121170E-08  0.179E-04    4.66     100.5  T
     SCC iter.                  ...        0 min,  0.076 sec
     gradient                   ...        0 min,  0.034 sec
 * total energy  :   -43.2833598 Eh     change       -0.1643517E-04 Eh
   gradient norm :     0.0040852 Eh/α   predicted    -0.9860327E-05 ( -40.00%)
   displ. norm   :     0.0834168 α      lambda       -0.1758853E-04
   maximum displ.:     0.0479826 α      in ANC's #1, #3, #2, ...

........................................................................
.............................. CYCLE   19 ..............................
........................................................................

 iter      E             dE          RMSdq      gap      omega  full diag
   1    -43.8730630 -0.438731E+02  0.197E-02    4.67       0.0  T
   2    -43.8730632 -0.143094E-06  0.114E-02    4.67       1.6  T
   3    -43.8730631  0.134023E-07  0.166E-03    4.67      10.8  T
   4    -43.8730632 -0.548046E-07  0.668E-04    4.67      26.9  T
   5    -43.8730632 -0.216647E-08  0.416E-04    4.67      43.1  T
     SCC iter.                  ...        0 min,  0.083 sec
     gradient                   ...        0 min,  0.038 sec
 * total energy  :   -43.2833752 Eh     change       -0.1534904E-04 Eh
   gradient norm :     0.0028351 Eh/α   predicted    -0.8855946E-05 ( -42.30%)
   displ. norm   :     0.2278487 α      lambda       -0.4461015E-04
   maximum displ.:     0.1311906 α      in ANC's #3, #1, #2, ...

........................................................................
.............................. CYCLE   20 ..............................
........................................................................

 iter      E             dE          RMSdq      gap      omega  full diag
   1    -43.8742426 -0.438742E+02  0.592E-02    4.67       0.0  T
   2    -43.8742434 -0.789262E-06  0.344E-02    4.67       1.0  T
   3    -43.8742436 -0.199195E-06  0.288E-03    4.67       6.2  T
   4    -43.8742437 -0.985577E-07  0.142E-03    4.67      12.7  T
   5    -43.8742437 -0.327564E-08  0.497E-04    4.67      36.1  T
   6    -43.8742437 -0.157678E-08  0.289E-04    4.67      62.1  T
     SCC iter.                  ...        0 min,  0.080 sec
     gradient                   ...        0 min,  0.037 sec
 * total energy  :   -43.2834110 Eh     change       -0.3587409E-04 Eh
   gradient norm :     0.0008171 Eh/α   predicted    -0.2346406E-04 ( -34.59%)
   displ. norm   :     0.7143938 α      lambda       -0.6125571E-04
   maximum displ.:     0.4333666 α      in ANC's #3, #1, #2, ...
 * RMSD in coord.:     0.3630554 α      energy gain  -0.6082866E-02 Eh

generating ANC from exact Hessian ...
Using Lindh-Hessian (1995)
 Shifting diagonal of input Hessian by    9.5009885936624804E-003
 Lowest  eigenvalues of input Hessian
    0.000000    0.000000    0.000000    0.000000    0.000000    0.000000
    0.010000    0.010394    0.011234    0.012162    0.013734    0.014282
    0.016719    0.018242    0.018903    0.022573    0.024087    0.027382
 Highest eigenvalues
    1.277133    1.283365    1.296589    1.765546    2.371408    2.571651


........................................................................
.............................. CYCLE   21 ..............................
........................................................................

 iter      E             dE          RMSdq      gap      omega  full diag
   1    -43.8700370 -0.438700E+02  0.195E-01    4.62       0.0  T
   2    -43.8700445 -0.754090E-05  0.113E-01    4.62       1.0  T
   3    -43.8700460 -0.152038E-05  0.103E-02    4.62       1.7  T
   4    -43.8700473 -0.131031E-05  0.604E-03    4.62       3.0  T
   5    -43.8700476 -0.310156E-06  0.286E-03    4.62       6.3  T
   6    -43.8700477 -0.985315E-07  0.769E-04    4.62      23.4  T
   7    -43.8700477 -0.409803E-08  0.362E-04    4.62      49.6  T
     SCC iter.                  ...        0 min,  0.086 sec
     gradient                   ...        0 min,  0.031 sec
 * total energy  :   -43.2834263 Eh     change       -0.1521182E-04 Eh
   gradient norm :     0.0075168 Eh/α   predicted     0.0000000E+00 (-100.00%)
   displ. norm   :     0.0348932 α      lambda       -0.1230410E-03
   maximum displ.:     0.0163705 α      in ANC's #4, #2, #57, ...

........................................................................
.............................. CYCLE   22 ..............................
........................................................................

 iter      E             dE          RMSdq      gap      omega  full diag
   1    -43.8739978 -0.438740E+02  0.225E-02    4.64       0.0  T
   2    -43.8739987 -0.924633E-06  0.129E-02    4.64       1.4  T
   3    -43.8739983  0.328560E-06  0.577E-03    4.64       3.1  T
   4    -43.8739988 -0.439492E-06  0.204E-03    4.64       8.8  T
   5    -43.8739989 -0.926427E-07  0.548E-04    4.64      32.8  T
   6    -43.8739989 -0.120309E-08  0.299E-04    4.64      60.1  T
     SCC iter.                  ...        0 min,  0.078 sec
     gradient                   ...        0 min,  0.036 sec
 * total energy  :   -43.2835002 Eh     change       -0.7399383E-04 Eh
   gradient norm :     0.0020627 Eh/α   predicted    -0.6161631E-04 ( -16.73%)
   displ. norm   :     0.0342143 α      lambda       -0.1845936E-04
   maximum displ.:     0.0198424 α      in ANC's #2, #4, #1, ...

........................................................................
.............................. CYCLE   23 ..............................
........................................................................

 iter      E             dE          RMSdq      gap      omega  full diag
   1    -43.8748959 -0.438749E+02  0.105E-02    4.65       0.0  T
   2    -43.8748960 -0.170257E-06  0.599E-03    4.64       3.0  T
   3    -43.8748960  0.488737E-07  0.224E-03    4.65       8.0  T
   4    -43.8748961 -0.716845E-07  0.822E-04    4.65      21.8  T
   5    -43.8748961 -0.144948E-07  0.270E-04    4.65      66.5  T
     SCC iter.                  ...        0 min,  0.067 sec
     gradient                   ...        0 min,  0.034 sec
 * total energy  :   -43.2835131 Eh     change       -0.1286834E-04 Eh
   gradient norm :     0.0009248 Eh/α   predicted    -0.9267570E-05 ( -27.98%)
   displ. norm   :     0.0761126 α      lambda       -0.1320805E-04
   maximum displ.:     0.0452108 α      in ANC's #2, #4, #1, ...

........................................................................
.............................. CYCLE   24 ..............................
........................................................................

 iter      E             dE          RMSdq      gap      omega  full diag
   1    -43.8753793 -0.438754E+02  0.228E-02    4.65       0.0  T
   2    -43.8753797 -0.403887E-06  0.130E-02    4.65       1.4  T
   3    -43.8753794  0.225096E-06  0.370E-03    4.65       4.9  T
   4    -43.8753797 -0.289617E-06  0.139E-03    4.65      12.9  T
   5    -43.8753798 -0.422275E-07  0.440E-04    4.65      40.8  T
   6    -43.8753798 -0.114532E-08  0.184E-04    4.65      97.7  T
     SCC iter.                  ...        0 min,  0.073 sec
     gradient                   ...        0 min,  0.036 sec
 * total energy  :   -43.2835267 Eh     change       -0.1360717E-04 Eh
   gradient norm :     0.0016585 Eh/α   predicted    -0.6650587E-05 ( -51.12%)
   displ. norm   :     0.0782041 α      lambda       -0.1135645E-04
   maximum displ.:     0.0482071 α      in ANC's #2, #4, #1, ...

........................................................................
.............................. CYCLE   25 ..............................
........................................................................

 iter      E             dE          RMSdq      gap      omega  full diag
   1    -43.8748752 -0.438749E+02  0.172E-02    4.64       0.0  T
   2    -43.8748753 -0.865509E-07  0.100E-02    4.65       1.8  T
   3    -43.8748752  0.108397E-06  0.237E-03    4.65       7.6  T
   4    -43.8748753 -0.140328E-06  0.591E-04    4.65      30.4  T
   5    -43.8748753 -0.371366E-08  0.265E-04    4.65      67.8  T
     SCC iter.                  ...        0 min,  0.070 sec
     gradient                   ...        0 min,  0.036 sec
 * total energy  :   -43.2835397 Eh     change       -0.1296479E-04 Eh
   gradient norm :     0.0013714 Eh/α   predicted    -0.5694942E-05 ( -56.07%)
   displ. norm   :     0.0994295 α      lambda       -0.1214921E-04
   maximum displ.:     0.0630312 α      in ANC's #2, #1, #4, ...

........................................................................
.............................. CYCLE   26 ..............................
........................................................................

 iter      E             dE          RMSdq      gap      omega  full diag
   1    -43.8741235 -0.438741E+02  0.363E-02    4.64       0.0  T
   2    -43.8741240 -0.523964E-06  0.205E-02    4.64       1.0  T
   3    -43.8741241 -0.126934E-06  0.182E-03    4.64       9.9  T
   4    -43.8741242 -0.492968E-07  0.862E-04    4.64      20.8  T
   5    -43.8741242 -0.642579E-09  0.550E-04    4.64      32.7  T
     SCC iter.                  ...        0 min,  0.099 sec
     gradient                   ...        0 min,  0.040 sec
 * total energy  :   -43.2835482 Eh     change       -0.8559906E-05 Eh
   gradient norm :     0.0015049 Eh/α   predicted    -0.6105052E-05 ( -28.68%)
   displ. norm   :     0.0875139 α      lambda       -0.1304920E-04
   maximum displ.:     0.0569009 α      in ANC's #2, #1, #5, ...

........................................................................
.............................. CYCLE   27 ..............................
........................................................................

 iter      E             dE          RMSdq      gap      omega  full diag
   1    -43.8741515 -0.438742E+02  0.304E-02    4.64       0.0  T
   2    -43.8741519 -0.348354E-06  0.172E-02    4.64       1.0  T
   3    -43.8741519 -0.577211E-07  0.176E-03    4.63      10.2  T
   4    -43.8741520 -0.463585E-07  0.871E-04    4.63      20.6  T
   5    -43.8741520 -0.645664E-08  0.511E-04    4.63      35.2  T
     SCC iter.                  ...        0 min,  0.070 sec
     gradient                   ...        0 min,  0.036 sec
 * total energy  :   -43.2835592 Eh     change       -0.1093625E-04 Eh
   gradient norm :     0.0014386 Eh/α   predicted    -0.6549309E-05 ( -40.11%)
   displ. norm   :     0.0558898 α      lambda       -0.7506179E-05
   maximum displ.:     0.0375859 α      in ANC's #2, #1, #11, ...

........................................................................
.............................. CYCLE   28 ..............................
........................................................................

 iter      E             dE          RMSdq      gap      omega  full diag
   1    -43.8743532 -0.438744E+02  0.138E-02    4.63       0.0  T
   2    -43.8743533 -0.656323E-07  0.796E-03    4.63       2.3  T
   3    -43.8743533  0.382057E-07  0.156E-03    4.63      11.5  T
   4    -43.8743533 -0.567053E-07  0.551E-04    4.63      32.6  T
   5    -43.8743533 -0.468264E-08  0.224E-04    4.63      80.0  T
     SCC iter.                  ...        0 min,  0.052 sec
     gradient                   ...        0 min,  0.029 sec
 * total energy  :   -43.2835681 Eh     change       -0.8939086E-05 Eh
   gradient norm :     0.0010179 Eh/α   predicted    -0.3763151E-05 ( -57.90%)
   displ. norm   :     0.0989333 α      lambda       -0.1302105E-04
   maximum displ.:     0.0658161 α      in ANC's #2, #1, #11, ...

........................................................................
.............................. CYCLE   29 ..............................
........................................................................

 iter      E             dE          RMSdq      gap      omega  full diag
   1    -43.8748228 -0.438748E+02  0.255E-02    4.63       0.0  T
   2    -43.8748229 -0.148126E-06  0.148E-02    4.63       1.2  T
   3    -43.8748229  0.701792E-07  0.240E-03    4.63       7.5  T
   4    -43.8748230 -0.129420E-06  0.783E-04    4.63      23.0  T
   5    -43.8748230 -0.438607E-08  0.377E-04    4.63      47.7  T
     SCC iter.                  ...        0 min,  0.070 sec
     gradient                   ...        0 min,  0.036 sec
 * total energy  :   -43.2835833 Eh     change       -0.1517975E-04 Eh
   gradient norm :     0.0009716 Eh/α   predicted    -0.6541196E-05 ( -56.91%)
   displ. norm   :     0.1494188 α      lambda       -0.1337845E-04
   maximum displ.:     0.1003410 α      in ANC's #2, #1, #11, ...

........................................................................
.............................. CYCLE   30 ..............................
........................................................................

 iter      E             dE          RMSdq      gap      omega  full diag
   1    -43.8749423 -0.438749E+02  0.366E-02    4.63       0.0  T
   2    -43.8749425 -0.223527E-06  0.213E-02    4.62       1.0  T
   3    -43.8749426 -0.754005E-07  0.159E-03    4.62      11.3  T
   4    -43.8749426 -0.158638E-07  0.104E-03    4.62      17.3  T
   5    -43.8749426 -0.120868E-07  0.324E-04    4.62      55.4  T
   6    -43.8749426 -0.113526E-08  0.133E-04    4.62     135.4  T
     SCC iter.                  ...        0 min,  0.083 sec
     gradient                   ...        0 min,  0.039 sec
 * total energy  :   -43.2836006 Eh     change       -0.1728550E-04 Eh
   gradient norm :     0.0012717 Eh/α   predicted    -0.6761006E-05 ( -60.89%)
   displ. norm   :     0.2116553 α      lambda       -0.1838451E-04
   maximum displ.:     0.1405957 α      in ANC's #2, #1, #3, ...

........................................................................
.............................. CYCLE   31 ..............................
........................................................................

 iter      E             dE          RMSdq      gap      omega  full diag
   1    -43.8745103 -0.438745E+02  0.521E-02    4.61       0.0  T
   2    -43.8745108 -0.474986E-06  0.303E-02    4.61       1.0  T
   3    -43.8745110 -0.176512E-06  0.211E-03    4.61       8.5  T
   4    -43.8745110 -0.114629E-07  0.143E-03    4.61      12.6  T
   5    -43.8745110 -0.232457E-07  0.533E-04    4.61      33.7  T
   6    -43.8745110 -0.358412E-08  0.196E-04    4.61      91.8  T
     SCC iter.                  ...        0 min,  0.080 sec
     gradient                   ...        0 min,  0.044 sec
 * total energy  :   -43.2836256 Eh     change       -0.2503599E-04 Eh
   gradient norm :     0.0015865 Eh/α   predicted    -0.9375623E-05 ( -62.55%)
   displ. norm   :     0.3813323 α      lambda       -0.3364512E-04
   maximum displ.:     0.2507724 α      in ANC's #2, #1, #3, ...

........................................................................
.............................. CYCLE   32 ..............................
........................................................................

 iter      E             dE          RMSdq      gap      omega  full diag
   1    -43.8736341 -0.438736E+02  0.914E-02    4.59       0.0  T
   2    -43.8736354 -0.136786E-05  0.532E-02    4.59       1.0  T
   3    -43.8736360 -0.592593E-06  0.321E-03    4.59       5.6  T
   4    -43.8736360  0.600622E-08  0.198E-03    4.59       9.1  T
   5    -43.8736360 -0.305051E-07  0.986E-04    4.59      18.2  T
   6    -43.8736361 -0.174645E-07  0.301E-04    4.59      59.6  T
     SCC iter.                  ...        0 min,  0.090 sec
     gradient                   ...        0 min,  0.043 sec
 * total energy  :   -43.2836666 Eh     change       -0.4094582E-04 Eh
   gradient norm :     0.0022894 Eh/α   predicted    -0.1791123E-04 ( -56.26%)
   displ. norm   :     0.3112731 α      lambda       -0.3647253E-04
   maximum displ.:     0.2024769 α      in ANC's #2, #1, #3, ...

........................................................................
.............................. CYCLE   33 ..............................
........................................................................

 iter      E             dE          RMSdq      gap      omega  full diag
   1    -43.8726751 -0.438727E+02  0.727E-02    4.58       0.0  T
   2    -43.8726761 -0.968406E-06  0.422E-02    4.57       1.0  T
   3    -43.8726765 -0.395973E-06  0.260E-03    4.57       6.9  T
   4    -43.8726765 -0.335665E-08  0.149E-03    4.57      12.1  T
   5    -43.8726765 -0.969955E-08  0.824E-04    4.57      21.8  T
   6    -43.8726765 -0.128981E-07  0.243E-04    4.57      73.8  T
     SCC iter.                  ...        0 min,  0.138 sec
     gradient                   ...        0 min,  0.042 sec
 * total energy  :   -43.2836936 Eh     change       -0.2701410E-04 Eh
   gradient norm :     0.0030287 Eh/α   predicted    -0.2000562E-04 ( -25.94%)
   displ. norm   :     0.2448543 α      lambda       -0.3173837E-04
   maximum displ.:     0.1602234 α      in ANC's #1, #2, #3, ...

........................................................................
.............................. CYCLE   34 ..............................
........................................................................

 iter      E             dE          RMSdq      gap      omega  full diag
   1    -43.8728904 -0.438729E+02  0.536E-02    4.57       0.0  T
   2    -43.8728911 -0.620773E-06  0.311E-02    4.57       1.0  T
   3    -43.8728910  0.572827E-07  0.375E-03    4.57       4.8  T
   4    -43.8728913 -0.274309E-06  0.169E-03    4.57      10.6  T
   5    -43.8728913 -0.253184E-07  0.896E-04    4.57      20.0  T
   6    -43.8728913 -0.935276E-08  0.227E-04    4.57      79.1  T
     SCC iter.                  ...        0 min,  0.074 sec
     gradient                   ...        0 min,  0.035 sec
 * total energy  :   -43.2837171 Eh     change       -0.2350297E-04 Eh
   gradient norm :     0.0025225 Eh/α   predicted    -0.1682483E-04 ( -28.41%)
   displ. norm   :     0.1947064 α      lambda       -0.3034784E-04
   maximum displ.:     0.1283258 α      in ANC's #1, #2, #3, ...

........................................................................
.............................. CYCLE   35 ..............................
........................................................................

 iter      E             dE          RMSdq      gap      omega  full diag
   1    -43.8738976 -0.438739E+02  0.427E-02    4.57       0.0  T
   2    -43.8738981 -0.531958E-06  0.249E-02    4.57       1.0  T
   3    -43.8738978  0.323393E-06  0.452E-03    4.57       4.0  T
   4    -43.8738983 -0.469193E-06  0.165E-03    4.57      10.9  T
   5    -43.8738983 -0.413456E-07  0.752E-04    4.57      23.9  T
   6    -43.8738983 -0.404949E-08  0.238E-04    4.57      75.5  T
     SCC iter.                  ...        0 min,  0.089 sec
     gradient                   ...        0 min,  0.038 sec
 * total energy  :   -43.2837388 Eh     change       -0.2171796E-04 Eh
   gradient norm :     0.0017401 Eh/α   predicted    -0.1575051E-04 ( -27.48%)
   displ. norm   :     0.3593115 α      lambda       -0.2103735E-04
   maximum displ.:     0.2356833 α      in ANC's #1, #2, #3, ...

........................................................................
.............................. CYCLE   36 ..............................
........................................................................

 iter      E             dE          RMSdq      gap      omega  full diag
   1    -43.8731609 -0.438732E+02  0.840E-02    4.54       0.0  T
   2    -43.8731621 -0.119923E-05  0.489E-02    4.54       1.0  T
   3    -43.8731625 -0.395093E-06  0.338E-03    4.54       5.3  T
   4    -43.8731625 -0.554258E-07  0.227E-03    4.54       7.9  T
   5    -43.8731626 -0.533606E-07  0.106E-03    4.54      16.9  T
   6    -43.8731626 -0.142284E-07  0.299E-04    4.54      60.1  T
   7    -43.8731626 -0.516785E-09  0.139E-04    4.54     128.9  T
     SCC iter.                  ...        0 min,  0.147 sec
     gradient                   ...        0 min,  0.045 sec
 * total energy  :   -43.2837551 Eh     change       -0.1629124E-04 Eh
   gradient norm :     0.0029528 Eh/α   predicted    -0.1112428E-04 ( -31.72%)
   displ. norm   :     0.0824249 α      lambda       -0.2846048E-04
   maximum displ.:     0.0556693 α      in ANC's #3, #1, #2, ...

........................................................................
.............................. CYCLE   37 ..............................
........................................................................

 iter      E             dE          RMSdq      gap      omega  full diag
   1    -43.8755162 -0.438755E+02  0.200E-02    4.56       0.0  T
   2    -43.8755168 -0.582404E-06  0.118E-02    4.56       1.5  T
   3    -43.8755167  0.147529E-06  0.420E-03    4.56       4.3  T
   4    -43.8755169 -0.252345E-06  0.985E-04    4.56      18.2  T
   5    -43.8755169 -0.153437E-07  0.490E-04    4.56      36.6  T
     SCC iter.                  ...        0 min,  0.075 sec
     gradient                   ...        0 min,  0.039 sec
 * total energy  :   -43.2837672 Eh     change       -0.1207884E-04 Eh
   gradient norm :     0.0020557 Eh/α   predicted    -0.1432740E-04 (  18.62%)
   displ. norm   :     0.1327732 α      lambda       -0.1629253E-04
   maximum displ.:     0.0857771 α      in ANC's #1, #2, #3, ...

........................................................................
.............................. CYCLE   38 ..............................
........................................................................

 iter      E             dE          RMSdq      gap      omega  full diag
   1    -43.8748349 -0.438748E+02  0.303E-02    4.55       0.0  T
   2    -43.8748350 -0.149249E-06  0.177E-02    4.55       1.0  T
   3    -43.8748350  0.276909E-07  0.208E-03    4.55       8.6  T
   4    -43.8748351 -0.878932E-07  0.925E-04    4.55      19.4  T
   5    -43.8748351 -0.772483E-08  0.427E-04    4.55      42.1  T
     SCC iter.                  ...        0 min,  0.072 sec
     gradient                   ...        0 min,  0.037 sec
 * total energy  :   -43.2837817 Eh     change       -0.1453372E-04 Eh
   gradient norm :     0.0015517 Eh/α   predicted    -0.8290772E-05 ( -42.95%)
   displ. norm   :     0.6306106 α      lambda       -0.5601634E-04
   maximum displ.:     0.3988464 α      in ANC's #1, #3, #2, ...

........................................................................
.............................. CYCLE   39 ..............................
........................................................................

 iter      E             dE          RMSdq      gap      omega  full diag
   1    -43.8701464 -0.438701E+02  0.145E-01    4.49       0.0  T
   2    -43.8701504 -0.396235E-05  0.846E-02    4.49       1.0  T
   3    -43.8701488  0.165873E-05  0.118E-02    4.48       1.5  T
   4    -43.8701518 -0.302966E-05  0.473E-03    4.49       3.8  T
   5    -43.8701520 -0.250122E-06  0.245E-03    4.49       7.3  T
   6    -43.8701521 -0.459077E-07  0.553E-04    4.49      32.5  T
   7    -43.8701521 -0.152726E-08  0.251E-04    4.49      71.6  T
     SCC iter.                  ...        0 min,  0.110 sec
     gradient                   ...        0 min,  0.047 sec
 * total energy  :   -43.2837798 Eh     change        0.1907337E-05 Eh
   gradient norm :     0.0078919 Eh/α   predicted    -0.3295891E-04 (*******%)
   displ. norm   :     0.2584329 α      lambda       -0.8710962E-04
   maximum displ.:     0.1669664 α      in ANC's #1, #2, #3, ...

........................................................................
.............................. CYCLE   40 ..............................
........................................................................

 iter      E             dE          RMSdq      gap      omega  full diag
   1    -43.8733961 -0.438734E+02  0.606E-02    4.52       0.0  T
   2    -43.8733972 -0.109782E-05  0.351E-02    4.51       1.0  T
   3    -43.8733971  0.792042E-07  0.449E-03    4.52       4.0  T
   4    -43.8733975 -0.392078E-06  0.178E-03    4.52      10.1  T
   5    -43.8733975 -0.156475E-07  0.112E-03    4.52      16.1  T
   6    -43.8733975 -0.147974E-07  0.388E-04    4.52      46.3  T
   7    -43.8733975 -0.143416E-08  0.113E-04    4.52     159.6  T
     SCC iter.                  ...        0 min,  0.101 sec
     gradient                   ...        0 min,  0.038 sec
 * total energy  :   -43.2838219 Eh     change       -0.4211767E-04 Eh
   gradient norm :     0.0036553 Eh/α   predicted    -0.4646581E-04 (  10.32%)
   displ. norm   :     0.0418035 α      lambda       -0.2233538E-04
   maximum displ.:     0.0238662 α      in ANC's #3, #1, #4, ...

........................................................................
.............................. CYCLE   41 ..............................
........................................................................

 iter      E             dE          RMSdq      gap      omega  full diag
   1    -43.8744568 -0.438745E+02  0.141E-02    4.54       0.0  T
   2    -43.8744572 -0.459412E-06  0.839E-03    4.53       2.1  T
   3    -43.8744571  0.125072E-06  0.388E-03    4.53       4.6  T
   4    -43.8744573 -0.167318E-06  0.141E-03    4.53      12.8  T
   5    -43.8744573 -0.476912E-07  0.319E-04    4.53      56.3  T
   6    -43.8744573 -0.922434E-09  0.158E-04    4.53     113.5  T
     SCC iter.                  ...        0 min,  0.080 sec
     gradient                   ...        0 min,  0.052 sec
 * total energy  :   -43.2838329 Eh     change       -0.1102152E-04 Eh
   gradient norm :     0.0019390 Eh/α   predicted    -0.1118977E-04 (   1.53%)
   displ. norm   :     0.1114100 α      lambda       -0.1160499E-04
   maximum displ.:     0.0761600 α      in ANC's #3, #1, #2, ...

........................................................................
.............................. CYCLE   42 ..............................
........................................................................

 iter      E             dE          RMSdq      gap      omega  full diag
   1    -43.8750126 -0.438750E+02  0.242E-02    4.53       0.0  T
   2    -43.8750127 -0.112925E-06  0.143E-02    4.53       1.3  T
   3    -43.8750123  0.375032E-06  0.400E-03    4.53       4.5  T
   4    -43.8750128 -0.436739E-06  0.782E-04    4.53      23.0  T
   5    -43.8750128 -0.617926E-08  0.322E-04    4.53      55.8  T
     SCC iter.                  ...        0 min,  0.098 sec
     gradient                   ...        0 min,  0.051 sec
 * total energy  :   -43.2838471 Eh     change       -0.1417810E-04 Eh
   gradient norm :     0.0010294 Eh/α   predicted    -0.5838405E-05 ( -58.82%)
   displ. norm   :     0.4789891 α      lambda       -0.2968124E-04
   maximum displ.:     0.3095469 α      in ANC's #1, #3, #2, ...
 * RMSD in coord.:     0.6017951 α      energy gain  -0.4360770E-03 Eh

generating ANC from exact Hessian ...
Using Lindh-Hessian (1995)
 Shifting diagonal of input Hessian by    9.4837308856645826E-003
 Lowest  eigenvalues of input Hessian
    0.000000    0.000000    0.000000    0.000000    0.000000    0.000000
    0.010000    0.010358    0.011248    0.012277    0.013449    0.014190
    0.017298    0.018478    0.018790    0.022259    0.023754    0.027563
 Highest eigenvalues
    1.278236    1.285924    1.303561    1.772095    2.378415    2.571007


........................................................................
.............................. CYCLE   43 ..............................
........................................................................

 iter      E             dE          RMSdq      gap      omega  full diag
   1    -43.8730285 -0.438730E+02  0.107E-01    4.50       0.0  T
   2    -43.8730306 -0.209975E-05  0.621E-02    4.50       1.0  T
   3    -43.8730310 -0.381837E-06  0.535E-03    4.50       3.4  T
   4    -43.8730313 -0.327784E-06  0.324E-03    4.50       5.5  T
   5    -43.8730314 -0.114697E-06  0.144E-03    4.50      12.5  T
   6    -43.8730314 -0.229729E-07  0.389E-04    4.50      46.2  T
   7    -43.8730314 -0.100438E-08  0.175E-04    4.50     102.4  T
     SCC iter.                  ...        0 min,  0.099 sec
     gradient                   ...        0 min,  0.062 sec
 * total energy  :   -43.2838695 Eh     change       -0.2238372E-04 Eh
   gradient norm :     0.0030744 Eh/α   predicted     0.0000000E+00 (-100.00%)
   displ. norm   :     0.0162733 α      lambda       -0.9334799E-05
   maximum displ.:     0.0059821 α      in ANC's #5, #1, #3, ...

........................................................................
.............................. CYCLE   44 ..............................
........................................................................

 iter      E             dE          RMSdq      gap      omega  full diag
   1    -43.8745589 -0.438746E+02  0.132E-02    4.50       0.0  T
   2    -43.8745591 -0.188541E-06  0.737E-03    4.50       2.4  T
   3    -43.8745591  0.287966E-07  0.189E-03    4.50       9.5  T
   4    -43.8745591 -0.521465E-07  0.723E-04    4.50      24.9  T
   5    -43.8745591 -0.992339E-08  0.290E-04    4.50      61.9  T
     SCC iter.                  ...        0 min,  0.094 sec
     gradient                   ...        0 min,  0.043 sec
 * total energy  :   -43.2838830 Eh     change       -0.1345232E-04 Eh
   gradient norm :     0.0009062 Eh/α   predicted    -0.1168344E-04 ( -13.15%)
   displ. norm   :     0.0278287 α      lambda       -0.6218503E-05
   maximum displ.:     0.0142207 α      in ANC's #4, #1, #6, ...

........................................................................
.............................. CYCLE   45 ..............................
........................................................................

 iter      E             dE          RMSdq      gap      omega  full diag
   1    -43.8753458 -0.438753E+02  0.276E-02    4.51       0.0  T
   2    -43.8753462 -0.431534E-06  0.153E-02    4.50       1.2  T
   3    -43.8753463 -0.708114E-07  0.178E-03    4.50      10.1  T
   4    -43.8753464 -0.671007E-07  0.517E-04    4.50      34.8  T
   5    -43.8753464 -0.532410E-10  0.318E-04    4.50      56.5  T
     SCC iter.                  ...        0 min,  0.077 sec
     gradient                   ...        0 min,  0.036 sec
 * total energy  :   -43.2838829 Eh     change        0.6644792E-07 Eh
   gradient norm :     0.0013492 Eh/α   predicted    -0.3114339E-05 (*******%)
   displ. norm   :     0.0160210 α      lambda       -0.5820817E-05
   maximum displ.:     0.0071440 α      in ANC's #5, #3, #1, ...

........................................................................
.............................. CYCLE   46 ..............................
........................................................................

 iter      E             dE          RMSdq      gap      omega  full diag
   1    -43.8750231 -0.438750E+02  0.168E-02    4.50       0.0  T
   2    -43.8750232 -0.129666E-06  0.933E-03    4.50       1.9  T
   3    -43.8750233 -0.371831E-07  0.617E-04    4.50      29.1  T
   4    -43.8750233 -0.641692E-08  0.250E-04    4.50      71.8  T
     SCC iter.                  ...        0 min,  0.054 sec
     gradient                   ...        0 min,  0.041 sec
 * total energy  :   -43.2838879 Eh     change       -0.4979705E-05 Eh
   gradient norm :     0.0006934 Eh/α   predicted    -0.2919374E-05 ( -41.37%)
   displ. norm   :     0.0202264 α      lambda       -0.2252098E-05
   maximum displ.:     0.0106765 α      in ANC's #1, #3, #2, ...

........................................................................
.............................. CYCLE   47 ..............................
........................................................................

 iter      E             dE          RMSdq      gap      omega  full diag
   1    -43.8747175 -0.438747E+02  0.606E-03    4.50       0.0  T
   2    -43.8747175 -0.233941E-07  0.345E-03    4.50       5.2  T
   3    -43.8747175 -0.118686E-08  0.547E-04    4.50      32.9  T
   4    -43.8747175 -0.463464E-08  0.184E-04    4.50      97.7  T
     SCC iter.                  ...        0 min,  0.056 sec
     gradient                   ...        0 min,  0.041 sec
 * total energy  :   -43.2838903 Eh     change       -0.2390401E-05 Eh
   gradient norm :     0.0003398 Eh/α   predicted    -0.1131450E-05 ( -52.67%)
   displ. norm   :     0.0464270 α      lambda       -0.2676300E-05
   maximum displ.:     0.0245746 α      in ANC's #1, #3, #4, ...

........................................................................
.............................. CYCLE   48 ..............................
........................................................................

 iter      E             dE          RMSdq      gap      omega  full diag
   1    -43.8745395 -0.438745E+02  0.136E-02    4.50       0.0  T
   2    -43.8745395 -0.681997E-07  0.770E-03    4.50       2.3  T
   3    -43.8745396 -0.220858E-07  0.639E-04    4.50      28.1  T
   4    -43.8745396 -0.222132E-08  0.390E-04    4.50      46.0  T
     SCC iter.                  ...        0 min,  0.061 sec
     gradient                   ...        0 min,  0.037 sec
 * total energy  :   -43.2838935 Eh     change       -0.3219436E-05 Eh
   gradient norm :     0.0004689 Eh/α   predicted    -0.1340172E-05 ( -58.37%)
   displ. norm   :     0.0616378 α      lambda       -0.2796535E-05
   maximum displ.:     0.0349203 α      in ANC's #1, #3, #2, ...

........................................................................
.............................. CYCLE   49 ..............................
........................................................................

 iter      E             dE          RMSdq      gap      omega  full diag
   1    -43.8746469 -0.438746E+02  0.177E-02    4.49       0.0  T
   2    -43.8746470 -0.118073E-06  0.101E-02    4.49       1.8  T
   3    -43.8746471 -0.410242E-07  0.734E-04    4.49      24.5  T
   4    -43.8746471 -0.185901E-08  0.388E-04    4.49      46.3  T
     SCC iter.                  ...        0 min,  0.052 sec
     gradient                   ...        0 min,  0.037 sec
 * total energy  :   -43.2838966 Eh     change       -0.3139142E-05 Eh
   gradient norm :     0.0004307 Eh/α   predicted    -0.1401367E-05 ( -55.36%)
   displ. norm   :     0.0454170 α      lambda       -0.1578813E-05
   maximum displ.:     0.0291552 α      in ANC's #1, #3, #2, ...

........................................................................
.............................. CYCLE   50 ..............................
........................................................................

 iter      E             dE          RMSdq      gap      omega  full diag
   1    -43.8746397 -0.438746E+02  0.117E-02    4.49       0.0  T
   2    -43.8746398 -0.536160E-07  0.671E-03    4.49       2.7  T
   3    -43.8746398 -0.739875E-08  0.809E-04    4.49      22.2  T
   4    -43.8746398 -0.953774E-08  0.413E-04    4.49      43.5  T
     SCC iter.                  ...        0 min,  0.056 sec
     gradient                   ...        0 min,  0.038 sec
 * total energy  :   -43.2838985 Eh     change       -0.1886229E-05 Eh
   gradient norm :     0.0003293 Eh/α   predicted    -0.7932202E-06 ( -57.95%)
   displ. norm   :     0.0325248 α      lambda       -0.1268302E-05
   maximum displ.:     0.0230312 α      in ANC's #1, #3, #2, ...

........................................................................
.............................. CYCLE   51 ..............................
........................................................................

 iter      E             dE          RMSdq      gap      omega  full diag
   1    -43.8748020 -0.438748E+02  0.685E-03    4.49       0.0  T
   2    -43.8748020 -0.141557E-07  0.400E-03    4.49       4.5  T
   3    -43.8748020 -0.959474E-09  0.427E-04    4.49      42.1  T
   4    -43.8748020 -0.233435E-08  0.250E-04    4.49      71.9  T
     SCC iter.                  ...        0 min,  0.049 sec
     gradient                   ...        0 min,  0.037 sec
 * total energy  :   -43.2839002 Eh     change       -0.1655537E-05 Eh
   gradient norm :     0.0001797 Eh/α   predicted    -0.6356894E-06 ( -61.60%)
   displ. norm   :     0.0381074 α      lambda       -0.1612541E-05
   maximum displ.:     0.0282645 α      in ANC's #1, #3, #2, ...

........................................................................
.............................. CYCLE   52 ..............................
........................................................................

 iter      E             dE          RMSdq      gap      omega  full diag
   1    -43.8748596 -0.438749E+02  0.688E-03    4.49       0.0  T
   2    -43.8748596 -0.909495E-08  0.406E-03    4.49       4.4  T
   3    -43.8748596  0.749607E-08  0.650E-04    4.49      27.6  T
   4    -43.8748596 -0.971971E-08  0.241E-04    4.49      74.7  T
     SCC iter.                  ...        0 min,  0.069 sec
     gradient                   ...        0 min,  0.049 sec
 * total energy  :   -43.2839023 Eh     change       -0.2131012E-05 Eh
   gradient norm :     0.0002542 Eh/α   predicted    -0.8108474E-06 ( -61.95%)
   displ. norm   :     0.0435575 α      lambda       -0.1699933E-05
   maximum displ.:     0.0325659 α      in ANC's #1, #3, #7, ...

........................................................................
.............................. CYCLE   53 ..............................
........................................................................

 iter      E             dE          RMSdq      gap      omega  full diag
   1    -43.8747863 -0.438748E+02  0.793E-03    4.48       0.0  T
   2    -43.8747863 -0.649362E-08  0.469E-03    4.48       3.8  T
   3    -43.8747863  0.113475E-08  0.413E-04    4.48      43.5  T
   4    -43.8747863 -0.304589E-08  0.219E-04    4.48      82.1  T
     SCC iter.                  ...        0 min,  0.060 sec
     gradient                   ...        0 min,  0.043 sec
 * total energy  :   -43.2839045 Eh     change       -0.2183053E-05 Eh
   gradient norm :     0.0003148 Eh/α   predicted    -0.8529693E-06 ( -60.93%)
   displ. norm   :     0.0420955 α      lambda       -0.1466832E-05
   maximum displ.:     0.0321481 α      in ANC's #1, #3, #7, ...

........................................................................
.............................. CYCLE   54 ..............................
........................................................................

 iter      E             dE          RMSdq      gap      omega  full diag
   1    -43.8748323 -0.438748E+02  0.741E-03    4.48       0.0  T
   2    -43.8748324 -0.456906E-08  0.438E-03    4.48       4.1  T
   3    -43.8748323  0.117467E-07  0.762E-04    4.48      23.6  T
   4    -43.8748324 -0.146488E-07  0.164E-04    4.48     109.7  T
     SCC iter.                  ...        0 min,  0.058 sec
     gradient                   ...        0 min,  0.043 sec
 * total energy  :   -43.2839063 Eh     change       -0.1858617E-05 Eh
   gradient norm :     0.0003035 Eh/α   predicted    -0.7366869E-06 ( -60.36%)
   displ. norm   :     0.0315749 α      lambda       -0.1043655E-05
   maximum displ.:     0.0247860 α      in ANC's #1, #3, #6, ...

........................................................................
.............................. CYCLE   55 ..............................
........................................................................

 iter      E             dE          RMSdq      gap      omega  full diag
   1    -43.8747501 -0.438748E+02  0.575E-03    4.48       0.0  T
   2    -43.8747501 -0.287261E-08  0.339E-03    4.48       5.3  T
   3    -43.8747501 -0.670823E-10  0.263E-04    4.48      68.2  T
   4    -43.8747501 -0.112117E-08  0.138E-04    4.48     130.1  T
     SCC iter.                  ...        0 min,  0.060 sec
     gradient                   ...        0 min,  0.046 sec
 * total energy  :   -43.2839077 Eh     change       -0.1413531E-05 Eh
   gradient norm :     0.0001448 Eh/α   predicted    -0.5231457E-06 ( -62.99%)
   displ. norm   :     0.0263551 α      lambda       -0.9122662E-06
   maximum displ.:     0.0212841 α      in ANC's #1, #3, #2, ...

........................................................................
.............................. CYCLE   56 ..............................
........................................................................

 iter      E             dE          RMSdq      gap      omega  full diag
   1    -43.8747234 -0.438747E+02  0.493E-03    4.48       0.0  T
   2    -43.8747234 -0.342999E-08  0.289E-03    4.48       6.2  T
   3    -43.8747234  0.166300E-08  0.377E-04    4.48      47.7  T
   4    -43.8747234 -0.316625E-08  0.132E-04    4.48     136.2  T
     SCC iter.                  ...        0 min,  0.061 sec
     gradient                   ...        0 min,  0.038 sec
 * total energy  :   -43.2839090 Eh     change       -0.1288860E-05 Eh
   gradient norm :     0.0001390 Eh/α   predicted    -0.4609353E-06 ( -64.24%)
   displ. norm   :     0.0252169 α      lambda       -0.9171757E-06
   maximum displ.:     0.0203005 α      in ANC's #1, #2, #3, ...

........................................................................
.............................. CYCLE   57 ..............................
........................................................................

 iter      E             dE          RMSdq      gap      omega  full diag
   1    -43.8747263 -0.438747E+02  0.528E-03    4.48       0.0  T
   2    -43.8747263 -0.505398E-08  0.306E-03    4.48       5.9  T
   3    -43.8747263  0.336200E-08  0.488E-04    4.48      36.8  T
   4    -43.8747263 -0.585285E-08  0.143E-04    4.48     125.4  T
     SCC iter.                  ...        0 min,  0.069 sec
     gradient                   ...        0 min,  0.039 sec
 * total energy  :   -43.2839103 Eh     change       -0.1297771E-05 Eh
   gradient norm :     0.0001430 Eh/α   predicted    -0.4629691E-06 ( -64.33%)
   displ. norm   :     0.0294605 α      lambda       -0.1064631E-05
   maximum displ.:     0.0232052 α      in ANC's #1, #2, #3, ...

........................................................................
.............................. CYCLE   58 ..............................
........................................................................

 iter      E             dE          RMSdq      gap      omega  full diag
   1    -43.8746914 -0.438747E+02  0.659E-03    4.48       0.0  T
   2    -43.8746914 -0.107777E-07  0.380E-03    4.48       4.7  T
   3    -43.8746914 -0.239712E-08  0.339E-04    4.48      53.0  T
   4    -43.8746914 -0.141766E-08  0.199E-04    4.48      90.2  T
     SCC iter.                  ...        0 min,  0.056 sec
     gradient                   ...        0 min,  0.048 sec
 * total energy  :   -43.2839118 Eh     change       -0.1486294E-05 Eh
   gradient norm :     0.0002028 Eh/α   predicted    -0.5353573E-06 ( -63.98%)
   displ. norm   :     0.0369970 α      lambda       -0.1282070E-05
   maximum displ.:     0.0285703 α      in ANC's #1, #2, #3, ...

........................................................................
.............................. CYCLE   59 ..............................
........................................................................

 iter      E             dE          RMSdq      gap      omega  full diag
   1    -43.8746983 -0.438747E+02  0.845E-03    4.48       0.0  T
   2    -43.8746983 -0.169144E-07  0.487E-03    4.48       3.7  T
   3    -43.8746983  0.183077E-08  0.632E-04    4.48      28.4  T
   4    -43.8746983 -0.868362E-08  0.254E-04    4.48      70.7  T
     SCC iter.                  ...        0 min,  0.058 sec
     gradient                   ...        0 min,  0.037 sec
 * total energy  :   -43.2839136 Eh     change       -0.1814017E-05 Eh
   gradient norm :     0.0001772 Eh/α   predicted    -0.6449005E-06 ( -64.45%)
   displ. norm   :     0.0498144 α      lambda       -0.1673062E-05
   maximum displ.:     0.0378691 α      in ANC's #1, #2, #3, ...

........................................................................
.............................. CYCLE   60 ..............................
........................................................................

 iter      E             dE          RMSdq      gap      omega  full diag
   1    -43.8746803 -0.438747E+02  0.114E-02    4.48       0.0  T
   2    -43.8746804 -0.308714E-07  0.657E-03    4.47       2.7  T
   3    -43.8746804 -0.759549E-08  0.556E-04    4.47      32.3  T
   4    -43.8746804 -0.326315E-08  0.344E-04    4.47      52.2  T
     SCC iter.                  ...        0 min,  0.061 sec
     gradient                   ...        0 min,  0.047 sec
 * total energy  :   -43.2839160 Eh     change       -0.2375112E-05 Eh
   gradient norm :     0.0002109 Eh/α   predicted    -0.8414949E-06 ( -64.57%)
   displ. norm   :     0.0773578 α      lambda       -0.2488757E-05
   maximum displ.:     0.0582601 α      in ANC's #1, #2, #3, ...

........................................................................
.............................. CYCLE   61 ..............................
........................................................................

 iter      E             dE          RMSdq      gap      omega  full diag
   1    -43.8746600 -0.438747E+02  0.175E-02    4.47       0.0  T
   2    -43.8746601 -0.705470E-07  0.101E-02    4.47       1.8  T
   3    -43.8746601 -0.166794E-07  0.865E-04    4.47      20.8  T
   4    -43.8746601 -0.828377E-08  0.528E-04    4.47      34.0  T
     SCC iter.                  ...        0 min,  0.057 sec
     gradient                   ...        0 min,  0.042 sec
 * total energy  :   -43.2839195 Eh     change       -0.3521658E-05 Eh
   gradient norm :     0.0002410 Eh/α   predicted    -0.1249486E-05 ( -64.52%)
   displ. norm   :     0.1312544 α      lambda       -0.3929539E-05
   maximum displ.:     0.0983515 α      in ANC's #1, #2, #3, ...

........................................................................
.............................. CYCLE   62 ..............................
........................................................................

 iter      E             dE          RMSdq      gap      omega  full diag
   1    -43.8745848 -0.438746E+02  0.294E-02    4.47       0.0  T
   2    -43.8745850 -0.182816E-06  0.170E-02    4.47       1.1  T
   3    -43.8745850 -0.565812E-07  0.126E-03    4.47      14.2  T
   4    -43.8745850 -0.967486E-08  0.826E-04    4.47      21.7  T
   5    -43.8745851 -0.673999E-08  0.373E-04    4.47      48.2  T
     SCC iter.                  ...        0 min,  0.070 sec
     gradient                   ...        0 min,  0.036 sec
 * total energy  :   -43.2839249 Eh     change       -0.5400867E-05 Eh
   gradient norm :     0.0003116 Eh/α   predicted    -0.1983398E-05 ( -63.28%)
   displ. norm   :     0.2269073 α      lambda       -0.5954530E-05
   maximum displ.:     0.1700450 α      in ANC's #1, #2, #3, ...

........................................................................
.............................. CYCLE   63 ..............................
........................................................................

 iter      E             dE          RMSdq      gap      omega  full diag
   1    -43.8742760 -0.438743E+02  0.502E-02    4.46       0.0  T
   2    -43.8742766 -0.523268E-06  0.291E-02    4.45       1.0  T
   3    -43.8742768 -0.196601E-06  0.184E-03    4.45       9.7  T
   4    -43.8742768 -0.123940E-07  0.965E-04    4.45      18.6  T
   5    -43.8742768 -0.340218E-08  0.263E-04    4.45      68.3  T
     SCC iter.                  ...        0 min,  0.069 sec
     gradient                   ...        0 min,  0.036 sec
 * total energy  :   -43.2839323 Eh     change       -0.7327226E-05 Eh
   gradient norm :     0.0007198 Eh/α   predicted    -0.3045906E-05 ( -58.43%)
   displ. norm   :     0.2783755 α      lambda       -0.5755140E-05
   maximum displ.:     0.2098357 α      in ANC's #1, #2, #3, ...

........................................................................
.............................. CYCLE   64 ..............................
........................................................................

 iter      E             dE          RMSdq      gap      omega  full diag
   1    -43.8738767 -0.438739E+02  0.605E-02    4.44       0.0  T
   2    -43.8738774 -0.720700E-06  0.351E-02    4.44       1.0  T
   3    -43.8738777 -0.273801E-06  0.220E-03    4.44       8.2  T
   4    -43.8738777 -0.105289E-07  0.124E-03    4.44      14.4  T
   5    -43.8738777 -0.290751E-08  0.668E-04    4.44      26.9  T
   6    -43.8738777 -0.820590E-08  0.230E-04    4.44      78.2  T
     SCC iter.                  ...        0 min,  0.081 sec
     gradient                   ...        0 min,  0.042 sec
 * total energy  :   -43.2839380 Eh     change       -0.5769749E-05 Eh
   gradient norm :     0.0012514 Eh/α   predicted    -0.2977159E-05 ( -48.40%)
   displ. norm   :     0.1657783 α      lambda       -0.3943596E-05
   maximum displ.:     0.1269280 α      in ANC's #1, #2, #3, ...

........................................................................
.............................. CYCLE   65 ..............................
........................................................................

 iter      E             dE          RMSdq      gap      omega  full diag
   1    -43.8741662 -0.438742E+02  0.349E-02    4.44       0.0  T
   2    -43.8741664 -0.247618E-06  0.203E-02    4.44       1.0  T
   3    -43.8741665 -0.578831E-07  0.166E-03    4.44      10.8  T
   4    -43.8741665 -0.360595E-07  0.867E-04    4.44      20.7  T
   5    -43.8741665  0.110366E-08  0.550E-04    4.44      32.7  T
     SCC iter.                  ...        0 min,  0.074 sec
     gradient                   ...        0 min,  0.040 sec
 * total energy  :   -43.2839426 Eh     change       -0.4568355E-05 Eh
   gradient norm :     0.0009336 Eh/α   predicted    -0.1996945E-05 ( -56.29%)
   displ. norm   :     0.1508651 α      lambda       -0.4727354E-05
   maximum displ.:     0.1160807 α      in ANC's #1, #2, #3, ...

........................................................................
.............................. CYCLE   66 ..............................
........................................................................

 iter      E             dE          RMSdq      gap      omega  full diag
   1    -43.8747037 -0.438747E+02  0.340E-02    4.43       0.0  T
   2    -43.8747040 -0.273004E-06  0.198E-02    4.43       1.0  T
   3    -43.8747040 -0.420372E-08  0.217E-03    4.43       8.3  T
   4    -43.8747040 -0.874113E-07  0.101E-03    4.43      17.8  T
   5    -43.8747040 -0.521983E-08  0.627E-04    4.43      28.7  T
   6    -43.8747041 -0.571069E-08  0.162E-04    4.43     111.1  T
     SCC iter.                  ...        0 min,  0.116 sec
     gradient                   ...        0 min,  0.050 sec
 * total energy  :   -43.2839482 Eh     change       -0.5565228E-05 Eh
   gradient norm :     0.0004205 Eh/α   predicted    -0.2391791E-05 ( -57.02%)
   displ. norm   :     0.2007453 α      lambda       -0.4926819E-05
   maximum displ.:     0.1525766 α      in ANC's #1, #3, #2, ...
 * RMSD in coord.:     0.2974061 α      energy gain  -0.1010414E-03 Eh

generating ANC from exact Hessian ...
Using Lindh-Hessian (1995)
 Shifting diagonal of input Hessian by    9.4538134172388634E-003
 Lowest  eigenvalues of input Hessian
    0.000000    0.000000    0.000000    0.000000    0.000000    0.000000
    0.010000    0.010314    0.011238    0.012176    0.013139    0.014435
    0.017371    0.018684    0.018821    0.021778    0.023517    0.027474
 Highest eigenvalues
    1.279269    1.286086    1.313375    1.775940    2.379292    2.570965


........................................................................
.............................. CYCLE   67 ..............................
........................................................................

 iter      E             dE          RMSdq      gap      omega  full diag
   1    -43.8745546 -0.438746E+02  0.458E-02    4.42       0.0  T
   2    -43.8745550 -0.397979E-06  0.266E-02    4.42       1.0  T
   3    -43.8745552 -0.143669E-06  0.181E-03    4.42       9.9  T
   4    -43.8745552 -0.164584E-07  0.108E-03    4.42      16.6  T
   5    -43.8745552 -0.161731E-08  0.628E-04    4.42      28.6  T
   6    -43.8745552 -0.727311E-08  0.181E-04    4.42      99.4  T
     SCC iter.                  ...        0 min,  0.100 sec
     gradient                   ...        0 min,  0.047 sec
 * total energy  :   -43.2839546 Eh     change       -0.6399868E-05 Eh
   gradient norm :     0.0007467 Eh/α   predicted     0.0000000E+00 (-100.00%)
   displ. norm   :     0.0116895 α      lambda       -0.1291407E-05
   maximum displ.:     0.0084824 α      in ANC's #3, #2, #8, ...

........................................................................
.............................. CYCLE   68 ..............................
........................................................................

 iter      E             dE          RMSdq      gap      omega  full diag
   1    -43.8748002 -0.438748E+02  0.614E-03    4.42       0.0  T
   2    -43.8748002 -0.303457E-07  0.347E-03    4.42       5.2  T
   3    -43.8748002  0.124855E-07  0.993E-04    4.42      18.1  T
   4    -43.8748002 -0.202532E-07  0.308E-04    4.42      58.3  T
     SCC iter.                  ...        0 min,  0.070 sec
     gradient                   ...        0 min,  0.047 sec
 * total energy  :   -43.2839558 Eh     change       -0.1223559E-05 Eh
   gradient norm :     0.0003570 Eh/α   predicted    -0.7070194E-06 ( -42.22%)
   displ. norm   :     0.0187834 α      lambda       -0.1249583E-05
   maximum displ.:     0.0131269 α      in ANC's #3, #2, #1, ...

........................................................................
.............................. CYCLE   69 ..............................
........................................................................

 iter      E             dE          RMSdq      gap      omega  full diag
   1    -43.8748987 -0.438749E+02  0.806E-03    4.42       0.0  T
   2    -43.8748988 -0.393993E-07  0.456E-03    4.42       3.9  T
   3    -43.8748988  0.121691E-07  0.103E-03    4.42      17.4  T
   4    -43.8748988 -0.236840E-07  0.348E-04    4.42      51.5  T
   5    -43.8748988 -0.190004E-08  0.164E-04    4.42     109.6  T
     SCC iter.                  ...        0 min,  0.082 sec
     gradient                   ...        0 min,  0.037 sec
 * total energy  :   -43.2839566 Eh     change       -0.8641620E-06 Eh
   gradient norm :     0.0007364 Eh/α   predicted    -0.6253084E-06 ( -27.64%)
   displ. norm   :     0.0204695 α      lambda       -0.1349929E-05
   maximum displ.:     0.0140694 α      in ANC's #3, #2, #1, ...

   *** GEOMETRY OPTIMIZATION CONVERGED AFTER 69 ITERATIONS ***

------------------------------------------------------------------------
 total energy gain   :        -0.0066285 Eh       -4.1594 kcal/mol
 total RMSD          :         1.2005844 a0        0.6353 Å
 total power (kW/mol):        -0.2522181 (step)   -1.5939 (real)
------------------------------------------------------------------------

 ANCopt (total)                0 d,  0 h,  0 min, 10.919 sec
 optimizer setup                ...        0 min,  0.001 sec (  0.007%)
 model hessian                  ...        0 min,  0.100 sec (  0.916%)
 ANC generation                 ...        0 min,  0.006 sec (  0.052%)
 coordinate transformation      ...        0 min,  0.001 sec (  0.009%)
 single point calculation       ...        0 min, 10.512 sec ( 96.275%)
 optimization log               ...        0 min,  0.010 sec (  0.095%)
 hessian update                 ...        0 min,  0.265 sec (  2.427%)
 rational function              ...        0 min,  0.009 sec (  0.084%)

================
 final structure:
================
31
 xtb: 6.7.1 (edcfbbe)
C            3.92753856258799        0.03184064522378        1.75505737394534
C            3.93409284725094        0.79630504678464        0.43994888876900
O            2.61895353935524        1.23818685270800        0.08590322019805
C            1.82001724193488        0.35588149616081       -0.51138591523736
O            2.12547987199473       -0.77290789118313       -0.77815747088088
C            0.46402167507245        1.00096699525533       -0.79519725253046
C            0.28573264136039        1.09569152242417       -2.22322920251742
N            0.14922355929375        1.18924608691472       -3.35406846326166
C           -0.69029985698823        0.21085447073033       -0.13118145194679
C           -0.92919703033583       -1.13551739832412       -0.81389051556387
C           -2.06019363486912       -1.88750726711282       -0.11867218521340
C           -3.34138763150042       -1.05976484111055       -0.13864807409990
C           -3.10914460236509        0.29116448726428        0.53027110735329
C           -1.97348081206791        1.04307670194528       -0.15848301035275
H            4.94611213047818       -0.22709440729447        2.02887097129858
H            3.34896150839014       -0.88274908133131        1.65159540587444
H            3.49220441707042        0.64110689603968        2.54343496033002
H            4.32166642639880        0.16499778518968       -0.36549808699769
H            4.52518109668082        1.71055071899942        0.51597314058070
H            0.49377842811703        2.01952910312422       -0.38969660033532
H           -0.40678931659258        0.03406784866373        0.91380557139316
H           -1.19572270318951       -0.96571518529822       -1.85979004812525
H           -0.01477493275031       -1.72965992102215       -0.79402403859558
H           -1.77816342968921       -2.09694985024493        0.91622471170996
H           -2.22516248633316       -2.84292686104896       -0.61943337836814
H           -4.14132065675732       -1.59585390853311        0.37565868042818
H           -3.65352463616836       -0.90201543680171       -1.17326577530062
H           -2.85504406286216        0.13621867389702        1.58189605827131
H           -4.02105478697460        0.89013914509508        0.49176869289883
H           -1.81124812413521        2.00195570465586        0.34108851618385
H           -2.24645524240016        1.24688186823852       -1.19687710419208

 Bond Distances (Angstroems)
 ---------------------------
C1-C2=1.5212         C1-H15=1.0861        C1-H16=1.0872        C1-H17=1.0873        C2-C1=1.5212         C2-O3=1.4319         
C2-H18=1.0943        C2-H19=1.0913        O3-C2=1.4319         O3-C4=1.3317         C4-O3=1.3317         C4-O5=1.1994         
C4-C6=1.5282         O5-C4=1.1994         C6-C4=1.5282         C6-C7=1.4422         C6-C9=1.5484         C6-H20=1.0967        
C7-C6=1.4422         C7-N8=1.1429         N8-C7=1.1429         C9-C6=1.5484         C9-C10=1.5284        C9-C14=1.5297        
C9-H21=1.0971        C10-C9=1.5284        C10-C11=1.5258       C10-H22=1.0926       C10-H23=1.0907       C11-C10=1.5258       
C11-C12=1.5255       C11-H24=1.0929       C11-H25=1.0912       C12-C11=1.5255       C12-C13=1.5253       C12-H26=1.0917       
C12-H27=1.0921       C13-C12=1.5253       C13-C14=1.5263       C13-H28=1.0929       C13-H29=1.0917       C14-C9=1.5297        
C14-C13=1.5263       C14-H30=1.0933       C14-H31=1.0928       H15-C1=1.0861        H16-C1=1.0872        H17-C1=1.0873        
H18-C2=1.0943        H19-C2=1.0913        H20-C6=1.0967        H21-C9=1.0971        H22-C10=1.0926       H23-C10=1.0907       
H24-C11=1.0929       H25-C11=1.0912       H26-C12=1.0917       H27-C12=1.0921       H28-C13=1.0929       H29-C13=1.0917       
H30-C14=1.0933       H31-C14=1.0928       
 C  H  Rav=1.0919 sigma=0.0029  Rmin=1.0861  Rmax=1.0971    17
 C  C  Rav=1.5201 sigma=0.0269  Rmin=1.4422  Rmax=1.5484    10
 N  C  Rav=1.1429 sigma=0.0000  Rmin=1.1429  Rmax=1.1429     1
 O  C  Rav=1.3210 sigma=0.0952  Rmin=1.1994  Rmax=1.4319     3

 selected bond angles (degree)
 --------------------
H15-C1-C2=109.50               H16-C1-C2=110.05               H16-C1-H15=108.82              H17-C1-C2=110.30               
H17-C1-H15=109.04              H17-C1-H16=109.11              O3-C2-C1=111.40                H18-C2-C1=110.36               
H18-C2-O3=108.74               H19-C2-C1=111.29               H19-C2-O3=104.84               H19-C2-H18=110.04              
C4-O3-C2=117.22                O5-C4-O3=124.78                C6-C4-O3=109.63                C6-C4-O5=125.59                
C7-C6-C4=108.74                C9-C6-C4=111.50                C9-C6-C7=111.47                H20-C6-C4=107.42               
H20-C6-C7=107.97               H20-C6-C9=109.61               N8-C7-C6=179.04                C10-C9-C6=111.99               
C14-C9-C6=109.88               C14-C9-C10=109.89              H21-C9-C6=107.34               H21-C9-C10=108.90              
H21-C9-C14=108.75              C11-C10-C9=110.27              H22-C10-C9=109.20              H22-C10-C11=109.39             
H23-C10-C9=109.92              H23-C10-C11=110.16             H23-C10-H22=107.86             

 selected dihedral angles (degree)
 ---------------------------------
O3-C2-C1-H15=183.97           O3-C2-C1-H16= 64.41           O3-C2-C1-H17=303.98           H18-C2-C1-H15= 63.07          
H18-C2-C1-H16=303.50          H18-C2-C1-H17=183.07          H19-C2-C1-H15=300.59          H19-C2-C1-H16=181.03          
H19-C2-C1-H17= 60.59          C4-O3-C2-C1=277.96            C4-O3-C2-H18= 39.81           C4-O3-C2-H19=157.48           
O5-C4-O3-C2=359.58            C6-C4-O3-C2=179.35            C7-C6-C4-O3=114.28            C7-C6-C4-O5=294.05            
C9-C6-C4-O3=237.58            C9-C6-C4-O5= 57.35            H20-C6-C4-O3=357.68           H20-C6-C4-O5=177.45           
N8-C7-C6-C4=258.94            N8-C7-C6-C9=135.62            N8-C7-C6-H20= 15.19           C10-C9-C6-C4=289.46           
C10-C9-C6-C7= 51.19           C10-C9-C6-H20=170.66          C14-C9-C6-C4=167.04           C14-C9-C6-C7=288.77           
C14-C9-C6-H20= 48.24          H21-C9-C6-C4= 48.94           H21-C9-C6-C7=170.67           H21-C9-C6-H20=290.14          
C11-C10-C9-C6=179.27          C11-C10-C9-C14=301.69         C11-C10-C9-H21= 60.72         H22-C10-C9-C6=299.49          
H22-C10-C9-C14= 61.91         H22-C10-C9-H21=180.94         H23-C10-C9-C6= 57.62          H23-C10-C9-C14=180.04         
H23-C10-C9-H21=299.07         
           -------------------------------------------------
          |                Final Singlepoint                |
           -------------------------------------------------

          ...................................................
          :                      SETUP                      :
          :.................................................:
          :  # basis functions                  73          :
          :  # atomic orbitals                  73          :
          :  # shells                           45          :
          :  # electrons                        78          :
          :  max. iterations                   250          :
          :  Hamiltonian                  GFN2-xTB          :
          :  restarted?                      false          :
          :  GBSA solvation                  false          :
          :  PC potential                    false          :
          :  electronic temp.          300.0000000     K    :
          :  accuracy                    1.0000000          :
          :  -> integral cutoff          0.2500000E+02      :
          :  -> integral neglect         0.1000000E-07      :
          :  -> SCF convergence          0.1000000E-05 Eh   :
          :  -> wf. convergence          0.1000000E-03 e    :
          :  Broyden damping             0.4000000          :
          :  net charge                          0          :
          :  unpaired electrons                  0          :
          ...................................................

 iter      E             dE          RMSdq      gap      omega  full diag
   1    -43.8748988 -0.438749E+02  0.469E-05    4.42       0.0  T
   2    -43.8748988 -0.618883E-11  0.297E-05    4.42     605.6  T
   3    -43.8748988  0.250822E-11  0.196E-05    4.42     914.3  T

   *** convergence criteria satisfied after 3 iterations ***

         #    Occupation            Energy/Eh            Energy/eV
      -------------------------------------------------------------
         1        2.0000           -0.7614532             -20.7202
       ...           ...                  ...                  ...
        33        2.0000           -0.4529688             -12.3259
        34        2.0000           -0.4450753             -12.1111
        35        2.0000           -0.4397879             -11.9672
        36        2.0000           -0.4310728             -11.7301
        37        2.0000           -0.4273182             -11.6279
        38        2.0000           -0.4229850             -11.5100
        39        2.0000           -0.4130117             -11.2386 (HOMO)
        40                         -0.2504694              -6.8156 (LUMO)
        41                         -0.2104970              -5.7279
        42                         -0.2060978              -5.6082
        43                         -0.0142456              -0.3876
        44                          0.0534095               1.4533
       ...                                ...                  ...
        73                          1.1405866              31.0369
      -------------------------------------------------------------
                  HL-Gap            0.1625423 Eh            4.4230 eV
             Fermi-level           -0.3317405 Eh           -9.0271 eV

 SCC (total)                   0 d,  0 h,  0 min,  0.117 sec
 SCC setup                      ...        0 min,  0.005 sec (  3.870%)
 Dispersion                     ...        0 min,  0.009 sec (  7.364%)
 classical contributions        ...        0 min,  0.004 sec (  3.782%)
 integral evaluation            ...        0 min,  0.015 sec ( 12.449%)
 iterations                     ...        0 min,  0.045 sec ( 38.890%)
 molecular gradient             ...        0 min,  0.039 sec ( 33.472%)
 printout                       ...        0 min,  0.000 sec (  0.147%)

         :::::::::::::::::::::::::::::::::::::::::::::::::::::
         ::                     SUMMARY                     ::
         :::::::::::::::::::::::::::::::::::::::::::::::::::::
         :: total energy             -43.283956644528 Eh    ::
         :: gradient norm              0.000736225489 Eh/a0 ::
         :: HOMO-LUMO gap              4.423001783311 eV    ::
         ::.................................................::
         :: SCC energy               -43.874691438405 Eh    ::
         :: -> isotropic ES            0.053316063691 Eh    ::
         :: -> anisotropic ES          0.003564660061 Eh    ::
         :: -> anisotropic XC          0.028063594188 Eh    ::
         :: -> dispersion             -0.026016834319 Eh    ::
         :: repulsion energy           0.590734793877 Eh    ::
         :: add. restraining           0.000000000000 Eh    ::
         :: total charge               0.000000000000 e     ::
         :::::::::::::::::::::::::::::::::::::::::::::::::::::

           -------------------------------------------------
          |                Property Printout                |
           -------------------------------------------------

    * Orbital Energies and Occupations

         #    Occupation            Energy/Eh            Energy/eV
      -------------------------------------------------------------
         1        2.0000           -0.7614532             -20.7202
       ...           ...                  ...                  ...
        27        2.0000           -0.4830032             -13.1432
        28        2.0000           -0.4785934             -13.0232
        29        2.0000           -0.4706143             -12.8061
        30        2.0000           -0.4659663             -12.6796
        31        2.0000           -0.4618346             -12.5672
        32        2.0000           -0.4612282             -12.5507
        33        2.0000           -0.4529688             -12.3259
        34        2.0000           -0.4450753             -12.1111
        35        2.0000           -0.4397879             -11.9672
        36        2.0000           -0.4310728             -11.7301
        37        2.0000           -0.4273182             -11.6279
        38        2.0000           -0.4229850             -11.5100
        39        2.0000           -0.4130117             -11.2386 (HOMO)
        40                         -0.2504694              -6.8156 (LUMO)
        41                         -0.2104970              -5.7279
        42                         -0.2060978              -5.6082
        43                         -0.0142456              -0.3876
        44                          0.0534095               1.4533
        45                          0.0690805               1.8798
        46                          0.0722453               1.9659
        47                          0.0974582               2.6520
        48                          0.0995495               2.7089
        49                          0.0998998               2.7184
        50                          0.1028040               2.7974
       ...                                ...                  ...
        73                          1.1405866              31.0369
      -------------------------------------------------------------
                  HL-Gap            0.1625423 Eh            4.4230 eV
             Fermi-level           -0.3317405 Eh           -9.0271 eV

     #   Z          covCN         q      C6AA      α(0)
     1   6 C        3.750    -0.114    22.754     6.803
     2   6 C        3.699     0.078    19.428     6.304
     3   8 O        1.704    -0.266    18.412     5.793
     4   6 C        2.728     0.369    20.744     7.456
     5   8 O        0.856    -0.396    21.608     6.232
     6   6 C        3.857    -0.042    21.287     6.562
     7   6 C        1.909     0.125    28.047     8.553
     8   7 N        0.911    -0.225    25.928     7.365
     9   6 C        3.861    -0.002    20.584     6.452
    10   6 C        3.807    -0.063    21.701     6.631
    11   6 C        3.806    -0.056    21.574     6.612
    12   6 C        3.806    -0.058    21.621     6.619
    13   6 C        3.806    -0.055    21.559     6.610
    14   6 C        3.808    -0.057    21.599     6.616
    15   1 H        0.925     0.054     2.273     2.357
    16   1 H        0.925     0.061     2.183     2.311
    17   1 H        0.925     0.054     2.276     2.359
    18   1 H        0.924     0.060     2.202     2.320
    19   1 H        0.924     0.060     2.195     2.317
    20   1 H        0.924     0.080     1.978     2.199
    21   1 H        0.924     0.034     2.528     2.487
    22   1 H        0.924     0.042     2.420     2.433
    23   1 H        0.924     0.053     2.283     2.363
    24   1 H        0.924     0.031     2.565     2.505
    25   1 H        0.924     0.035     2.518     2.482
    26   1 H        0.924     0.031     2.572     2.508
    27   1 H        0.924     0.037     2.493     2.469
    28   1 H        0.924     0.032     2.555     2.500
    29   1 H        0.924     0.033     2.546     2.495
    30   1 H        0.924     0.027     2.634     2.538
    31   1 H        0.924     0.040     2.446     2.446

 Mol. C6AA /au·bohr⁶  :       8378.470143
 Mol. C8AA /au·bohr⁸  :     185884.683739
 Mol. α(0) /au        :        135.696651


Wiberg/Mayer (AO) data.
largest (>0.10) Wiberg bond orders for each atom

 ---------------------------------------------------------------------------
     #   Z sym  total        # sym  WBO       # sym  WBO       # sym  WBO
 ---------------------------------------------------------------------------
     1   6 C    3.991 --     2 C    1.013    17 H    0.986    16 H    0.985
                            15 H    0.983
     2   6 C    3.920 --     1 C    1.013    19 H    0.972    18 H    0.969
                             3 O    0.929
     3   8 O    2.314 --     4 C    1.147     2 C    0.929     5 O    0.177
     4   6 C    3.920 --     5 O    1.761     3 O    1.147     6 C    0.921
     5   8 O    2.063 --     4 C    1.761     3 O    0.177
     6   6 C    3.992 --     7 C    1.032    20 H    0.933     9 C    0.933
                             4 C    0.921
     7   6 C    3.947 --     8 N    2.845     6 C    1.032
     8   7 N    3.012 --     7 C    2.845
     9   6 C    3.986 --    10 C    1.000    14 C    0.995    21 H    0.966
                             6 C    0.933
    10   6 C    3.994 --    11 C    1.007     9 C    1.000    22 H    0.973
                            23 H    0.971
    11   6 C    3.998 --    12 C    1.009    10 C    1.007    24 H    0.977
                            25 H    0.977
    12   6 C    3.998 --    13 C    1.009    11 C    1.009    26 H    0.977
                            27 H    0.977
    13   6 C    3.997 --    12 C    1.009    14 C    1.006    28 H    0.977
                            29 H    0.977
    14   6 C    3.996 --    13 C    1.006     9 C    0.995    30 H    0.976
                            31 H    0.975
    15   1 H    0.996 --     1 C    0.983
    16   1 H    0.996 --     1 C    0.985
    17   1 H    0.997 --     1 C    0.986
    18   1 H    0.996 --     2 C    0.969
    19   1 H    0.996 --     2 C    0.972
    20   1 H    0.993 --     6 C    0.933
    21   1 H    0.999 --     9 C    0.966
    22   1 H    0.998 --    10 C    0.973
    23   1 H    0.997 --    10 C    0.971
    24   1 H    0.999 --    11 C    0.977
    25   1 H    0.998 --    11 C    0.977
    26   1 H    0.998 --    12 C    0.977
    27   1 H    0.999 --    12 C    0.977
    28   1 H    0.999 --    13 C    0.977
    29   1 H    0.998 --    13 C    0.977
    30   1 H    0.999 --    14 C    0.976
    31   1 H    0.998 --    14 C    0.975
 ---------------------------------------------------------------------------

Topologies differ in total number of bonds
Writing topology from bond orders to xtbtopo.mol

molecular dipole:
                 x           y           z       tot (Debye)
 q only:        0.063       0.296       1.377
   full:        0.203       0.439       1.832       4.817
molecular quadrupole (traceless):
                xx          xy          yy          xz          yz          zz
 q only:       11.763       4.056      -1.611       5.825       1.865     -10.153
  q+dip:       12.316       4.712      -0.257       5.601       3.404     -12.059
   full:       13.761       4.967       0.201       4.882       3.103     -13.961

           -------------------------------------------------
          |                Geometry Summary                 |
           -------------------------------------------------

      molecular mass/u    :      195.2586007
   center of mass at/Å    :        0.2799659       0.1567610      -0.4049099
  moments of inertia/u·Å² :        0.4521021E+03   0.1288534E+04   0.1451012E+04
rotational constants/cm⁻¹ :        0.3728722E-01   0.1308280E-01   0.1161784E-01

 * 28 selected distances

     #   Z          #   Z                                           value/Å
     1   6 C        2   6 C                                       1.5211704
     2   6 C        3   8 O                                       1.4318518
     3   8 O        4   6 C                                       1.3317344
     4   6 C        5   8 O                                       1.1994333
     7   6 C        8   7 N                                       1.1428844
     9   6 C       10   6 C                                       1.5283590
    10   6 C       11   6 C                                       1.5257690
    11   6 C       12   6 C                                       1.5254557
    12   6 C       13   6 C                                       1.5252541
     9   6 C       14   6 C                                       1.5296709 (max)
    13   6 C       14   6 C                                       1.5262657
     1   6 C       15   1 H                                       1.0860541 (min)
     1   6 C       16   1 H                                       1.0871662
     1   6 C       17   1 H                                       1.0873181
     2   6 C       18   1 H                                       1.0943067
     2   6 C       19   1 H                                       1.0913342
     6   6 C       20   1 H                                       1.0967157
     9   6 C       21   1 H                                       1.0971007
    10   6 C       22   1 H                                       1.0926000
    10   6 C       23   1 H                                       1.0906732
    11   6 C       24   1 H                                       1.0928948
    11   6 C       25   1 H                                       1.0912393
    12   6 C       26   1 H                                       1.0916941
    12   6 C       27   1 H                                       1.0921302
    13   6 C       28   1 H                                       1.0929275
    13   6 C       29   1 H                                       1.0917113
    14   6 C       30   1 H                                       1.0933162
    14   6 C       31   1 H                                       1.0928468

 * 4 distinct bonds (by element types)

   Z      Z             #   av. dist./Å        max./Å        min./Å
   1 H    6 C          17     1.0918841     1.0971007     1.0860541
   6 C    6 C           7     1.5259921     1.5296709     1.5211704
   6 C    7 N           1     1.1428844     1.1428844     1.1428844
   6 C    8 O           3     1.3210065     1.4318518     1.1994333


optimized geometry written to: xtbopt.xyz


           -------------------------------------------------
          | TOTAL ENERGY              -43.283956644528 Eh   |
          | GRADIENT NORM               0.000736225489 Eh/α |
          | HOMO-LUMO GAP               4.423001783311 eV   |
           -------------------------------------------------

------------------------------------------------------------------------
 * finished run on 2026/07/07 at 15:01:29.622     
------------------------------------------------------------------------
 total:
 * wall-time:     0 d,  0 h,  0 min, 11.444 sec
 *  cpu-time:     0 d,  0 h,  3 min,  2.575 sec
 * ratio c/w:    15.953 speedup
 SCF:
 * wall-time:     0 d,  0 h,  0 min,  0.327 sec
 *  cpu-time:     0 d,  0 h,  0 min,  5.215 sec
 * ratio c/w:    15.951 speedup
 ANC optimizer:
 * wall-time:     0 d,  0 h,  0 min, 11.041 sec
 *  cpu-time:     0 d,  0 h,  2 min, 56.198 sec
 * ratio c/w:    15.958 speedup

