      -----------------------------------------------------------      
     |                   =====================                   |     
     |                           x T B                           |     
     |                   =====================                   |     
     |                         S. Grimme                         |     
     |          Mulliken Center for Theoretical Chemistry        |     
     |                    University of Bonn                     |     
      -----------------------------------------------------------      

   * xtb version 6.7.1 (edcfbbe) compiled by 'conda@5dfe00f5fb80' on 2026-06-10

   xtb is free software: you can redistribute it and/or modify it under
   the terms of the GNU Lesser General Public License as published by
   the Free Software Foundation, either version 3 of the License, or
   (at your option) any later version.
   
   xtb is distributed in the hope that it will be useful,
   but WITHOUT ANY WARRANTY; without even the implied warranty of
   MERCHANTABILITY or FITNESS FOR A PARTICULAR PURPOSE.  See the
   GNU Lesser General Public License for more details.
   
   Cite this work as:
   * C. Bannwarth, E. Caldeweyher, S. Ehlert, A. Hansen, P. Pracht,
     J. Seibert, S. Spicher, S. Grimme, WIREs Comput. Mol. Sci., 2020, 11,
     e01493. DOI: 10.1002/wcms.1493
   
   for GFN2-xTB:
   * C. Bannwarth, S. Ehlert and S. Grimme., J. Chem. Theory Comput., 2019,
     15, 1652-1671. DOI: 10.1021/acs.jctc.8b01176
   for GFN1-xTB:
   * S. Grimme, C. Bannwarth, P. Shushkov, J. Chem. Theory Comput., 2017,
     13, 1989-2009. DOI: 10.1021/acs.jctc.7b00118
   for GFN0-xTB:
   * P. Pracht, E. Caldeweyher, S. Ehlert, S. Grimme, ChemRxiv, 2019, preprint.
     DOI: 10.26434/chemrxiv.8326202.v1
   for GFN-FF:
   * S. Spicher and S. Grimme, Angew. Chem. Int. Ed., 2020, 59, 15665-15673.
     DOI: 10.1002/anie.202004239
   
   for ALPB and GBSA implicit solvation:
   * S. Ehlert, M. Stahn, S. Spicher, S. Grimme, J. Chem. Theory Comput.,
     2021, 17, 4250-4261. DOI: 10.1021/acs.jctc.1c00471
   
   for ddCOSMO and CPCM-X implicit solvation:
   * M. Stahn, S. Ehlert, S. Grimme, J. Phys. Chem. A,
     2023, XX, XXXX-XXXX. DOI: 10.1021/acs.jpca.3c04382
   
   for DFT-D4:
   * E. Caldeweyher, C. Bannwarth and S. Grimme, J. Chem. Phys., 2017,
     147, 034112. DOI: 10.1063/1.4993215
   * E. Caldeweyher, S. Ehlert, A. Hansen, H. Neugebauer, S. Spicher,
     C. Bannwarth and S. Grimme, J. Chem. Phys., 2019, 150, 154122.
     DOI: 10.1063/1.5090222
   * E. Caldeweyher, J.-M. Mewes, S. Ehlert and S. Grimme, Phys. Chem. Chem. Phys.
     2020, 22, 8499-8512. DOI: 10.1039/D0CP00502A
   
   for sTDA-xTB:
   * S. Grimme and C. Bannwarth, J. Chem. Phys., 2016, 145, 054103.
     DOI: 10.1063/1.4959605
   
   in the mass-spec context:
   * V. Asgeirsson, C. Bauer and S. Grimme, Chem. Sci., 2017, 8, 4879.
     DOI: 10.1039/c7sc00601b
   * J. Koopman and S. Grimme, ACS Omega 2019, 4, 12, 15120-15133.
     DOI: 10.1021/acsomega.9b02011
   
   for metadynamics refer to:
   * S. Grimme, J. Chem. Theory Comput., 2019, 155, 2847-2862
     DOI: 10.1021/acs.jctc.9b00143
   
   for SPH calculations refer to:
   * S. Spicher and S. Grimme, J. Chem. Theory Comput., 2021, 17, 1701-1714
     DOI: 10.1021/acs.jctc.0c01306
   
   for ONIOM refer to:
   * C. Plett, A. Katbashev, S. Ehlert, S. Grimme, M. Bursch,
     Phys. Chem. Chem. Phys., 2023, 25, 17860-17868. DOI: 10.1039/D3CP02178E
   
   for DIPRO refer to:
   * J. Kohn, N. Gildemeister, S. Grimme, D. Fazzi, A. Hansen,
     J. Chem. Phys., 2023, just accepted.
   
   for PTB refer to:
   * S. Grimme, M. Mueller, A. Hansen, J. Chem. Phys., 2023, 158, 124111.
     DOI: 10.1063/5.0137838
   
   with help from (in alphabetical order)
   P. Atkinson, C. Bannwarth, F. Bohle, G. Brandenburg, E. Caldeweyher
   M. Checinski, S. Dohm, S. Ehlert, S. Ehrlich, I. Gerasimov, C. Hölzer
   A. Katbashev, J. Kohn, J. Koopman, C. Lavigne, S. Lehtola, F. März, M. Müller,
   F. Musil, H. Neugebauer, J. Pisarek, C. Plett, P. Pracht, F. Pultar,
   J. Seibert, P. Shushkov, S. Spicher, M. Stahn, M. Steiner, T. Strunk,
   J. Stückrath, T. Rose, and J. Unsleber
   
 * started run on 2026/07/08 at 11:12:56.125     
   ID    Z sym.   atoms
    1    6 C      1-8
    2    8 O      9
    3    1 H      10-25

           -------------------------------------------------
          |                Calculation Setup                |
           -------------------------------------------------

          program call               : /home/ws/xd2484/miniforge3/envs/p3z_dft/bin/xtb xtb_input.xyz --gfn 2 --opt tight --cycles 500 --chrg 0 --uhf 0
          hostname                   : gpu10
          coordinate file            : xtb_input.xyz
          omp threads                :                    16


           -------------------------------------------------
          |                 G F N 2 - x T B                 |
           -------------------------------------------------

        Reference                      10.1021/acs.jctc.8b01176
      * Hamiltonian:
        H0-scaling (s, p, d)           1.850000    2.230000    2.230000
        zeta-weighting                 0.500000
      * Dispersion:
        s8                             2.700000
        a1                             0.520000
        a2                             5.000000
        s9                             5.000000
      * Repulsion:
        kExp                           1.500000    1.000000
        rExp                           1.000000
      * Coulomb:
        alpha                          2.000000
        third order                    shell-resolved
        anisotropic                    true
        a3                             3.000000
        a5                             4.000000
        cn-shift                       1.200000
        cn-exp                         4.000000
        max-rad                        5.000000


          ...................................................
          :                      SETUP                      :
          :.................................................:
          :  # basis functions                  52          :
          :  # atomic orbitals                  52          :
          :  # shells                           34          :
          :  # electrons                        54          :
          :  max. iterations                   250          :
          :  Hamiltonian                  GFN2-xTB          :
          :  restarted?                      false          :
          :  GBSA solvation                  false          :
          :  PC potential                    false          :
          :  electronic temp.          300.0000000     K    :
          :  accuracy                    1.0000000          :
          :  -> integral cutoff          0.2500000E+02      :
          :  -> integral neglect         0.1000000E-07      :
          :  -> SCF convergence          0.1000000E-05 Eh   :
          :  -> wf. convergence          0.1000000E-03 e    :
          :  Broyden damping             0.4000000          :
          :  net charge                          0          :
          :  unpaired electrons                  0          :
          ...................................................

 iter      E             dE          RMSdq      gap      omega  full diag
   1    -29.6357695 -0.296358E+02  0.349E+00    4.43       0.0  T
   2    -29.7142223 -0.784527E-01  0.185E+00    3.35       1.0  T
   3    -29.7208835 -0.666129E-02  0.121E+00    3.86       1.0  T
   4    -29.7258779 -0.499435E-02  0.231E-01    3.52       1.0  T
   5    -29.7263406 -0.462738E-03  0.841E-02    3.60       1.0  T
   6    -29.7263655 -0.248954E-04  0.271E-02    3.60       1.0  T
   7    -29.7263661 -0.601528E-06  0.857E-03    3.60       2.3  T
   8    -29.7263663 -0.178087E-06  0.184E-03    3.60      10.9  T
   9    -29.7263663 -0.613516E-08  0.914E-04    3.60      21.9  T
  10    -29.7263663 -0.146234E-08  0.179E-04    3.60     112.0  T

   *** convergence criteria satisfied after 10 iterations ***

         #    Occupation            Energy/Eh            Energy/eV
      -------------------------------------------------------------
         1        2.0000           -0.7125686             -19.3900
       ...           ...                  ...                  ...
        21        2.0000           -0.4519701             -12.2987
        22        2.0000           -0.4458686             -12.1327
        23        2.0000           -0.4397214             -11.9654
        24        2.0000           -0.4336336             -11.7998
        25        2.0000           -0.4309995             -11.7281
        26        2.0000           -0.4257150             -11.5843
        27        2.0000           -0.4046902             -11.0122 (HOMO)
        28                         -0.2725433              -7.4163 (LUMO)
        29                          0.0418588               1.1390
        30                          0.0781579               2.1268
        31                          0.0900129               2.4494
        32                          0.0965701               2.6278
       ...                                ...                  ...
        52                          0.5245836              14.2746
      -------------------------------------------------------------
                  HL-Gap            0.1321469 Eh            3.5959 eV
             Fermi-level           -0.3386167 Eh           -9.2142 eV

 SCC (total)                   0 d,  0 h,  0 min,  0.195 sec
 SCC setup                      ...        0 min,  0.004 sec (  2.148%)
 Dispersion                     ...        0 min,  0.007 sec (  3.731%)
 classical contributions        ...        0 min,  0.004 sec (  2.260%)
 integral evaluation            ...        0 min,  0.014 sec (  7.078%)
 iterations                     ...        0 min,  0.124 sec ( 63.678%)
 molecular gradient             ...        0 min,  0.041 sec ( 21.007%)
 printout                       ...        0 min,  0.000 sec (  0.083%)

         :::::::::::::::::::::::::::::::::::::::::::::::::::::
         ::                     SUMMARY                     ::
         :::::::::::::::::::::::::::::::::::::::::::::::::::::
         :: total energy             -29.340380920570 Eh    ::
         :: gradient norm              0.060748514375 Eh/a0 ::
         :: HOMO-LUMO gap              3.595900026890 eV    ::
         ::.................................................::
         :: SCC energy               -29.726467776124 Eh    ::
         :: -> isotropic ES            0.025617367636 Eh    ::
         :: -> anisotropic ES          0.006811334228 Eh    ::
         :: -> anisotropic XC          0.015758648007 Eh    ::
         :: -> dispersion             -0.014752853479 Eh    ::
         :: repulsion energy           0.386086855554 Eh    ::
         :: add. restraining           0.000000000000 Eh    ::
         :: total charge              -0.000000000000 e     ::
         :::::::::::::::::::::::::::::::::::::::::::::::::::::

      ----------------------------------------------------------- 
     |                   =====================                   |
     |                        A N C O P T                        |
     |                   =====================                   |
     |               Approximate Normal Coordinate               |
     |                Rational Function Optimizer                |
      ----------------------------------------------------------- 
      ----------------------------------------------------------- 
     |                   =====================                   |
     |                        A N C O P T                        |
     |                   =====================                   |
     |               Approximate Normal Coordinate               |
     |                Rational Function Optimizer                |
      ----------------------------------------------------------- 

          ...................................................
          :                      SETUP                      :
          :.................................................:
          :   optimization level             tight          :
          :   max. optcycles                   500          :
          :   ANC micro-cycles                  20          :
          :   degrees of freedom                69          :
          :.................................................:
          :   RF solver                   davidson          :
          :   write xtbopt.log                true          :
          :   linear?                        false          :
          :   energy convergence         0.1000000E-05 Eh   :
          :   grad. convergence          0.8000000E-03 Eh/α :
          :   maxmium RF displ.          1.0000000          :
          :   Hlow (freq-cutoff)         0.1000000E-01      :
          :   Hmax (freq-cutoff)         5.0000000          :
          :   S6 in model hess.         20.0000000          :
          ...................................................

generating ANC from exact Hessian ...
Using Lindh-Hessian (1995)
 Shifting diagonal of input Hessian by    9.1548276485780636E-003
 Lowest  eigenvalues of input Hessian
    0.000000    0.000000    0.000000    0.000000    0.000000    0.010000
    0.000000    0.010312    0.011206    0.012745    0.014355    0.014479
    0.016245    0.017827    0.019830    0.020813    0.023185    0.030015
 Highest eigenvalues
    1.206026    1.225599    1.254840    1.293645    1.329229    2.076584


........................................................................
.............................. CYCLE    1 ..............................
........................................................................

 iter      E             dE          RMSdq      gap      omega  full diag
   1    -29.7263663 -0.297264E+02  0.670E-05    3.60       0.0  T
   2    -29.7263663 -0.172555E-10  0.333E-05    3.60     600.6  T
   3    -29.7263663 -0.205347E-11  0.213E-05    3.60     940.8  T
     SCC iter.                  ...        0 min,  0.043 sec
     gradient                   ...        0 min,  0.039 sec
 * total energy  :   -29.3403809 Eh     change       -0.8723688E-10 Eh
   gradient norm :     0.0607507 Eh/α   predicted     0.0000000E+00 (-100.00%)
   displ. norm   :     0.1349297 α      lambda       -0.3420240E-02
   maximum displ.:     0.0609068 α      in ANC's #10, #32, #30, ...

........................................................................
.............................. CYCLE    2 ..............................
........................................................................

 iter      E             dE          RMSdq      gap      omega  full diag
   1    -29.7416468 -0.297416E+02  0.185E-01    3.77       0.0  T
   2    -29.7416920 -0.452932E-04  0.110E-01    3.75       1.0  T
   3    -29.7416927 -0.603160E-06  0.238E-02    3.75       1.0  T
   4    -29.7416952 -0.257008E-05  0.578E-03    3.75       3.5  T
   5    -29.7416954 -0.183301E-06  0.279E-03    3.75       7.2  T
   6    -29.7416955 -0.521218E-07  0.117E-03    3.75      17.1  T
   7    -29.7416955 -0.350791E-08  0.429E-04    3.75      46.6  T
   8    -29.7416955 -0.478966E-09  0.879E-05    3.75     227.5  T
     SCC iter.                  ...        0 min,  0.118 sec
     gradient                   ...        0 min,  0.048 sec
 * total energy  :   -29.3419847 Eh     change       -0.1603774E-02 Eh
   gradient norm :     0.0180517 Eh/α   predicted    -0.1741395E-02 (   8.58%)
   displ. norm   :     0.1190450 α      lambda       -0.1153935E-02
   maximum displ.:     0.0592324 α      in ANC's #14, #10, #4, ...

........................................................................
.............................. CYCLE    3 ..............................
........................................................................

 iter      E             dE          RMSdq      gap      omega  full diag
   1    -29.7494689 -0.297495E+02  0.151E-01    3.85       0.0  T
   2    -29.7494908 -0.219010E-04  0.898E-02    3.84       1.0  T
   3    -29.7494908  0.373036E-07  0.173E-02    3.84       1.2  T
   4    -29.7494923 -0.154335E-05  0.418E-03    3.83       4.8  T
   5    -29.7494925 -0.148326E-06  0.198E-03    3.84      10.1  T
   6    -29.7494925 -0.251363E-07  0.743E-04    3.84      26.9  T
   7    -29.7494925 -0.110416E-08  0.267E-04    3.84      75.0  T
     SCC iter.                  ...        0 min,  0.097 sec
     gradient                   ...        0 min,  0.040 sec
 * total energy  :   -29.3421047 Eh     change       -0.1200132E-03 Eh
   gradient norm :     0.0164909 Eh/α   predicted    -0.5852183E-03 ( 387.63%)
   displ. norm   :     0.0576538 α      lambda       -0.4813179E-03
   maximum displ.:     0.0292708 α      in ANC's #10, #8, #30, ...

........................................................................
.............................. CYCLE    4 ..............................
........................................................................

 iter      E             dE          RMSdq      gap      omega  full diag
   1    -29.7453785 -0.297454E+02  0.693E-02    3.79       0.0  T
   2    -29.7453823 -0.379740E-05  0.413E-02    3.80       1.0  T
   3    -29.7453822  0.123388E-06  0.753E-03    3.80       2.7  T
   4    -29.7453826 -0.462303E-06  0.202E-03    3.80       9.9  T
   5    -29.7453827 -0.384543E-07  0.105E-03    3.80      19.0  T
   6    -29.7453827 -0.541959E-08  0.427E-04    3.80      46.8  T
   7    -29.7453827 -0.267118E-09  0.130E-04    3.80     154.1  T
     SCC iter.                  ...        0 min,  0.099 sec
     gradient                   ...        0 min,  0.039 sec
 * total energy  :   -29.3423665 Eh     change       -0.2617749E-03 Eh
   gradient norm :     0.0015264 Eh/α   predicted    -0.2414781E-03 (  -7.75%)
   displ. norm   :     0.0398276 α      lambda       -0.1842910E-04
   maximum displ.:     0.0212075 α      in ANC's #10, #4, #7, ...

........................................................................
.............................. CYCLE    5 ..............................
........................................................................

 iter      E             dE          RMSdq      gap      omega  full diag
   1    -29.7448872 -0.297449E+02  0.255E-02    3.80       0.0  T
   2    -29.7448873 -0.667143E-07  0.151E-02    3.80       1.3  T
   3    -29.7448873 -0.237324E-07  0.943E-04    3.80      21.2  T
   4    -29.7448873 -0.438150E-08  0.533E-04    3.80      37.5  T
     SCC iter.                  ...        0 min,  0.074 sec
     gradient                   ...        0 min,  0.063 sec
 * total energy  :   -29.3423821 Eh     change       -0.1560659E-04 Eh
   gradient norm :     0.0011406 Eh/α   predicted    -0.9232465E-05 ( -40.84%)
   displ. norm   :     0.0351737 α      lambda       -0.6610317E-05
   maximum displ.:     0.0211043 α      in ANC's #4, #10, #7, ...

........................................................................
.............................. CYCLE    6 ..............................
........................................................................

 iter      E             dE          RMSdq      gap      omega  full diag
   1    -29.7450320 -0.297450E+02  0.207E-02    3.80       0.0  T
   2    -29.7450320 -0.696679E-07  0.122E-02    3.80       1.6  T
   3    -29.7450320  0.729759E-08  0.122E-03    3.80      16.3  T
   4    -29.7450320 -0.239452E-07  0.434E-04    3.80      46.0  T
   5    -29.7450320 -0.746766E-09  0.216E-04    3.80      92.6  T
     SCC iter.                  ...        0 min,  0.104 sec
     gradient                   ...        0 min,  0.045 sec
 * total energy  :   -29.3423898 Eh     change       -0.7677824E-05 Eh
   gradient norm :     0.0008736 Eh/α   predicted    -0.3312323E-05 ( -56.86%)
   displ. norm   :     0.0845736 α      lambda       -0.1152092E-04
   maximum displ.:     0.0516110 α      in ANC's #4, #10, #7, ...

........................................................................
.............................. CYCLE    7 ..............................
........................................................................

 iter      E             dE          RMSdq      gap      omega  full diag
   1    -29.7450691 -0.297451E+02  0.515E-02    3.81       0.0  T
   2    -29.7450693 -0.254852E-06  0.303E-02    3.81       1.0  T
   3    -29.7450693 -0.798801E-08  0.228E-03    3.81       8.8  T
   4    -29.7450694 -0.786053E-07  0.966E-04    3.81      20.7  T
   5    -29.7450694 -0.266392E-08  0.458E-04    3.81      43.7  T
     SCC iter.                  ...        0 min,  0.084 sec
     gradient                   ...        0 min,  0.042 sec
 * total energy  :   -29.3424024 Eh     change       -0.1260702E-04 Eh
   gradient norm :     0.0007583 Eh/α   predicted    -0.5779146E-05 ( -54.16%)
   displ. norm   :     0.0955653 α      lambda       -0.1003930E-04
   maximum displ.:     0.0573124 α      in ANC's #4, #11, #10, ...

........................................................................
.............................. CYCLE    8 ..............................
........................................................................

 iter      E             dE          RMSdq      gap      omega  full diag
   1    -29.7450502 -0.297451E+02  0.615E-02    3.81       0.0  T
   2    -29.7450506 -0.345596E-06  0.362E-02    3.81       1.0  T
   3    -29.7450506 -0.562469E-07  0.229E-03    3.81       8.7  T
   4    -29.7450507 -0.623120E-07  0.110E-03    3.81      18.2  T
   5    -29.7450507 -0.285326E-08  0.527E-04    3.81      38.0  T
   6    -29.7450507 -0.166271E-08  0.201E-04    3.81      99.7  T
     SCC iter.                  ...        0 min,  0.130 sec
     gradient                   ...        0 min,  0.046 sec
 * total energy  :   -29.3424131 Eh     change       -0.1069949E-04 Eh
   gradient norm :     0.0005919 Eh/α   predicted    -0.5046514E-05 ( -52.83%)
   displ. norm   :     0.0729473 α      lambda       -0.6343874E-05
   maximum displ.:     0.0409566 α      in ANC's #4, #11, #10, ...

........................................................................
.............................. CYCLE    9 ..............................
........................................................................

 iter      E             dE          RMSdq      gap      omega  full diag
   1    -29.7451712 -0.297452E+02  0.497E-02    3.81       0.0  T
   2    -29.7451714 -0.199281E-06  0.293E-02    3.81       1.0  T
   3    -29.7451714 -0.436346E-07  0.172E-03    3.81      11.6  T
   4    -29.7451714 -0.317984E-07  0.865E-04    3.81      23.1  T
   5    -29.7451715 -0.181363E-08  0.411E-04    3.81      48.6  T
     SCC iter.                  ...        0 min,  0.073 sec
     gradient                   ...        0 min,  0.036 sec
 * total energy  :   -29.3424191 Eh     change       -0.6031185E-05 Eh
   gradient norm :     0.0003138 Eh/α   predicted    -0.3184016E-05 ( -47.21%)
   displ. norm   :     0.0336585 α      lambda       -0.2097411E-05
   maximum displ.:     0.0183018 α      in ANC's #11, #1, #4, ...

........................................................................
.............................. CYCLE   10 ..............................
........................................................................

 iter      E             dE          RMSdq      gap      omega  full diag
   1    -29.7451588 -0.297452E+02  0.250E-02    3.81       0.0  T
   2    -29.7451589 -0.587977E-07  0.148E-02    3.81       1.4  T
   3    -29.7451589 -0.143182E-07  0.824E-04    3.81      24.3  T
   4    -29.7451589 -0.589718E-08  0.427E-04    3.81      46.9  T
     SCC iter.                  ...        0 min,  0.051 sec
     gradient                   ...        0 min,  0.042 sec
 * total energy  :   -29.3424212 Eh     change       -0.2131721E-05 Eh
   gradient norm :     0.0002831 Eh/α   predicted    -0.1049972E-05 ( -50.75%)
   displ. norm   :     0.0254484 α      lambda       -0.1407018E-05
   maximum displ.:     0.0130170 α      in ANC's #1, #6, #11, ...

........................................................................
.............................. CYCLE   11 ..............................
........................................................................

 iter      E             dE          RMSdq      gap      omega  full diag
   1    -29.7451902 -0.297452E+02  0.167E-02    3.81       0.0  T
   2    -29.7451902 -0.190814E-07  0.986E-03    3.81       2.0  T
   3    -29.7451902 -0.525525E-08  0.555E-04    3.81      36.0  T
   4    -29.7451902 -0.323464E-08  0.287E-04    3.81      69.6  T
     SCC iter.                  ...        0 min,  0.057 sec
     gradient                   ...        0 min,  0.028 sec
 * total energy  :   -29.3424227 Eh     change       -0.1512494E-05 Eh
   gradient norm :     0.0001875 Eh/α   predicted    -0.7053642E-06 ( -53.36%)
   displ. norm   :     0.0296242 α      lambda       -0.1219492E-05
   maximum displ.:     0.0168245 α      in ANC's #1, #7, #11, ...

........................................................................
.............................. CYCLE   12 ..............................
........................................................................

 iter      E             dE          RMSdq      gap      omega  full diag
   1    -29.7450731 -0.297451E+02  0.202E-02    3.81       0.0  T
   2    -29.7450732 -0.345203E-07  0.119E-02    3.81       1.7  T
   3    -29.7450732 -0.693537E-08  0.644E-04    3.81      31.0  T
   4    -29.7450732 -0.413481E-08  0.315E-04    3.81      63.4  T
     SCC iter.                  ...        0 min,  0.134 sec
     gradient                   ...        0 min,  0.049 sec
 * total energy  :   -29.3424240 Eh     change       -0.1301115E-05 Eh
   gradient norm :     0.0005239 Eh/α   predicted    -0.6122780E-06 ( -52.94%)
   displ. norm   :     0.0278592 α      lambda       -0.1141708E-05
   maximum displ.:     0.0178595 α      in ANC's #7, #1, #4, ...

........................................................................
.............................. CYCLE   13 ..............................
........................................................................

 iter      E             dE          RMSdq      gap      omega  full diag
   1    -29.7451732 -0.297452E+02  0.131E-02    3.81       0.0  T
   2    -29.7451732 -0.146951E-07  0.778E-03    3.81       2.6  T
   3    -29.7451732 -0.118734E-08  0.473E-04    3.81      42.3  T
   4    -29.7451732 -0.275443E-08  0.198E-04    3.81     100.9  T
     SCC iter.                  ...        0 min,  0.137 sec
     gradient                   ...        0 min,  0.049 sec
 * total energy  :   -29.3424251 Eh     change       -0.1088611E-05 Eh
   gradient norm :     0.0003933 Eh/α   predicted    -0.5772839E-06 ( -46.97%)
   displ. norm   :     0.0324668 α      lambda       -0.1047267E-05
   maximum displ.:     0.0207428 α      in ANC's #1, #7, #11, ...

........................................................................
.............................. CYCLE   14 ..............................
........................................................................

 iter      E             dE          RMSdq      gap      omega  full diag
   1    -29.7450728 -0.297451E+02  0.229E-02    3.81       0.0  T
   2    -29.7450729 -0.343510E-07  0.135E-02    3.81       1.5  T
   3    -29.7450729 -0.644612E-08  0.654E-04    3.81      30.6  T
   4    -29.7450729 -0.459712E-08  0.316E-04    3.81      63.2  T
     SCC iter.                  ...        0 min,  0.141 sec
     gradient                   ...        0 min,  0.061 sec
 * total energy  :   -29.3424261 Eh     change       -0.9431701E-06 Eh
   gradient norm :     0.0003249 Eh/α   predicted    -0.5267583E-06 ( -44.15%)
   displ. norm   :     0.0117049 α      lambda       -0.3760690E-06
   maximum displ.:     0.0072705 α      in ANC's #1, #5, #6, ...

   *** GEOMETRY OPTIMIZATION CONVERGED AFTER 14 ITERATIONS ***

------------------------------------------------------------------------
 total energy gain   :        -0.0020452 Eh       -1.2834 kcal/mol
 total RMSD          :         0.0947082 a0        0.0501 Å
 total power (kW/mol):        -0.3835407 (step)   -2.1477 (real)
------------------------------------------------------------------------

 ANCopt (total)                0 d,  0 h,  0 min,  2.500 sec
 optimizer setup                ...        0 min,  0.001 sec (  0.026%)
 model hessian                  ...        0 min,  0.010 sec (  0.399%)
 ANC generation                 ...        0 min,  0.001 sec (  0.044%)
 coordinate transformation      ...        0 min,  0.000 sec (  0.008%)
 single point calculation       ...        0 min,  2.428 sec ( 97.116%)
 optimization log               ...        0 min,  0.002 sec (  0.061%)
 hessian update                 ...        0 min,  0.054 sec (  2.173%)
 rational function              ...        0 min,  0.002 sec (  0.086%)

================
 final structure:
================
25
 xtb: 6.7.1 (edcfbbe)
C           -4.25211488119928       -0.16343453482610       -0.30498030240484
C           -2.95681918559053        0.60863913094238       -0.08660860185583
C           -1.73292452395734       -0.30121258488528       -0.16016565634784
C           -0.43136792293922        0.46952156081492        0.04722664587448
C            0.79190568826320       -0.44097236613176       -0.03048128237050
C            2.09200500406697        0.33336719020310        0.17362098813503
C            3.31466639207607       -0.58118207556250        0.07762388629188
C            4.58823188328006        0.15828789953642        0.35560801118131
O            5.59466669104151        0.08487070480614       -0.29046696754504
H           -4.25179515684798       -0.63997390956146       -1.28292506993937
H           -4.36784236570957       -0.93665321393109        0.45149493717608
H           -5.10957340267070        0.50303576862240       -0.24842271296457
H           -2.98522828263854        1.09609798759364        0.89063108309258
H           -2.86928042108487        1.39139993704314       -0.84354302552323
H           -1.81720365693926       -1.08037666777214        0.60118442152683
H           -1.70911298028684       -0.79401777430190       -1.13497509529811
H           -0.45495035028058        0.96170929749028        1.02246376356740
H           -0.34946891628966        1.24950581193692       -0.71335158729103
H            0.81336963999109       -0.93263344116700       -1.00558068189883
H            0.71100881700749       -1.22031063873646        0.73107432876055
H            2.16874491096876        1.11710102447625       -0.58309648591298
H            2.07630628139430        0.81687230615429        1.15333978217300
H            3.23125883366013       -1.36952513469656        0.83250138187635
H            3.37345841676270       -1.05348947990157       -0.90432328240621
H            4.53205948792305        0.80984109573096        1.25215152210303

 Bond Distances (Angstroems)
 ---------------------------
C1-C2=1.5237         C1-H10=1.0879        C1-H11=1.0879        C1-H12=1.0875        C2-C1=1.5237         C2-C3=1.5268         
C2-H13=1.0924        C2-H14=1.0924        C3-C2=1.5268         C3-C4=1.5268         C3-H15=1.0926        C3-H16=1.0926        
C4-C3=1.5268         C4-C5=1.5269         C4-H17=1.0927        C4-H18=1.0925        C5-C4=1.5269         C5-C6=1.5269         
C5-H19=1.0923        C5-H20=1.0926        C6-C5=1.5269         C6-C7=1.5299         C6-H21=1.0921        C6-H22=1.0926        
C7-C6=1.5299         C7-C8=1.4987         C7-H23=1.0947        C7-H24=1.0912        C8-C7=1.4987         C8-O9=1.1982         
C8-H25=1.1097        O9-C8=1.1982         H10-C1=1.0879        H11-C1=1.0879        H12-C1=1.0875        H13-C2=1.0924        
H14-C2=1.0924        H15-C3=1.0926        H16-C3=1.0926        H17-C4=1.0927        H18-C4=1.0925        H19-C5=1.0923        
H20-C5=1.0926        H21-C6=1.0921        H22-C6=1.0926        H23-C7=1.0947        H24-C7=1.0912        H25-C8=1.1097        
 C  H  Rav=1.0927 sigma=0.0048  Rmin=1.0875  Rmax=1.1097    16
 C  C  Rav=1.5228 sigma=0.0100  Rmin=1.4987  Rmax=1.5299     7
 O  C  Rav=1.1982 sigma=0.0000  Rmin=1.1982  Rmax=1.1982     1

 selected bond angles (degree)
 --------------------
H10-C1-C2=110.52               H11-C1-C2=110.54               H11-C1-H10=108.29              H12-C1-C2=110.63               
H12-C1-H10=108.39              H12-C1-H11=108.39              C3-C2-C1=111.88                H13-C2-C1=109.40               
H13-C2-C3=109.26               H14-C2-C1=109.38               H14-C2-C3=109.23               H14-C2-H13=107.59              
C4-C3-C2=112.08                H15-C3-C2=109.24               H15-C3-C4=109.33               H16-C3-C2=109.22               
H16-C3-C4=109.29               H16-C3-H15=107.56              C5-C4-C3=112.03                H17-C4-C3=109.28               
H17-C4-C5=109.35               H18-C4-C3=109.25               H18-C4-C5=109.28               H18-C4-H17=107.54              
C6-C5-C4=111.90                H19-C5-C4=109.24               H19-C5-C6=109.32               H20-C5-C4=109.30               
H20-C5-C6=109.36               H20-C5-H19=107.61              C7-C6-C5=111.65                H21-C6-C5=109.34               
H21-C6-C7=109.23               H22-C6-C5=109.39               H22-C6-C7=109.41               H22-C6-H21=107.74              
C8-C7-C6=111.87                H23-C7-C6=109.05               H23-C7-C8=106.99               H24-C7-C6=110.99               
H24-C7-C8=109.55               H24-C7-H23=108.24              O9-C8-C7=125.70                H25-C8-C7=113.36               
H25-C8-O9=120.94               

 selected dihedral angles (degree)
 ---------------------------------
C3-C2-C1-H10=300.05           C3-C2-C1-H11= 59.92           C3-C2-C1-H12=180.00           H13-C2-C1-H10=178.83          
H13-C2-C1-H11=298.71          H13-C2-C1-H12= 58.78          H14-C2-C1-H10= 61.22          H14-C2-C1-H11=181.09          
H14-C2-C1-H12=301.16          C4-C3-C2-C1=179.56            C4-C3-C2-H13=300.85           C4-C3-C2-H14= 58.30           
H15-C3-C2-C1=300.89           H15-C3-C2-H13= 62.19          H15-C3-C2-H14=179.64          H16-C3-C2-C1= 58.29           
H16-C3-C2-H13=179.59          H16-C3-C2-H14=297.03          C5-C4-C3-C2=180.16            C5-C4-C3-H15= 58.88           
C5-C4-C3-H16=301.39           H17-C4-C3-C2= 58.82           H17-C4-C3-H15=297.53          H17-C4-C3-H16=180.04          
H18-C4-C3-C2=301.40           H18-C4-C3-H15=180.12          H18-C4-C3-H16= 62.63          C6-C5-C4-C3=179.85            
C6-C5-C4-H17=301.16           C6-C5-C4-H18= 58.62           H19-C5-C4-C3= 58.65           H19-C5-C4-H17=179.96          
H19-C5-C4-H18=297.43          H20-C5-C4-C3=301.14           H20-C5-C4-H17= 62.45          H20-C5-C4-H18=179.92          
C7-C6-C5-C4=180.70            C7-C6-C5-H19=301.85           C7-C6-C5-H20= 59.44           H21-C6-C5-C4=301.68           
H21-C6-C5-H19= 62.84          H21-C6-C5-H20=180.43          H22-C6-C5-C4= 59.45           H22-C6-C5-H19=180.61          
H22-C6-C5-H20=298.20          C8-C7-C6-C5=183.30            C8-C7-C6-H21= 62.25           C8-C7-C6-H22=304.54           
H23-C7-C6-C5=301.44           H23-C7-C6-H21=180.39          H23-C7-C6-H22= 62.68          H24-C7-C6-C5= 60.59           
H24-C7-C6-H21=299.54          H24-C7-C6-H22=181.83          O9-C8-C7-C6=225.91            O9-C8-C7-H23=106.55           
O9-C8-C7-H24=349.43           H25-C8-C7-C6= 46.18           H25-C8-C7-H23=286.82          H25-C8-C7-H24=169.70          
           -------------------------------------------------
          |                Final Singlepoint                |
           -------------------------------------------------

          ...................................................
          :                      SETUP                      :
          :.................................................:
          :  # basis functions                  52          :
          :  # atomic orbitals                  52          :
          :  # shells                           34          :
          :  # electrons                        54          :
          :  max. iterations                   250          :
          :  Hamiltonian                  GFN2-xTB          :
          :  restarted?                      false          :
          :  GBSA solvation                  false          :
          :  PC potential                    false          :
          :  electronic temp.          300.0000000     K    :
          :  accuracy                    1.0000000          :
          :  -> integral cutoff          0.2500000E+02      :
          :  -> integral neglect         0.1000000E-07      :
          :  -> SCF convergence          0.1000000E-05 Eh   :
          :  -> wf. convergence          0.1000000E-03 e    :
          :  Broyden damping             0.4000000          :
          :  net charge                          0          :
          :  unpaired electrons                  0          :
          ...................................................

 iter      E             dE          RMSdq      gap      omega  full diag
   1    -29.7450729 -0.297451E+02  0.136E-04    3.81       0.0  T
   2    -29.7450729 -0.951204E-10  0.852E-05    3.81     234.8  T
   3    -29.7450729 -0.285780E-10  0.555E-05    3.81     360.3  T

   *** convergence criteria satisfied after 3 iterations ***

         #    Occupation            Energy/Eh            Energy/eV
      -------------------------------------------------------------
         1        2.0000           -0.7194430             -19.5770
       ...           ...                  ...                  ...
        21        2.0000           -0.4507957             -12.2668
        22        2.0000           -0.4467267             -12.1561
        23        2.0000           -0.4383134             -11.9271
        24        2.0000           -0.4338139             -11.8047
        25        2.0000           -0.4318046             -11.7500
        26        2.0000           -0.4255287             -11.5792
        27        2.0000           -0.4035787             -10.9819 (HOMO)
        28                         -0.2635164              -7.1706 (LUMO)
        29                          0.0377150               1.0263
        30                          0.0837996               2.2803
        31                          0.0971759               2.6443
        32                          0.1035788               2.8185
       ...                                ...                  ...
        52                          0.6180510              16.8180
      -------------------------------------------------------------
                  HL-Gap            0.1400623 Eh            3.8113 eV
             Fermi-level           -0.3335476 Eh           -9.0763 eV

 SCC (total)                   0 d,  0 h,  0 min,  0.245 sec
 SCC setup                      ...        0 min,  0.003 sec (  1.114%)
 Dispersion                     ...        0 min,  0.011 sec (  4.469%)
 classical contributions        ...        0 min,  0.005 sec (  2.051%)
 integral evaluation            ...        0 min,  0.018 sec (  7.442%)
 iterations                     ...        0 min,  0.148 sec ( 60.107%)
 molecular gradient             ...        0 min,  0.061 sec ( 24.745%)
 printout                       ...        0 min,  0.000 sec (  0.057%)

         :::::::::::::::::::::::::::::::::::::::::::::::::::::
         ::                     SUMMARY                     ::
         :::::::::::::::::::::::::::::::::::::::::::::::::::::
         :: total energy             -29.342426081802 Eh    ::
         :: gradient norm              0.000321661832 Eh/a0 ::
         :: HOMO-LUMO gap              3.811288802809 eV    ::
         ::.................................................::
         :: SCC energy               -29.745179387033 Eh    ::
         :: -> isotropic ES            0.024617931417 Eh    ::
         :: -> anisotropic ES          0.006625510451 Eh    ::
         :: -> anisotropic XC          0.015013784580 Eh    ::
         :: -> dispersion             -0.014754058625 Eh    ::
         :: repulsion energy           0.402753305231 Eh    ::
         :: add. restraining           0.000000000000 Eh    ::
         :: total charge              -0.000000000000 e     ::
         :::::::::::::::::::::::::::::::::::::::::::::::::::::

           -------------------------------------------------
          |                Property Printout                |
           -------------------------------------------------

    * Orbital Energies and Occupations

         #    Occupation            Energy/Eh            Energy/eV
      -------------------------------------------------------------
         1        2.0000           -0.7194430             -19.5770
       ...           ...                  ...                  ...
        15        2.0000           -0.5030012             -13.6874
        16        2.0000           -0.4936587             -13.4331
        17        2.0000           -0.4915583             -13.3760
        18        2.0000           -0.4747738             -12.9193
        19        2.0000           -0.4701042             -12.7922
        20        2.0000           -0.4662550             -12.6874
        21        2.0000           -0.4507957             -12.2668
        22        2.0000           -0.4467267             -12.1561
        23        2.0000           -0.4383134             -11.9271
        24        2.0000           -0.4338139             -11.8047
        25        2.0000           -0.4318046             -11.7500
        26        2.0000           -0.4255287             -11.5792
        27        2.0000           -0.4035787             -10.9819 (HOMO)
        28                         -0.2635164              -7.1706 (LUMO)
        29                          0.0377150               1.0263
        30                          0.0837996               2.2803
        31                          0.0971759               2.6443
        32                          0.1035788               2.8185
        33                          0.1132169               3.0808
        34                          0.1197638               3.2589
        35                          0.1332311               3.6254
        36                          0.1348675               3.6699
        37                          0.1467883               3.9943
        38                          0.1652128               4.4957
       ...                                ...                  ...
        52                          0.6180510              16.8180
      -------------------------------------------------------------
                  HL-Gap            0.1400623 Eh            3.8113 eV
             Fermi-level           -0.3335476 Eh           -9.0763 eV

     #   Z          covCN         q      C6AA      α(0)
     1   6 C        3.752    -0.103    22.525     6.768
     2   6 C        3.801    -0.053    21.531     6.606
     3   6 C        3.803    -0.060    21.646     6.624
     4   6 C        3.803    -0.059    21.642     6.623
     5   6 C        3.803    -0.059    21.639     6.623
     6   6 C        3.804    -0.056    21.584     6.614
     7   6 C        3.803    -0.087    22.149     6.700
     8   6 C        2.758     0.216    23.437     7.928
     9   8 O        0.856    -0.321    20.174     6.022
    10   1 H        0.925     0.034     2.527     2.486
    11   1 H        0.925     0.034     2.531     2.488
    12   1 H        0.925     0.034     2.528     2.486
    13   1 H        0.924     0.029     2.595     2.519
    14   1 H        0.924     0.030     2.590     2.517
    15   1 H        0.924     0.031     2.570     2.507
    16   1 H        0.924     0.032     2.561     2.503
    17   1 H        0.924     0.031     2.575     2.510
    18   1 H        0.924     0.032     2.562     2.503
    19   1 H        0.924     0.036     2.504     2.475
    20   1 H        0.924     0.033     2.538     2.491
    21   1 H        0.924     0.039     2.459     2.452
    22   1 H        0.924     0.037     2.488     2.467
    23   1 H        0.924     0.068     2.103     2.268
    24   1 H        0.924     0.066     2.135     2.285
    25   1 H        0.922     0.016     2.789     2.612

 Mol. C6AA /au·bohr⁶  :       4514.826850
 Mol. C8AA /au·bohr⁸  :      95749.797436
 Mol. α(0) /au        :        100.076506


Wiberg/Mayer (AO) data.
largest (>0.10) Wiberg bond orders for each atom

 ---------------------------------------------------------------------------
     #   Z sym  total        # sym  WBO       # sym  WBO       # sym  WBO
 ---------------------------------------------------------------------------
     1   6 C    3.997 --     2 C    1.019    11 H    0.988    10 H    0.988
                            12 H    0.987
     2   6 C    3.997 --     1 C    1.019     3 C    1.008    13 H    0.979
                            14 H    0.979
     3   6 C    3.996 --     2 C    1.008     4 C    1.007    15 H    0.977
                            16 H    0.977
     4   6 C    3.996 --     3 C    1.007     5 C    1.006    17 H    0.977
                            18 H    0.977
     5   6 C    3.996 --     4 C    1.006     6 C    1.006    19 H    0.977
                            20 H    0.977
     6   6 C    3.994 --     5 C    1.006     7 C    0.989    21 H    0.978
                            22 H    0.976
     7   6 C    3.995 --     8 C    1.012     6 C    0.989    24 H    0.971
                            23 H    0.938
     8   6 C    3.913 --     9 O    1.928     7 C    1.012    25 H    0.930
     9   8 O    2.094 --     8 C    1.928
    10   1 H    0.999 --     1 C    0.988
    11   1 H    0.999 --     1 C    0.988
    12   1 H    0.998 --     1 C    0.987
    13   1 H    0.999 --     2 C    0.979
    14   1 H    0.999 --     2 C    0.979
    15   1 H    0.999 --     3 C    0.977
    16   1 H    0.999 --     3 C    0.977
    17   1 H    0.999 --     4 C    0.977
    18   1 H    0.999 --     4 C    0.977
    19   1 H    0.999 --     5 C    0.977
    20   1 H    0.999 --     5 C    0.977
    21   1 H    0.998 --     6 C    0.978
    22   1 H    0.999 --     6 C    0.976
    23   1 H    0.995 --     7 C    0.938
    24   1 H    0.996 --     7 C    0.971
    25   1 H    1.000 --     8 C    0.930
 ---------------------------------------------------------------------------

Topologies differ in total number of bonds
Writing topology from bond orders to xtbtopo.mol

molecular dipole:
                 x           y           z       tot (Debye)
 q only:       -1.099      -0.119       0.340
   full:       -1.210      -0.098       0.481       3.319
molecular quadrupole (traceless):
                xx          xy          yy          xz          yz          zz
 q only:      -16.839      -1.122       8.744       5.108       0.221       8.095
  q+dip:      -22.678      -0.828      10.471       6.891       0.232      12.207
   full:      -21.691      -1.129      10.699       7.273      -0.256      10.992

           -------------------------------------------------
          |                Geometry Summary                 |
           -------------------------------------------------

      molecular mass/u    :      128.2123441
   center of mass at/Å    :        0.7754761       0.0177275      -0.0277980
  moments of inertia/u·Å² :        0.5020837E+02   0.1386935E+04   0.1404994E+04
rotational constants/cm⁻¹ :        0.3357534E+00   0.1215460E-01   0.1199836E-01

 * 22 selected distances

     #   Z          #   Z                                           value/Å
     1   6 C        2   6 C                                       1.5236717
     2   6 C        3   6 C                                       1.5268135
     3   6 C        4   6 C                                       1.5267916
     4   6 C        5   6 C                                       1.5269042
     5   6 C        6   6 C                                       1.5269310
     6   6 C        7   6 C                                       1.5298749 (max)
     8   6 C        9   8 O                                       1.1982129
     1   6 C       10   1 H                                       1.0878723
     1   6 C       11   1 H                                       1.0878947
     1   6 C       12   1 H                                       1.0874818 (min)
     2   6 C       13   1 H                                       1.0924380
     2   6 C       14   1 H                                       1.0923953
     3   6 C       15   1 H                                       1.0926362
     3   6 C       16   1 H                                       1.0925555
     4   6 C       17   1 H                                       1.0926539
     4   6 C       18   1 H                                       1.0925028
     5   6 C       19   1 H                                       1.0922501
     5   6 C       20   1 H                                       1.0926480
     6   6 C       21   1 H                                       1.0921306
     6   6 C       22   1 H                                       1.0926449
     7   6 C       23   1 H                                       1.0946606
     7   6 C       24   1 H                                       1.0912155

 * 3 distinct bonds (by element types)

   Z      Z             #   av. dist./Å        max./Å        min./Å
   1 H    6 C          15     1.0915987     1.0946606     1.0874818
   6 C    6 C           6     1.5268311     1.5298749     1.5236717
   6 C    8 O           1     1.1982129     1.1982129     1.1982129


optimized geometry written to: xtbopt.xyz


           -------------------------------------------------
          | TOTAL ENERGY              -29.342426081802 Eh   |
          | GRADIENT NORM               0.000321661832 Eh/α |
          | HOMO-LUMO GAP               3.811288802809 eV   |
           -------------------------------------------------

------------------------------------------------------------------------
 * finished run on 2026/07/08 at 11:12:59.131     
------------------------------------------------------------------------
 total:
 * wall-time:     0 d,  0 h,  0 min,  3.006 sec
 *  cpu-time:     0 d,  0 h,  0 min, 47.620 sec
 * ratio c/w:    15.844 speedup
 SCF:
 * wall-time:     0 d,  0 h,  0 min,  0.196 sec
 *  cpu-time:     0 d,  0 h,  0 min,  3.118 sec
 * ratio c/w:    15.939 speedup
 ANC optimizer:
 * wall-time:     0 d,  0 h,  0 min,  2.750 sec
 *  cpu-time:     0 d,  0 h,  0 min, 43.582 sec
 * ratio c/w:    15.845 speedup

