27
REP_00274 MMFF geometry for GFN2-xTB preoptimization
O   4.179603406849  0.572428225042  0.684048185338
C   3.705806360374 -0.511734635715  0.392582954261
O   4.496477985878 -1.598561598234  0.289179150667
C   2.262074327812 -0.842796588547  0.123203494782
C   1.387505126967  0.411839900140  0.123049906947
C  -0.068849101089  0.146501919075 -0.304671545299
C  -0.823475169563  1.482054905836 -0.426973826294
C  -2.285551891728  1.280399237827 -0.815540996572
C  -2.998114755174  0.344724994268  0.153905178215
C  -2.267142844791 -0.986833797250  0.279268850190
C  -0.801024042190 -0.796451676345  0.664324211591
H   5.393498001767 -1.257940852335  0.489668538088
H   1.932423900326 -1.540445175192  0.899358376116
H   2.201738453490 -1.334492394247 -0.853922687200
H   1.406419418546  0.869542676160  1.120813937839
H   1.827977203781  1.150458380257 -0.559886495073
H  -0.054264380820 -0.324963961230 -1.296958057079
H  -0.338281026544  2.117338745776 -1.177740811494
H  -0.775820991232  2.024539638706  0.526093904154
H  -2.797895879534  2.248866796580 -0.836588649025
H  -2.340227267020  0.867709169335 -1.830420246167
H  -3.063931034005  0.820246143173  1.140222058523
H  -4.025062982115  0.171766961358 -0.186961127735
H  -2.325270219923 -1.526207700101 -0.674258033673
H  -2.765841960385 -1.611234168004  1.029216701910
H  -0.744270495107 -0.397002439060  1.684872373542
H  -0.318500144571 -1.779752707272  0.679126368327
