      -----------------------------------------------------------      
     |                   =====================                   |     
     |                           x T B                           |     
     |                   =====================                   |     
     |                         S. Grimme                         |     
     |          Mulliken Center for Theoretical Chemistry        |     
     |                    University of Bonn                     |     
      -----------------------------------------------------------      

   * xtb version 6.7.1 (edcfbbe) compiled by 'conda@5dfe00f5fb80' on 2026-06-10

   xtb is free software: you can redistribute it and/or modify it under
   the terms of the GNU Lesser General Public License as published by
   the Free Software Foundation, either version 3 of the License, or
   (at your option) any later version.
   
   xtb is distributed in the hope that it will be useful,
   but WITHOUT ANY WARRANTY; without even the implied warranty of
   MERCHANTABILITY or FITNESS FOR A PARTICULAR PURPOSE.  See the
   GNU Lesser General Public License for more details.
   
   Cite this work as:
   * C. Bannwarth, E. Caldeweyher, S. Ehlert, A. Hansen, P. Pracht,
     J. Seibert, S. Spicher, S. Grimme, WIREs Comput. Mol. Sci., 2020, 11,
     e01493. DOI: 10.1002/wcms.1493
   
   for GFN2-xTB:
   * C. Bannwarth, S. Ehlert and S. Grimme., J. Chem. Theory Comput., 2019,
     15, 1652-1671. DOI: 10.1021/acs.jctc.8b01176
   for GFN1-xTB:
   * S. Grimme, C. Bannwarth, P. Shushkov, J. Chem. Theory Comput., 2017,
     13, 1989-2009. DOI: 10.1021/acs.jctc.7b00118
   for GFN0-xTB:
   * P. Pracht, E. Caldeweyher, S. Ehlert, S. Grimme, ChemRxiv, 2019, preprint.
     DOI: 10.26434/chemrxiv.8326202.v1
   for GFN-FF:
   * S. Spicher and S. Grimme, Angew. Chem. Int. Ed., 2020, 59, 15665-15673.
     DOI: 10.1002/anie.202004239
   
   for ALPB and GBSA implicit solvation:
   * S. Ehlert, M. Stahn, S. Spicher, S. Grimme, J. Chem. Theory Comput.,
     2021, 17, 4250-4261. DOI: 10.1021/acs.jctc.1c00471
   
   for ddCOSMO and CPCM-X implicit solvation:
   * M. Stahn, S. Ehlert, S. Grimme, J. Phys. Chem. A,
     2023, XX, XXXX-XXXX. DOI: 10.1021/acs.jpca.3c04382
   
   for DFT-D4:
   * E. Caldeweyher, C. Bannwarth and S. Grimme, J. Chem. Phys., 2017,
     147, 034112. DOI: 10.1063/1.4993215
   * E. Caldeweyher, S. Ehlert, A. Hansen, H. Neugebauer, S. Spicher,
     C. Bannwarth and S. Grimme, J. Chem. Phys., 2019, 150, 154122.
     DOI: 10.1063/1.5090222
   * E. Caldeweyher, J.-M. Mewes, S. Ehlert and S. Grimme, Phys. Chem. Chem. Phys.
     2020, 22, 8499-8512. DOI: 10.1039/D0CP00502A
   
   for sTDA-xTB:
   * S. Grimme and C. Bannwarth, J. Chem. Phys., 2016, 145, 054103.
     DOI: 10.1063/1.4959605
   
   in the mass-spec context:
   * V. Asgeirsson, C. Bauer and S. Grimme, Chem. Sci., 2017, 8, 4879.
     DOI: 10.1039/c7sc00601b
   * J. Koopman and S. Grimme, ACS Omega 2019, 4, 12, 15120-15133.
     DOI: 10.1021/acsomega.9b02011
   
   for metadynamics refer to:
   * S. Grimme, J. Chem. Theory Comput., 2019, 155, 2847-2862
     DOI: 10.1021/acs.jctc.9b00143
   
   for SPH calculations refer to:
   * S. Spicher and S. Grimme, J. Chem. Theory Comput., 2021, 17, 1701-1714
     DOI: 10.1021/acs.jctc.0c01306
   
   for ONIOM refer to:
   * C. Plett, A. Katbashev, S. Ehlert, S. Grimme, M. Bursch,
     Phys. Chem. Chem. Phys., 2023, 25, 17860-17868. DOI: 10.1039/D3CP02178E
   
   for DIPRO refer to:
   * J. Kohn, N. Gildemeister, S. Grimme, D. Fazzi, A. Hansen,
     J. Chem. Phys., 2023, just accepted.
   
   for PTB refer to:
   * S. Grimme, M. Mueller, A. Hansen, J. Chem. Phys., 2023, 158, 124111.
     DOI: 10.1063/5.0137838
   
   with help from (in alphabetical order)
   P. Atkinson, C. Bannwarth, F. Bohle, G. Brandenburg, E. Caldeweyher
   M. Checinski, S. Dohm, S. Ehlert, S. Ehrlich, I. Gerasimov, C. Hölzer
   A. Katbashev, J. Kohn, J. Koopman, C. Lavigne, S. Lehtola, F. März, M. Müller,
   F. Musil, H. Neugebauer, J. Pisarek, C. Plett, P. Pracht, F. Pultar,
   J. Seibert, P. Shushkov, S. Spicher, M. Stahn, M. Steiner, T. Strunk,
   J. Stückrath, T. Rose, and J. Unsleber
   
 * started run on 2026/07/08 at 22:39:40.658     
   ID    Z sym.   atoms
    1    6 C      1, 3-9
    2    8 O      2
    3    1 H      10-19

           -------------------------------------------------
          |                Calculation Setup                |
           -------------------------------------------------

          program call               : /home/ws/xd2484/miniforge3/envs/p3z_dft/bin/xtb xtb_input.xyz --gfn 2 --opt tight --cycles 500 --chrg 0 --uhf 0
          hostname                   : gpu10
          coordinate file            : xtb_input.xyz
          omp threads                :                    16


           -------------------------------------------------
          |                 G F N 2 - x T B                 |
           -------------------------------------------------

        Reference                      10.1021/acs.jctc.8b01176
      * Hamiltonian:
        H0-scaling (s, p, d)           1.850000    2.230000    2.230000
        zeta-weighting                 0.500000
      * Dispersion:
        s8                             2.700000
        a1                             0.520000
        a2                             5.000000
        s9                             5.000000
      * Repulsion:
        kExp                           1.500000    1.000000
        rExp                           1.000000
      * Coulomb:
        alpha                          2.000000
        third order                    shell-resolved
        anisotropic                    true
        a3                             3.000000
        a5                             4.000000
        cn-shift                       1.200000
        cn-exp                         4.000000
        max-rad                        5.000000


          ...................................................
          :                      SETUP                      :
          :.................................................:
          :  # basis functions                  46          :
          :  # atomic orbitals                  46          :
          :  # shells                           28          :
          :  # electrons                        48          :
          :  max. iterations                   250          :
          :  Hamiltonian                  GFN2-xTB          :
          :  restarted?                      false          :
          :  GBSA solvation                  false          :
          :  PC potential                    false          :
          :  electronic temp.          300.0000000     K    :
          :  accuracy                    1.0000000          :
          :  -> integral cutoff          0.2500000E+02      :
          :  -> integral neglect         0.1000000E-07      :
          :  -> SCF convergence          0.1000000E-05 Eh   :
          :  -> wf. convergence          0.1000000E-03 e    :
          :  Broyden damping             0.4000000          :
          :  net charge                          0          :
          :  unpaired electrons                  0          :
          ...................................................

 iter      E             dE          RMSdq      gap      omega  full diag
   1    -26.6398770 -0.266399E+02  0.437E+00    3.95       0.0  T
   2    -26.6711553 -0.312783E-01  0.250E+00    4.06       1.0  T
   3    -26.6695615  0.159379E-02  0.887E-01    3.89       1.0  T
   4    -26.6726396 -0.307808E-02  0.307E-01    4.06       1.0  T
   5    -26.6734631 -0.823540E-03  0.789E-02    4.04       1.0  T
   6    -26.6734820 -0.188680E-04  0.473E-02    4.02       1.0  T
   7    -26.6734922 -0.101994E-04  0.171E-02    4.03       1.3  T
   8    -26.6734929 -0.699274E-06  0.310E-03    4.03       7.4  T
   9    -26.6734929 -0.234190E-07  0.134E-03    4.03      17.2  T
  10    -26.6734929 -0.145552E-07  0.810E-04    4.03      28.3  T
  11    -26.6734929 -0.304163E-08  0.203E-04    4.03     112.8  T

   *** convergence criteria satisfied after 11 iterations ***

         #    Occupation            Energy/Eh            Energy/eV
      -------------------------------------------------------------
         1        2.0000           -0.7078726             -19.2622
       ...           ...                  ...                  ...
        18        2.0000           -0.4611467             -12.5484
        19        2.0000           -0.4498367             -12.2407
        20        2.0000           -0.4337544             -11.8031
        21        2.0000           -0.4311275             -11.7316
        22        2.0000           -0.4154962             -11.3062
        23        2.0000           -0.3963355             -10.7848
        24        2.0000           -0.3688528             -10.0370 (HOMO)
        25                         -0.2209134              -6.0114 (LUMO)
        26                         -0.2068432              -5.6285
        27                         -0.0893710              -2.4319
        28                          0.0258274               0.7028
        29                          0.0978050               2.6614
       ...                                ...                  ...
        46                          0.6415105              17.4564
      -------------------------------------------------------------
                  HL-Gap            0.1479394 Eh            4.0256 eV
             Fermi-level           -0.2948831 Eh           -8.0242 eV

 SCC (total)                   0 d,  0 h,  0 min,  0.230 sec
 SCC setup                      ...        0 min,  0.004 sec (  1.571%)
 Dispersion                     ...        0 min,  0.009 sec (  3.861%)
 classical contributions        ...        0 min,  0.004 sec (  1.916%)
 integral evaluation            ...        0 min,  0.014 sec (  6.057%)
 iterations                     ...        0 min,  0.156 sec ( 67.908%)
 molecular gradient             ...        0 min,  0.043 sec ( 18.607%)
 printout                       ...        0 min,  0.000 sec (  0.066%)

         :::::::::::::::::::::::::::::::::::::::::::::::::::::
         ::                     SUMMARY                     ::
         :::::::::::::::::::::::::::::::::::::::::::::::::::::
         :: total energy             -26.281594551642 Eh    ::
         :: gradient norm              0.034900433306 Eh/a0 ::
         :: HOMO-LUMO gap              4.025636012196 eV    ::
         ::.................................................::
         :: SCC energy               -26.673499889332 Eh    ::
         :: -> isotropic ES            0.016692325487 Eh    ::
         :: -> anisotropic ES          0.004946299822 Eh    ::
         :: -> anisotropic XC          0.012157476555 Eh    ::
         :: -> dispersion             -0.014096054142 Eh    ::
         :: repulsion energy           0.391905337690 Eh    ::
         :: add. restraining           0.000000000000 Eh    ::
         :: total charge               0.000000000000 e     ::
         :::::::::::::::::::::::::::::::::::::::::::::::::::::

      ----------------------------------------------------------- 
     |                   =====================                   |
     |                        A N C O P T                        |
     |                   =====================                   |
     |               Approximate Normal Coordinate               |
     |                Rational Function Optimizer                |
      ----------------------------------------------------------- 
      ----------------------------------------------------------- 
     |                   =====================                   |
     |                        A N C O P T                        |
     |                   =====================                   |
     |               Approximate Normal Coordinate               |
     |                Rational Function Optimizer                |
      ----------------------------------------------------------- 

          ...................................................
          :                      SETUP                      :
          :.................................................:
          :   optimization level             tight          :
          :   max. optcycles                   500          :
          :   ANC micro-cycles                  20          :
          :   degrees of freedom                51          :
          :.................................................:
          :   RF solver                   davidson          :
          :   write xtbopt.log                true          :
          :   linear?                        false          :
          :   energy convergence         0.1000000E-05 Eh   :
          :   grad. convergence          0.8000000E-03 Eh/α :
          :   maxmium RF displ.          1.0000000          :
          :   Hlow (freq-cutoff)         0.1000000E-01      :
          :   Hmax (freq-cutoff)         5.0000000          :
          :   S6 in model hess.         20.0000000          :
          ...................................................

generating ANC from exact Hessian ...
Using Lindh-Hessian (1995)
 Shifting diagonal of input Hessian by    8.3276709945055583E-003
 Lowest  eigenvalues of input Hessian
    0.000000    0.000000    0.000000    0.000000    0.000000    0.000000
    0.010000    0.012784    0.015294    0.016628    0.017450    0.023080
    0.025452    0.027203    0.035088    0.041952    0.054653    0.055650
 Highest eigenvalues
    1.455050    1.556316    1.720692    1.841926    1.958238    2.052089


........................................................................
.............................. CYCLE    1 ..............................
........................................................................

 iter      E             dE          RMSdq      gap      omega  full diag
   1    -26.6734929 -0.266735E+02  0.112E-04    4.03       0.0  T
   2    -26.6734929 -0.278071E-10  0.701E-05    4.03     327.1  T
   3    -26.6734929 -0.552802E-11  0.433E-05    4.03     530.0  T
     SCC iter.                  ...        0 min,  0.042 sec
     gradient                   ...        0 min,  0.037 sec
 * total energy  :   -26.2815946 Eh     change       -0.1982734E-09 Eh
   gradient norm :     0.0349013 Eh/α   predicted     0.0000000E+00 (-100.00%)
   displ. norm   :     0.1198907 α      lambda       -0.2652806E-02
   maximum displ.:     0.0559634 α      in ANC's #27, #13, #20, ...

........................................................................
.............................. CYCLE    2 ..............................
........................................................................

 iter      E             dE          RMSdq      gap      omega  full diag
   1    -26.6921954 -0.266922E+02  0.154E-01    4.12       0.0  T
   2    -26.6921998 -0.440726E-05  0.909E-02    4.11       1.0  T
   3    -26.6921977  0.206944E-05  0.152E-02    4.12       1.5  T
   4    -26.6922005 -0.279372E-05  0.418E-03    4.11       5.5  T
   5    -26.6922006 -0.131950E-06  0.168E-03    4.11      13.7  T
   6    -26.6922006  0.466390E-09  0.594E-04    4.11      38.6  T
   7    -26.6922006 -0.289918E-08  0.205E-04    4.11     111.9  T
     SCC iter.                  ...        0 min,  0.101 sec
     gradient                   ...        0 min,  0.041 sec
 * total energy  :   -26.2832504 Eh     change       -0.1655896E-02 Eh
   gradient norm :     0.0121020 Eh/α   predicted    -0.1345473E-02 ( -18.75%)
   displ. norm   :     0.0496425 α      lambda       -0.2957236E-03
   maximum displ.:     0.0294873 α      in ANC's #13, #27, #12, ...

........................................................................
.............................. CYCLE    3 ..............................
........................................................................

 iter      E             dE          RMSdq      gap      omega  full diag
   1    -26.6972090 -0.266972E+02  0.633E-02    4.14       0.0  T
   2    -26.6972099 -0.845083E-06  0.371E-02    4.14       1.0  T
   3    -26.6972092  0.668588E-06  0.857E-03    4.14       2.7  T
   4    -26.6972101 -0.851264E-06  0.153E-03    4.14      15.0  T
   5    -26.6972101 -0.161518E-07  0.594E-04    4.14      38.6  T
   6    -26.6972101 -0.172204E-09  0.272E-04    4.14      84.3  T
     SCC iter.                  ...        0 min,  0.061 sec
     gradient                   ...        0 min,  0.038 sec
 * total energy  :   -26.2834130 Eh     change       -0.1625568E-03 Eh
   gradient norm :     0.0032731 Eh/α   predicted    -0.1482541E-03 (  -8.80%)
   displ. norm   :     0.0130946 α      lambda       -0.1737360E-04
   maximum displ.:     0.0061910 α      in ANC's #13, #17, #3, ...

........................................................................
.............................. CYCLE    4 ..............................
........................................................................

 iter      E             dE          RMSdq      gap      omega  full diag
   1    -26.6968473 -0.266968E+02  0.139E-02    4.14       0.0  T
   2    -26.6968474 -0.100485E-06  0.820E-03    4.14       2.8  T
   3    -26.6968473  0.700275E-07  0.274E-03    4.14       8.4  T
   4    -26.6968474 -0.895140E-07  0.476E-04    4.14      48.2  T
   5    -26.6968474 -0.246380E-08  0.164E-04    4.14     140.1  T
     SCC iter.                  ...        0 min,  0.063 sec
     gradient                   ...        0 min,  0.033 sec
 * total energy  :   -26.2834252 Eh     change       -0.1220323E-04 Eh
   gradient norm :     0.0011632 Eh/α   predicted    -0.9157050E-05 ( -24.96%)
   displ. norm   :     0.0150763 α      lambda       -0.4750840E-05
   maximum displ.:     0.0079953 α      in ANC's #3, #1, #17, ...

........................................................................
.............................. CYCLE    5 ..............................
........................................................................

 iter      E             dE          RMSdq      gap      omega  full diag
   1    -26.6961041 -0.266961E+02  0.114E-02    4.13       0.0  T
   2    -26.6961042 -0.670011E-07  0.682E-03    4.13       3.4  T
   3    -26.6961041  0.560083E-07  0.228E-03    4.14      10.1  T
   4    -26.6961042 -0.707919E-07  0.400E-04    4.14      57.3  T
   5    -26.6961042 -0.176233E-08  0.143E-04    4.14     160.3  T
     SCC iter.                  ...        0 min,  0.067 sec
     gradient                   ...        0 min,  0.032 sec
 * total energy  :   -26.2834276 Eh     change       -0.2429131E-05 Eh
   gradient norm :     0.0006683 Eh/α   predicted    -0.2378212E-05 (  -2.10%)
   displ. norm   :     0.0038955 α      lambda       -0.6128355E-06
   maximum displ.:     0.0016912 α      in ANC's #4, #1, #10, ...

........................................................................
.............................. CYCLE    6 ..............................
........................................................................

 iter      E             dE          RMSdq      gap      omega  full diag
   1    -26.6963050 -0.266963E+02  0.302E-03    4.14       0.0  T
   2    -26.6963050 -0.573202E-08  0.181E-03    4.14      12.7  T
   3    -26.6963050  0.463666E-08  0.713E-04    4.14      32.2  T
   4    -26.6963050 -0.605433E-08  0.101E-04    4.14     227.9  T
     SCC iter.                  ...        0 min,  0.054 sec
     gradient                   ...        0 min,  0.037 sec
 * total energy  :   -26.2834282 Eh     change       -0.6124774E-06 Eh
   gradient norm :     0.0001291 Eh/α   predicted    -0.3411925E-06 ( -44.29%)
   displ. norm   :     0.0056739 α      lambda       -0.1612806E-06
   maximum displ.:     0.0037362 α      in ANC's #4, #1, #3, ...

   *** GEOMETRY OPTIMIZATION CONVERGED AFTER 6 ITERATIONS ***

------------------------------------------------------------------------
 total energy gain   :        -0.0018337 Eh       -1.1507 kcal/mol
 total RMSD          :         0.0391781 a0        0.0207 Å
 total power (kW/mol):        -0.8023956 (step)   -5.9472 (real)
------------------------------------------------------------------------

 ANCopt (total)                0 d,  0 h,  0 min,  0.810 sec
 optimizer setup                ...        0 min,  0.001 sec (  0.087%)
 model hessian                  ...        0 min,  0.003 sec (  0.410%)
 ANC generation                 ...        0 min,  0.001 sec (  0.068%)
 coordinate transformation      ...        0 min,  0.000 sec (  0.007%)
 single point calculation       ...        0 min,  0.783 sec ( 96.736%)
 optimization log               ...        0 min,  0.001 sec (  0.076%)
 hessian update                 ...        0 min,  0.020 sec (  2.461%)
 rational function              ...        0 min,  0.000 sec (  0.052%)

================
 final structure:
================
19
 xtb: 6.7.1 (edcfbbe)
C           -3.36693693385631        0.11369610482688        0.17948005243360
O           -2.37410148376498       -0.88063638945399        0.15507227269730
C           -1.06709809181789       -0.49268514231203        0.07863617139542
C           -0.12646947970131       -1.52234351602742        0.05122511302090
C            1.21956335455671       -1.23700149403505       -0.02750466549543
C            1.67266585540883        0.07714338825140       -0.08197581712711
C            3.13878363917365        0.38444882204896       -0.14594180317099
C            0.73069166210891        1.09337828386821       -0.05298073433322
C           -0.62579018758669        0.82334452920893        0.02599830706111
H           -3.34997084502729        0.72307027620658       -0.73044062651972
H           -3.26444052646708        0.76501667611492        1.05404402304379
H           -4.31580529054182       -0.41759831746125        0.23748266783734
H           -0.48014094514620       -2.54060930960307        0.09128644585656
H            1.93332130078438       -2.04804475911693       -0.04888119839977
H            3.67919585779027       -0.41169993809977       -0.65276447395642
H            3.31635677315549        1.32071691894072       -0.67022838942875
H            3.54628184242319        0.47982949750930        0.86136518472316
H            1.05662961712852        2.12325031202449       -0.09413804791665
H           -1.32273611862038        1.64672405711113        0.04404195661987

 Bond Distances (Angstroems)
 ---------------------------
C1-O2=1.4054         C1-H10=1.0953        C1-H11=1.0953        C1-H12=1.0890        O2-C1=1.4054         O2-C3=1.3655         
C3-O2=1.3655         C3-C4=1.3949         C3-C9=1.3890         C4-C3=1.3949         C4-C5=1.3782         C4-H13=1.0787        
C5-C4=1.3782         C5-C6=1.3911         C5-H14=1.0806        C6-C5=1.3911         C6-C7=1.4993         C6-C8=1.3860         
C7-C6=1.4993         C7-H15=1.0876        C7-H16=1.0877        C7-H17=1.0908        C8-C6=1.3860         C8-C9=1.3854         
C8-H18=1.0810        C9-C3=1.3890         C9-C8=1.3854         C9-H19=1.0789        H10-C1=1.0953        H11-C1=1.0953        
H12-C1=1.0890        H13-C4=1.0787        H14-C5=1.0806        H15-C7=1.0876        H16-C7=1.0877        H17-C7=1.0908        
H18-C8=1.0810        H19-C9=1.0789        
 C  H  Rav=1.0865 sigma=0.0060  Rmin=1.0787  Rmax=1.0953    10
 C  C  Rav=1.4034 sigma=0.0395  Rmin=1.3782  Rmax=1.4993     7
 O  C  Rav=1.3854 sigma=0.0199  Rmin=1.3655  Rmax=1.4054     2

 selected bond angles (degree)
 --------------------
H10-C1-O2=111.61               H11-C1-O2=111.62               H11-C1-H10=109.33              H12-C1-O2=105.74               
H12-C1-H10=109.22              H12-C1-H11=109.22              C3-O2-C1=118.43                C4-C3-O2=115.90                
C9-C3-O2=125.13                C9-C3-C4=118.97                C5-C4-C3=120.46                H13-C4-C3=118.36               
H13-C4-C5=121.18               C6-C5-C4=121.06                H14-C5-C4=119.40               H14-C5-C6=119.54               
C7-C6-C5=120.92                C8-C6-C5=118.06                C8-C6-C7=121.01                H15-C7-C6=110.84               
H16-C7-C6=110.89               H16-C7-H15=108.93              H17-C7-C6=110.11               H17-C7-H15=107.98              
H17-C7-H16=107.99              C9-C8-C6=121.58                H18-C8-C6=119.53               H18-C8-C9=118.89               
C8-C9-C3=119.86                H19-C9-C3=121.14               H19-C9-C8=118.99               

 selected dihedral angles (degree)
 ---------------------------------
C3-O2-C1-H10= 61.13           C3-O2-C1-H11=298.44           C3-O2-C1-H12=179.78           C4-C3-O2-C1=180.30            
C9-C3-O2-C1=  0.21            C5-C4-C3-O2=179.88            C5-C4-C3-C9=359.97            H13-C4-C3-O2=  0.00           
H13-C4-C3-C9=180.08           C6-C5-C4-C3=359.97            C6-C5-C4-H13=179.86           H14-C5-C4-C3=180.08           
H14-C5-C4-H13=359.96          C7-C6-C5-C4=179.03            C7-C6-C5-H14=358.93           C8-C6-C5-C4=  0.09            
C8-C6-C5-H14=179.98           H15-C7-C6-C5= 30.02           H15-C7-C6-C8=208.94           H16-C7-C6-C5=151.14           
H16-C7-C6-C8=330.06           H17-C7-C6-C5=270.61           H17-C7-C6-C8= 89.53           C9-C8-C6-C5=359.92            
C9-C8-C6-C7=180.97            H18-C8-C6-C5=180.00           H18-C8-C6-C7=  1.06           C8-C9-C3-O2=180.13            
C8-C9-C3-C4=  0.03            H19-C9-C3-O2=  0.04           H19-C9-C3-C4=179.94           C3-C9-C8-C6=  0.03            
C3-C9-C8-H18=179.94           H19-C9-C8-C6=180.11           H19-C9-C8-H18=  0.03          
           -------------------------------------------------
          |                Final Singlepoint                |
           -------------------------------------------------

          ...................................................
          :                      SETUP                      :
          :.................................................:
          :  # basis functions                  46          :
          :  # atomic orbitals                  46          :
          :  # shells                           28          :
          :  # electrons                        48          :
          :  max. iterations                   250          :
          :  Hamiltonian                  GFN2-xTB          :
          :  restarted?                      false          :
          :  GBSA solvation                  false          :
          :  PC potential                    false          :
          :  electronic temp.          300.0000000     K    :
          :  accuracy                    1.0000000          :
          :  -> integral cutoff          0.2500000E+02      :
          :  -> integral neglect         0.1000000E-07      :
          :  -> SCF convergence          0.1000000E-05 Eh   :
          :  -> wf. convergence          0.1000000E-03 e    :
          :  Broyden damping             0.4000000          :
          :  net charge                          0          :
          :  unpaired electrons                  0          :
          ...................................................

 iter      E             dE          RMSdq      gap      omega  full diag
   1    -26.6963050 -0.266963E+02  0.386E-05    4.14       0.0  T
   2    -26.6963050 -0.178701E-11  0.224E-05    4.14    1022.4  T
   3    -26.6963050  0.770939E-12  0.126E-05    4.14    1816.1  T

   *** convergence criteria satisfied after 3 iterations ***

         #    Occupation            Energy/Eh            Energy/eV
      -------------------------------------------------------------
         1        2.0000           -0.7098688             -19.3165
       ...           ...                  ...                  ...
        18        2.0000           -0.4612415             -12.5510
        19        2.0000           -0.4508515             -12.2683
        20        2.0000           -0.4346006             -11.8261
        21        2.0000           -0.4322861             -11.7631
        22        2.0000           -0.4137014             -11.2574
        23        2.0000           -0.3987416             -10.8503
        24        2.0000           -0.3688939             -10.0381 (HOMO)
        25                         -0.2168994              -5.9021 (LUMO)
        26                         -0.2056515              -5.5961
        27                         -0.0833817              -2.2689
        28                          0.0381028               1.0368
        29                          0.1048194               2.8523
       ...                                ...                  ...
        46                          0.6721613              18.2904
      -------------------------------------------------------------
                  HL-Gap            0.1519944 Eh            4.1360 eV
             Fermi-level           -0.2928967 Eh           -7.9701 eV

 SCC (total)                   0 d,  0 h,  0 min,  0.119 sec
 SCC setup                      ...        0 min,  0.004 sec (  3.756%)
 Dispersion                     ...        0 min,  0.009 sec (  7.825%)
 classical contributions        ...        0 min,  0.004 sec (  3.098%)
 integral evaluation            ...        0 min,  0.014 sec ( 11.365%)
 iterations                     ...        0 min,  0.044 sec ( 36.676%)
 molecular gradient             ...        0 min,  0.044 sec ( 37.168%)
 printout                       ...        0 min,  0.000 sec (  0.090%)

         :::::::::::::::::::::::::::::::::::::::::::::::::::::
         ::                     SUMMARY                     ::
         :::::::::::::::::::::::::::::::::::::::::::::::::::::
         :: total energy             -26.283428249888 Eh    ::
         :: gradient norm              0.000130142173 Eh/a0 ::
         :: HOMO-LUMO gap              4.135979332121 eV    ::
         ::.................................................::
         :: SCC energy               -26.696313083589 Eh    ::
         :: -> isotropic ES            0.016592388402 Eh    ::
         :: -> anisotropic ES          0.004418081045 Eh    ::
         :: -> anisotropic XC          0.011253647296 Eh    ::
         :: -> dispersion             -0.014155247283 Eh    ::
         :: repulsion energy           0.412884833701 Eh    ::
         :: add. restraining           0.000000000000 Eh    ::
         :: total charge               0.000000000000 e     ::
         :::::::::::::::::::::::::::::::::::::::::::::::::::::

           -------------------------------------------------
          |                Property Printout                |
           -------------------------------------------------

    * Orbital Energies and Occupations

         #    Occupation            Energy/Eh            Energy/eV
      -------------------------------------------------------------
         1        2.0000           -0.7098688             -19.3165
       ...           ...                  ...                  ...
        12        2.0000           -0.5019490             -13.6587
        13        2.0000           -0.4920220             -13.3886
        14        2.0000           -0.4905448             -13.3484
        15        2.0000           -0.4864731             -13.2376
        16        2.0000           -0.4734309             -12.8827
        17        2.0000           -0.4727202             -12.8634
        18        2.0000           -0.4612415             -12.5510
        19        2.0000           -0.4508515             -12.2683
        20        2.0000           -0.4346006             -11.8261
        21        2.0000           -0.4322861             -11.7631
        22        2.0000           -0.4137014             -11.2574
        23        2.0000           -0.3987416             -10.8503
        24        2.0000           -0.3688939             -10.0381 (HOMO)
        25                         -0.2168994              -5.9021 (LUMO)
        26                         -0.2056515              -5.5961
        27                         -0.0833817              -2.2689
        28                          0.0381028               1.0368
        29                          0.1048194               2.8523
        30                          0.1200584               3.2670
        31                          0.1320730               3.5939
        32                          0.1580679               4.3012
        33                          0.1645422               4.4774
        34                          0.1746302               4.7519
        35                          0.1954904               5.3196
       ...                                ...                  ...
        46                          0.6721613              18.2904
      -------------------------------------------------------------
                  HL-Gap            0.1519944 Eh            4.1360 eV
             Fermi-level           -0.2928967 Eh           -7.9701 eV

     #   Z          covCN         q      C6AA      α(0)
     1   6 C        3.644     0.040    20.230     6.465
     2   8 O        1.705    -0.275    18.560     5.817
     3   6 C        2.866     0.138    24.979     8.193
     4   6 C        2.919    -0.056    29.393     8.891
     5   6 C        2.926    -0.040    28.986     8.829
     6   6 C        2.965     0.006    27.879     8.661
     7   6 C        3.757    -0.108    22.621     6.781
     8   6 C        2.927    -0.042    29.037     8.837
     9   6 C        2.916    -0.068    29.700     8.937
    10   1 H        0.924     0.038     2.481     2.463
    11   1 H        0.924     0.038     2.482     2.463
    12   1 H        0.925     0.059     2.212     2.326
    13   1 H        0.926     0.045     2.386     2.415
    14   1 H        0.926     0.034     2.525     2.485
    15   1 H        0.925     0.042     2.423     2.434
    16   1 H        0.925     0.041     2.430     2.438
    17   1 H        0.924     0.045     2.380     2.413
    18   1 H        0.926     0.031     2.574     2.509
    19   1 H        0.926     0.031     2.570     2.507

 Mol. C6AA /au·bohr⁶  :       3723.125047
 Mol. C8AA /au·bohr⁸  :      86836.697929
 Mol. α(0) /au        :         95.863072


Wiberg/Mayer (AO) data.
largest (>0.10) Wiberg bond orders for each atom

 ---------------------------------------------------------------------------
     #   Z sym  total        # sym  WBO       # sym  WBO       # sym  WBO
 ---------------------------------------------------------------------------
     1   6 C    3.950 --     2 O    0.989    12 H    0.980    11 H    0.977
                            10 H    0.977
     2   8 O    2.220 --     3 C    1.052     1 C    0.989
     3   6 C    3.933 --     9 C    1.380     4 C    1.350     2 O    1.052
     4   6 C    3.988 --     5 C    1.473     3 C    1.350    13 H    0.968
                             8 C    0.109
     5   6 C    3.991 --     4 C    1.473     6 C    1.392    14 H    0.969
                             9 C    0.103
     6   6 C    3.989 --     8 C    1.422     5 C    1.392     7 C    1.024
     7   6 C    3.996 --     6 C    1.024    16 H    0.983    15 H    0.982
                            17 H    0.969
     8   6 C    3.992 --     9 C    1.436     6 C    1.422    18 H    0.970
                             4 C    0.109
     9   6 C    3.988 --     8 C    1.436     3 C    1.380    19 H    0.967
                             5 C    0.103
    10   1 H    0.998 --     1 C    0.977
    11   1 H    0.999 --     1 C    0.977
    12   1 H    0.996 --     1 C    0.980
    13   1 H    0.998 --     4 C    0.968
    14   1 H    0.998 --     5 C    0.969
    15   1 H    0.998 --     7 C    0.982
    16   1 H    0.998 --     7 C    0.983
    17   1 H    0.997 --     7 C    0.969
    18   1 H    0.999 --     8 C    0.970
    19   1 H    0.999 --     9 C    0.967
 ---------------------------------------------------------------------------

Topologies differ in total number of bonds
Writing topology from bond orders to xtbtopo.mol

molecular dipole:
                 x           y           z       tot (Debye)
 q only:       -0.008       0.365       0.001
   full:       -0.063       0.521       0.009       1.335
molecular quadrupole (traceless):
                xx          xy          yy          xz          yz          zz
 q only:        5.089      -3.003      -2.041      -0.234       0.161      -3.047
  q+dip:        5.280      -3.655      -0.096      -0.264       0.127      -5.184
   full:        4.986      -3.880      -1.604      -0.147       0.208      -3.382

           -------------------------------------------------
          |                Geometry Summary                 |
           -------------------------------------------------

      molecular mass/u    :      122.1646996
   center of mass at/Å    :       -0.1494486      -0.1765188       0.0237146
  moments of inertia/u·Å² :        0.1039694E+03   0.5109736E+03   0.6085967E+03
rotational constants/cm⁻¹ :        0.1621403E+00   0.3299120E-01   0.2769919E-01

 * 18 selected distances

     #   Z          #   Z                                           value/Å
     1   6 C        2   8 O                                       1.4053524 (max)
     2   8 O        3   6 C                                       1.3655061
     3   6 C        4   6 C                                       1.3948944
     4   6 C        5   6 C                                       1.3781956
     5   6 C        6   6 C                                       1.3911312
     6   6 C        8   6 C                                       1.3859617
     3   6 C        9   6 C                                       1.3890493
     8   6 C        9   6 C                                       1.3853517
     1   6 C       10   1 H                                       1.0952537
     1   6 C       11   1 H                                       1.0952563
     1   6 C       12   1 H                                       1.0890314
     4   6 C       13   1 H                                       1.0786815 (min)
     5   6 C       14   1 H                                       1.0806011
     7   6 C       15   1 H                                       1.0875512
     7   6 C       16   1 H                                       1.0876612
     7   6 C       17   1 H                                       1.0907886
     8   6 C       18   1 H                                       1.0810024
     9   6 C       19   1 H                                       1.0788945

 * 3 distinct bonds (by element types)

   Z      Z             #   av. dist./Å        max./Å        min./Å
   1 H    6 C          10     1.0864722     1.0952563     1.0786815
   6 C    6 C           6     1.3874306     1.3948944     1.3781956
   6 C    8 O           2     1.3854293     1.4053524     1.3655061


optimized geometry written to: xtbopt.xyz


           -------------------------------------------------
          | TOTAL ENERGY              -26.283428249888 Eh   |
          | GRADIENT NORM               0.000130142173 Eh/α |
          | HOMO-LUMO GAP               4.135979332121 eV   |
           -------------------------------------------------

------------------------------------------------------------------------
 * finished run on 2026/07/08 at 22:39:41.880     
------------------------------------------------------------------------
 total:
 * wall-time:     0 d,  0 h,  0 min,  1.222 sec
 *  cpu-time:     0 d,  0 h,  0 min, 19.469 sec
 * ratio c/w:    15.935 speedup
 SCF:
 * wall-time:     0 d,  0 h,  0 min,  0.230 sec
 *  cpu-time:     0 d,  0 h,  0 min,  3.677 sec
 * ratio c/w:    15.974 speedup
 ANC optimizer:
 * wall-time:     0 d,  0 h,  0 min,  0.934 sec
 *  cpu-time:     0 d,  0 h,  0 min, 14.908 sec
 * ratio c/w:    15.969 speedup

