      -----------------------------------------------------------      
     |                   =====================                   |     
     |                           x T B                           |     
     |                   =====================                   |     
     |                         S. Grimme                         |     
     |          Mulliken Center for Theoretical Chemistry        |     
     |                    University of Bonn                     |     
      -----------------------------------------------------------      

   * xtb version 6.7.1 (edcfbbe) compiled by 'conda@5dfe00f5fb80' on 2026-06-10

   xtb is free software: you can redistribute it and/or modify it under
   the terms of the GNU Lesser General Public License as published by
   the Free Software Foundation, either version 3 of the License, or
   (at your option) any later version.
   
   xtb is distributed in the hope that it will be useful,
   but WITHOUT ANY WARRANTY; without even the implied warranty of
   MERCHANTABILITY or FITNESS FOR A PARTICULAR PURPOSE.  See the
   GNU Lesser General Public License for more details.
   
   Cite this work as:
   * C. Bannwarth, E. Caldeweyher, S. Ehlert, A. Hansen, P. Pracht,
     J. Seibert, S. Spicher, S. Grimme, WIREs Comput. Mol. Sci., 2020, 11,
     e01493. DOI: 10.1002/wcms.1493
   
   for GFN2-xTB:
   * C. Bannwarth, S. Ehlert and S. Grimme., J. Chem. Theory Comput., 2019,
     15, 1652-1671. DOI: 10.1021/acs.jctc.8b01176
   for GFN1-xTB:
   * S. Grimme, C. Bannwarth, P. Shushkov, J. Chem. Theory Comput., 2017,
     13, 1989-2009. DOI: 10.1021/acs.jctc.7b00118
   for GFN0-xTB:
   * P. Pracht, E. Caldeweyher, S. Ehlert, S. Grimme, ChemRxiv, 2019, preprint.
     DOI: 10.26434/chemrxiv.8326202.v1
   for GFN-FF:
   * S. Spicher and S. Grimme, Angew. Chem. Int. Ed., 2020, 59, 15665-15673.
     DOI: 10.1002/anie.202004239
   
   for ALPB and GBSA implicit solvation:
   * S. Ehlert, M. Stahn, S. Spicher, S. Grimme, J. Chem. Theory Comput.,
     2021, 17, 4250-4261. DOI: 10.1021/acs.jctc.1c00471
   
   for ddCOSMO and CPCM-X implicit solvation:
   * M. Stahn, S. Ehlert, S. Grimme, J. Phys. Chem. A,
     2023, XX, XXXX-XXXX. DOI: 10.1021/acs.jpca.3c04382
   
   for DFT-D4:
   * E. Caldeweyher, C. Bannwarth and S. Grimme, J. Chem. Phys., 2017,
     147, 034112. DOI: 10.1063/1.4993215
   * E. Caldeweyher, S. Ehlert, A. Hansen, H. Neugebauer, S. Spicher,
     C. Bannwarth and S. Grimme, J. Chem. Phys., 2019, 150, 154122.
     DOI: 10.1063/1.5090222
   * E. Caldeweyher, J.-M. Mewes, S. Ehlert and S. Grimme, Phys. Chem. Chem. Phys.
     2020, 22, 8499-8512. DOI: 10.1039/D0CP00502A
   
   for sTDA-xTB:
   * S. Grimme and C. Bannwarth, J. Chem. Phys., 2016, 145, 054103.
     DOI: 10.1063/1.4959605
   
   in the mass-spec context:
   * V. Asgeirsson, C. Bauer and S. Grimme, Chem. Sci., 2017, 8, 4879.
     DOI: 10.1039/c7sc00601b
   * J. Koopman and S. Grimme, ACS Omega 2019, 4, 12, 15120-15133.
     DOI: 10.1021/acsomega.9b02011
   
   for metadynamics refer to:
   * S. Grimme, J. Chem. Theory Comput., 2019, 155, 2847-2862
     DOI: 10.1021/acs.jctc.9b00143
   
   for SPH calculations refer to:
   * S. Spicher and S. Grimme, J. Chem. Theory Comput., 2021, 17, 1701-1714
     DOI: 10.1021/acs.jctc.0c01306
   
   for ONIOM refer to:
   * C. Plett, A. Katbashev, S. Ehlert, S. Grimme, M. Bursch,
     Phys. Chem. Chem. Phys., 2023, 25, 17860-17868. DOI: 10.1039/D3CP02178E
   
   for DIPRO refer to:
   * J. Kohn, N. Gildemeister, S. Grimme, D. Fazzi, A. Hansen,
     J. Chem. Phys., 2023, just accepted.
   
   for PTB refer to:
   * S. Grimme, M. Mueller, A. Hansen, J. Chem. Phys., 2023, 158, 124111.
     DOI: 10.1063/5.0137838
   
   with help from (in alphabetical order)
   P. Atkinson, C. Bannwarth, F. Bohle, G. Brandenburg, E. Caldeweyher
   M. Checinski, S. Dohm, S. Ehlert, S. Ehrlich, I. Gerasimov, C. Hölzer
   A. Katbashev, J. Kohn, J. Koopman, C. Lavigne, S. Lehtola, F. März, M. Müller,
   F. Musil, H. Neugebauer, J. Pisarek, C. Plett, P. Pracht, F. Pultar,
   J. Seibert, P. Shushkov, S. Spicher, M. Stahn, M. Steiner, T. Strunk,
   J. Stückrath, T. Rose, and J. Unsleber
   
 * started run on 2026/07/07 at 07:45:34.165     
   ID    Z sym.   atoms
    1    6 C      1-4, 6, 8, 10-17
    2    7 N      5
    3    8 O      7, 9
    4    1 H      18-38

           -------------------------------------------------
          |                Calculation Setup                |
           -------------------------------------------------

          program call               : /home/ws/xd2484/miniforge3/envs/p3z_dft/bin/xtb xtb_input.xyz --gfn 2 --opt tight --cycles 500 --chrg 0 --uhf 0
          hostname                   : gpu10
          coordinate file            : xtb_input.xyz
          omp threads                :                    16


           -------------------------------------------------
          |                 G F N 2 - x T B                 |
           -------------------------------------------------

        Reference                      10.1021/acs.jctc.8b01176
      * Hamiltonian:
        H0-scaling (s, p, d)           1.850000    2.230000    2.230000
        zeta-weighting                 0.500000
      * Dispersion:
        s8                             2.700000
        a1                             0.520000
        a2                             5.000000
        s9                             5.000000
      * Repulsion:
        kExp                           1.500000    1.000000
        rExp                           1.000000
      * Coulomb:
        alpha                          2.000000
        third order                    shell-resolved
        anisotropic                    true
        a3                             3.000000
        a5                             4.000000
        cn-shift                       1.200000
        cn-exp                         4.000000
        max-rad                        5.000000


          ...................................................
          :                      SETUP                      :
          :.................................................:
          :  # basis functions                  89          :
          :  # atomic orbitals                  89          :
          :  # shells                           55          :
          :  # electrons                        94          :
          :  max. iterations                   250          :
          :  Hamiltonian                  GFN2-xTB          :
          :  restarted?                      false          :
          :  GBSA solvation                  false          :
          :  PC potential                    false          :
          :  electronic temp.          300.0000000     K    :
          :  accuracy                    1.0000000          :
          :  -> integral cutoff          0.2500000E+02      :
          :  -> integral neglect         0.1000000E-07      :
          :  -> SCF convergence          0.1000000E-05 Eh   :
          :  -> wf. convergence          0.1000000E-03 e    :
          :  Broyden damping             0.4000000          :
          :  net charge                          0          :
          :  unpaired electrons                  0          :
          ...................................................

 iter      E             dE          RMSdq      gap      omega  full diag
   1    -52.3370062 -0.523370E+02  0.384E+00    3.93       0.0  T
   2    -52.4352583 -0.982520E-01  0.214E+00    4.04       1.0  T
   3    -52.4382003 -0.294207E-02  0.978E-01    4.27       1.0  T
   4    -52.4399388 -0.173848E-02  0.202E-01    4.38       1.0  T
   5    -52.4405007 -0.561897E-03  0.977E-02    4.41       1.0  T
   6    -52.4406317 -0.130990E-03  0.453E-02    4.42       1.0  T
   7    -52.4406375 -0.583689E-05  0.158E-02    4.41       1.0  T
   8    -52.4406410 -0.345861E-05  0.482E-03    4.41       3.4  T
   9    -52.4406411 -0.161716E-06  0.198E-03    4.41       8.2  T
  10    -52.4406411 -0.273881E-08  0.892E-04    4.41      18.2  T
  11    -52.4406412 -0.133201E-07  0.351E-04    4.41      46.2  T

   *** convergence criteria satisfied after 11 iterations ***

         #    Occupation            Energy/Eh            Energy/eV
      -------------------------------------------------------------
         1        2.0000           -0.7077325             -19.2584
       ...           ...                  ...                  ...
        41        2.0000           -0.4282694             -11.6538
        42        2.0000           -0.4253157             -11.5734
        43        2.0000           -0.4127389             -11.2312
        44        2.0000           -0.4049963             -11.0205
        45        2.0000           -0.3996046             -10.8738
        46        2.0000           -0.3929414             -10.6925
        47        2.0000           -0.3902675             -10.6197 (HOMO)
        48                         -0.2282057              -6.2098 (LUMO)
        49                         -0.2278919              -6.2013
        50                         -0.2088095              -5.6820
        51                         -0.1035222              -2.8170
        52                         -0.0263693              -0.7175
       ...                                ...                  ...
        89                          0.6283339              17.0978
      -------------------------------------------------------------
                  HL-Gap            0.1620617 Eh            4.4099 eV
             Fermi-level           -0.3092366 Eh           -8.4148 eV

 SCC (total)                   0 d,  0 h,  0 min,  0.346 sec
 SCC setup                      ...        0 min,  0.004 sec (  1.144%)
 Dispersion                     ...        0 min,  0.009 sec (  2.519%)
 classical contributions        ...        0 min,  0.004 sec (  1.261%)
 integral evaluation            ...        0 min,  0.019 sec (  5.403%)
 iterations                     ...        0 min,  0.263 sec ( 75.997%)
 molecular gradient             ...        0 min,  0.047 sec ( 13.586%)
 printout                       ...        0 min,  0.000 sec (  0.081%)

         :::::::::::::::::::::::::::::::::::::::::::::::::::::
         ::                     SUMMARY                     ::
         :::::::::::::::::::::::::::::::::::::::::::::::::::::
         :: total energy             -51.744956514355 Eh    ::
         :: gradient norm              0.061543057060 Eh/a0 ::
         :: HOMO-LUMO gap              4.409924428978 eV    ::
         ::.................................................::
         :: SCC energy               -52.440107599467 Eh    ::
         :: -> isotropic ES            0.058819411511 Eh    ::
         :: -> anisotropic ES          0.007828880358 Eh    ::
         :: -> anisotropic XC          0.022755709584 Eh    ::
         :: -> dispersion             -0.031261170749 Eh    ::
         :: repulsion energy           0.695151085111 Eh    ::
         :: add. restraining           0.000000000000 Eh    ::
         :: total charge              -0.000000000000 e     ::
         :::::::::::::::::::::::::::::::::::::::::::::::::::::

      ----------------------------------------------------------- 
     |                   =====================                   |
     |                        A N C O P T                        |
     |                   =====================                   |
     |               Approximate Normal Coordinate               |
     |                Rational Function Optimizer                |
      ----------------------------------------------------------- 
      ----------------------------------------------------------- 
     |                   =====================                   |
     |                        A N C O P T                        |
     |                   =====================                   |
     |               Approximate Normal Coordinate               |
     |                Rational Function Optimizer                |
      ----------------------------------------------------------- 

          ...................................................
          :                      SETUP                      :
          :.................................................:
          :   optimization level             tight          :
          :   max. optcycles                   500          :
          :   ANC micro-cycles                  20          :
          :   degrees of freedom               108          :
          :.................................................:
          :   RF solver                   davidson          :
          :   write xtbopt.log                true          :
          :   linear?                        false          :
          :   energy convergence         0.1000000E-05 Eh   :
          :   grad. convergence          0.8000000E-03 Eh/α :
          :   maxmium RF displ.          1.0000000          :
          :   Hlow (freq-cutoff)         0.1000000E-01      :
          :   Hmax (freq-cutoff)         5.0000000          :
          :   S6 in model hess.         20.0000000          :
          ...................................................

generating ANC from exact Hessian ...
Using Lindh-Hessian (1995)
 Shifting diagonal of input Hessian by    9.7863691922909189E-003
 Lowest  eigenvalues of input Hessian
    0.000000    0.000000    0.000000    0.000000    0.000000    0.000000
    0.010000    0.010161    0.010519    0.010711    0.011204    0.011915
    0.012842    0.014342    0.017724    0.018305    0.018489    0.019039
 Highest eigenvalues
    1.556794    1.832782    1.833258    1.931525    1.945585    2.235748


........................................................................
.............................. CYCLE    1 ..............................
........................................................................

 iter      E             dE          RMSdq      gap      omega  full diag
   1    -52.4406412 -0.524406E+02  0.132E-04    4.41       0.0  T
   2    -52.4406412 -0.135124E-09  0.812E-05    4.41     199.9  T
   3    -52.4406412 -0.528715E-10  0.530E-05    4.41     306.3  T
     SCC iter.                  ...        0 min,  0.064 sec
     gradient                   ...        0 min,  0.058 sec
 * total energy  :   -51.7449565 Eh     change       -0.1974179E-08 Eh
   gradient norm :     0.0615464 Eh/α   predicted     0.0000000E+00 (-100.00%)
   displ. norm   :     0.1971581 α      lambda       -0.6523435E-02
   maximum displ.:     0.0598060 α      in ANC's #65, #14, #21, ...

........................................................................
.............................. CYCLE    2 ..............................
........................................................................

 iter      E             dE          RMSdq      gap      omega  full diag
   1    -52.4752975 -0.524753E+02  0.145E-01    4.46       0.0  T
   2    -52.4753611 -0.635408E-04  0.866E-02    4.45       1.0  T
   3    -52.4753577  0.338561E-05  0.349E-02    4.47       1.0  T
   4    -52.4753716 -0.138789E-04  0.552E-03    4.46       2.9  T
   5    -52.4753721 -0.559453E-06  0.300E-03    4.46       5.4  T
   6    -52.4753722 -0.110158E-06  0.148E-03    4.46      11.0  T
   7    -52.4753722 -0.228584E-07  0.518E-04    4.46      31.3  T
   8    -52.4753723 -0.131701E-08  0.168E-04    4.46      96.5  T
     SCC iter.                  ...        0 min,  0.193 sec
     gradient                   ...        0 min,  0.069 sec
 * total energy  :   -51.7491161 Eh     change       -0.4159629E-02 Eh
   gradient norm :     0.0220468 Eh/α   predicted    -0.3388883E-02 ( -18.53%)
   displ. norm   :     0.1601131 α      lambda       -0.1169450E-02
   maximum displ.:     0.0632772 α      in ANC's #14, #18, #19, ...

........................................................................
.............................. CYCLE    3 ..............................
........................................................................

 iter      E             dE          RMSdq      gap      omega  full diag
   1    -52.4867204 -0.524867E+02  0.757E-02    4.48       0.0  T
   2    -52.4867560 -0.355550E-04  0.445E-02    4.46       1.0  T
   3    -52.4867577 -0.173141E-05  0.212E-02    4.47       1.0  T
   4    -52.4867587 -0.998457E-06  0.438E-03    4.47       3.7  T
   5    -52.4867593 -0.638422E-06  0.149E-03    4.47      10.9  T
   6    -52.4867594 -0.298673E-07  0.673E-04    4.47      24.1  T
   7    -52.4867594 -0.363320E-08  0.292E-04    4.47      55.6  T
     SCC iter.                  ...        0 min,  0.127 sec
     gradient                   ...        0 min,  0.045 sec
 * total energy  :   -51.7498266 Eh     change       -0.7104652E-03 Eh
   gradient norm :     0.0071428 Eh/α   predicted    -0.6001444E-03 ( -15.53%)
   displ. norm   :     0.1278716 α      lambda       -0.2698209E-03
   maximum displ.:     0.0551863 α      in ANC's #14, #7, #5, ...

........................................................................
.............................. CYCLE    4 ..............................
........................................................................

 iter      E             dE          RMSdq      gap      omega  full diag
   1    -52.4871052 -0.524871E+02  0.415E-02    4.46       0.0  T
   2    -52.4871120 -0.681691E-05  0.243E-02    4.46       1.0  T
   3    -52.4871121 -0.844152E-07  0.970E-03    4.46       1.7  T
   4    -52.4871125 -0.355774E-06  0.204E-03    4.46       7.9  T
   5    -52.4871126 -0.130097E-06  0.795E-04    4.46      20.4  T
   6    -52.4871126 -0.115532E-07  0.282E-04    4.46      57.6  T
     SCC iter.                  ...        0 min,  0.093 sec
     gradient                   ...        0 min,  0.045 sec
 * total energy  :   -51.7500230 Eh     change       -0.1963708E-03 Eh
   gradient norm :     0.0039603 Eh/α   predicted    -0.1371174E-03 ( -30.17%)
   displ. norm   :     0.1766309 α      lambda       -0.2112692E-03
   maximum displ.:     0.0641149 α      in ANC's #5, #14, #9, ...

........................................................................
.............................. CYCLE    5 ..............................
........................................................................

 iter      E             dE          RMSdq      gap      omega  full diag
   1    -52.4854000 -0.524854E+02  0.494E-02    4.45       0.0  T
   2    -52.4854021 -0.207001E-05  0.294E-02    4.45       1.0  T
   3    -52.4854018  0.343320E-06  0.539E-03    4.46       3.0  T
   4    -52.4854024 -0.610934E-06  0.178E-03    4.46       9.1  T
   5    -52.4854025 -0.722009E-07  0.829E-04    4.46      19.6  T
   6    -52.4854025 -0.807469E-08  0.315E-04    4.46      51.5  T
     SCC iter.                  ...        0 min,  0.115 sec
     gradient                   ...        0 min,  0.048 sec
 * total energy  :   -51.7501655 Eh     change       -0.1425368E-03 Eh
   gradient norm :     0.0051736 Eh/α   predicted    -0.1089314E-03 ( -23.58%)
   displ. norm   :     0.1560045 α      lambda       -0.1113197E-03
   maximum displ.:     0.0616217 α      in ANC's #9, #5, #1, ...

........................................................................
.............................. CYCLE    6 ..............................
........................................................................

 iter      E             dE          RMSdq      gap      omega  full diag
   1    -52.4842169 -0.524842E+02  0.420E-02    4.45       0.0  T
   2    -52.4842174 -0.545756E-06  0.249E-02    4.46       1.0  T
   3    -52.4842172  0.164017E-06  0.319E-03    4.46       5.1  T
   4    -52.4842176 -0.310821E-06  0.117E-03    4.46      13.8  T
   5    -52.4842176 -0.219741E-07  0.624E-04    4.46      26.0  T
   6    -52.4842176 -0.244577E-08  0.142E-04    4.46     114.0  T
     SCC iter.                  ...        0 min,  0.103 sec
     gradient                   ...        0 min,  0.043 sec
 * total energy  :   -51.7502490 Eh     change       -0.8348626E-04 Eh
   gradient norm :     0.0051509 Eh/α   predicted    -0.5701605E-04 ( -31.71%)
   displ. norm   :     0.1958773 α      lambda       -0.1174611E-03
   maximum displ.:     0.0776653 α      in ANC's #1, #9, #5, ...

........................................................................
.............................. CYCLE    7 ..............................
........................................................................

 iter      E             dE          RMSdq      gap      omega  full diag
   1    -52.4838133 -0.524838E+02  0.516E-02    4.46       0.0  T
   2    -52.4838149 -0.158668E-05  0.305E-02    4.46       1.0  T
   3    -52.4838146  0.272826E-06  0.492E-03    4.46       3.3  T
   4    -52.4838151 -0.505968E-06  0.150E-03    4.46      10.8  T
   5    -52.4838152 -0.499056E-07  0.797E-04    4.46      20.3  T
   6    -52.4838152 -0.499268E-08  0.207E-04    4.46      78.3  T
     SCC iter.                  ...        0 min,  0.114 sec
     gradient                   ...        0 min,  0.057 sec
 * total energy  :   -51.7503326 Eh     change       -0.8363715E-04 Eh
   gradient norm :     0.0034232 Eh/α   predicted    -0.6098853E-04 ( -27.08%)
   displ. norm   :     0.1627205 α      lambda       -0.7701395E-04
   maximum displ.:     0.0759723 α      in ANC's #1, #5, #9, ...

........................................................................
.............................. CYCLE    8 ..............................
........................................................................

 iter      E             dE          RMSdq      gap      omega  full diag
   1    -52.4845923 -0.524846E+02  0.409E-02    4.47       0.0  T
   2    -52.4845931 -0.841518E-06  0.241E-02    4.47       1.0  T
   3    -52.4845929  0.194273E-06  0.355E-03    4.47       4.6  T
   4    -52.4845932 -0.326099E-06  0.117E-03    4.47      13.9  T
   5    -52.4845933 -0.319609E-07  0.592E-04    4.47      27.4  T
   6    -52.4845933 -0.344907E-08  0.201E-04    4.47      80.5  T
     SCC iter.                  ...        0 min,  0.120 sec
     gradient                   ...        0 min,  0.051 sec
 * total energy  :   -51.7503882 Eh     change       -0.5556198E-04 Eh
   gradient norm :     0.0020560 Eh/α   predicted    -0.3954562E-04 ( -28.83%)
   displ. norm   :     0.1414980 α      lambda       -0.5020538E-04
   maximum displ.:     0.0747886 α      in ANC's #1, #2, #5, ...

........................................................................
.............................. CYCLE    9 ..............................
........................................................................

 iter      E             dE          RMSdq      gap      omega  full diag
   1    -52.4856817 -0.524857E+02  0.322E-02    4.47       0.0  T
   2    -52.4856819 -0.231246E-06  0.190E-02    4.47       1.0  T
   3    -52.4856818  0.119486E-06  0.221E-03    4.47       7.3  T
   4    -52.4856820 -0.192725E-06  0.731E-04    4.47      22.2  T
   5    -52.4856820 -0.813953E-08  0.380E-04    4.47      42.7  T
     SCC iter.                  ...        0 min,  0.074 sec
     gradient                   ...        0 min,  0.039 sec
 * total energy  :   -51.7504256 Eh     change       -0.3744184E-04 Eh
   gradient norm :     0.0021233 Eh/α   predicted    -0.2560562E-04 ( -31.61%)
   displ. norm   :     0.1422864 α      lambda       -0.4025248E-04
   maximum displ.:     0.0806776 α      in ANC's #1, #2, #5, ...

........................................................................
.............................. CYCLE   10 ..............................
........................................................................

 iter      E             dE          RMSdq      gap      omega  full diag
   1    -52.4863331 -0.524863E+02  0.293E-02    4.47       0.0  T
   2    -52.4863333 -0.173423E-06  0.172E-02    4.47       1.0  T
   3    -52.4863332  0.545715E-07  0.170E-03    4.47       9.5  T
   4    -52.4863333 -0.106525E-06  0.600E-04    4.47      27.1  T
   5    -52.4863333 -0.630687E-08  0.338E-04    4.47      48.1  T
     SCC iter.                  ...        0 min,  0.070 sec
     gradient                   ...        0 min,  0.046 sec
 * total energy  :   -51.7504574 Eh     change       -0.3172696E-04 Eh
   gradient norm :     0.0021114 Eh/α   predicted    -0.2053498E-04 ( -35.28%)
   displ. norm   :     0.1585050 α      lambda       -0.4220573E-04
   maximum displ.:     0.0951007 α      in ANC's #1, #2, #4, ...

........................................................................
.............................. CYCLE   11 ..............................
........................................................................

 iter      E             dE          RMSdq      gap      omega  full diag
   1    -52.4866385 -0.524866E+02  0.295E-02    4.47       0.0  T
   2    -52.4866387 -0.200697E-06  0.174E-02    4.47       1.0  T
   3    -52.4866387 -0.404451E-08  0.143E-03    4.47      11.3  T
   4    -52.4866387 -0.504936E-07  0.622E-04    4.47      26.1  T
   5    -52.4866387 -0.375591E-08  0.345E-04    4.47      47.0  T
     SCC iter.                  ...        0 min,  0.068 sec
     gradient                   ...        0 min,  0.044 sec
 * total energy  :   -51.7504913 Eh     change       -0.3397480E-04 Eh
   gradient norm :     0.0018415 Eh/α   predicted    -0.2163748E-04 ( -36.31%)
   displ. norm   :     0.2812213 α      lambda       -0.4621466E-04
   maximum displ.:     0.1724179 α      in ANC's #1, #2, #4, ...

........................................................................
.............................. CYCLE   12 ..............................
........................................................................

 iter      E             dE          RMSdq      gap      omega  full diag
   1    -52.4860077 -0.524860E+02  0.510E-02    4.47       0.0  T
   2    -52.4860085 -0.786583E-06  0.302E-02    4.46       1.0  T
   3    -52.4860086 -0.655503E-07  0.258E-03    4.47       6.3  T
   4    -52.4860087 -0.118921E-06  0.112E-03    4.47      14.4  T
   5    -52.4860087 -0.554493E-08  0.611E-04    4.47      26.5  T
   6    -52.4860087 -0.748152E-08  0.215E-04    4.47      75.5  T
     SCC iter.                  ...        0 min,  0.111 sec
     gradient                   ...        0 min,  0.052 sec
 * total energy  :   -51.7505405 Eh     change       -0.4910686E-04 Eh
   gradient norm :     0.0018436 Eh/α   predicted    -0.2392014E-04 ( -51.29%)
   displ. norm   :     0.2036842 α      lambda       -0.3536095E-04
   maximum displ.:     0.1300465 α      in ANC's #1, #2, #4, ...

........................................................................
.............................. CYCLE   13 ..............................
........................................................................

 iter      E             dE          RMSdq      gap      omega  full diag
   1    -52.4861177 -0.524861E+02  0.366E-02    4.46       0.0  T
   2    -52.4861185 -0.804602E-06  0.219E-02    4.46       1.0  T
   3    -52.4861185  0.242431E-07  0.323E-03    4.47       5.0  T
   4    -52.4861186 -0.179754E-06  0.963E-04    4.47      16.8  T
   5    -52.4861187 -0.230092E-08  0.440E-04    4.47      36.9  T
     SCC iter.                  ...        0 min,  0.092 sec
     gradient                   ...        0 min,  0.058 sec
 * total energy  :   -51.7505794 Eh     change       -0.3890748E-04 Eh
   gradient norm :     0.0033418 Eh/α   predicted    -0.1801383E-04 ( -53.70%)
   displ. norm   :     0.1767228 α      lambda       -0.4777536E-04
   maximum displ.:     0.1126311 α      in ANC's #1, #2, #4, ...

........................................................................
.............................. CYCLE   14 ..............................
........................................................................

 iter      E             dE          RMSdq      gap      omega  full diag
   1    -52.4852425 -0.524852E+02  0.314E-02    4.47       0.0  T
   2    -52.4852431 -0.572067E-06  0.187E-02    4.46       1.0  T
   3    -52.4852430  0.870981E-07  0.294E-03    4.46       5.5  T
   4    -52.4852432 -0.182801E-06  0.775E-04    4.46      20.9  T
   5    -52.4852432 -0.634504E-08  0.448E-04    4.46      36.2  T
     SCC iter.                  ...        0 min,  0.129 sec
     gradient                   ...        0 min,  0.049 sec
 * total energy  :   -51.7506134 Eh     change       -0.3406468E-04 Eh
   gradient norm :     0.0018531 Eh/α   predicted    -0.2463904E-04 ( -27.67%)
   displ. norm   :     0.2223594 α      lambda       -0.3086399E-04
   maximum displ.:     0.1475631 α      in ANC's #1, #2, #4, ...

........................................................................
.............................. CYCLE   15 ..............................
........................................................................

 iter      E             dE          RMSdq      gap      omega  full diag
   1    -52.4852147 -0.524852E+02  0.394E-02    4.46       0.0  T
   2    -52.4852150 -0.290224E-06  0.236E-02    4.47       1.0  T
   3    -52.4852150 -0.152843E-07  0.197E-03    4.47       8.2  T
   4    -52.4852151 -0.895713E-07  0.942E-04    4.47      17.2  T
   5    -52.4852151 -0.456780E-08  0.399E-04    4.47      40.6  T
     SCC iter.                  ...        0 min,  0.067 sec
     gradient                   ...        0 min,  0.042 sec
 * total energy  :   -51.7506434 Eh     change       -0.2996168E-04 Eh
   gradient norm :     0.0013844 Eh/α   predicted    -0.1577264E-04 ( -47.36%)
   displ. norm   :     0.0852429 α      lambda       -0.1330905E-04
   maximum displ.:     0.0627223 α      in ANC's #1, #2, #5, ...

........................................................................
.............................. CYCLE   16 ..............................
........................................................................

 iter      E             dE          RMSdq      gap      omega  full diag
   1    -52.4859365 -0.524859E+02  0.164E-02    4.47       0.0  T
   2    -52.4859367 -0.113085E-06  0.970E-03    4.47       1.7  T
   3    -52.4859366  0.404181E-07  0.137E-03    4.47      11.8  T
   4    -52.4859367 -0.584885E-07  0.373E-04    4.47      43.5  T
   5    -52.4859367 -0.300341E-08  0.191E-04    4.47      84.8  T
     SCC iter.                  ...        0 min,  0.077 sec
     gradient                   ...        0 min,  0.039 sec
 * total energy  :   -51.7506598 Eh     change       -0.1641847E-04 Eh
   gradient norm :     0.0011156 Eh/α   predicted    -0.6678033E-05 ( -59.33%)
   displ. norm   :     0.0909057 α      lambda       -0.1657162E-04
   maximum displ.:     0.0666169 α      in ANC's #1, #7, #2, ...

........................................................................
.............................. CYCLE   17 ..............................
........................................................................

 iter      E             dE          RMSdq      gap      omega  full diag
   1    -52.4865324 -0.524865E+02  0.219E-02    4.47       0.0  T
   2    -52.4865325 -0.117211E-06  0.129E-02    4.47       1.3  T
   3    -52.4865324  0.457654E-07  0.142E-03    4.47      11.4  T
   4    -52.4865325 -0.744931E-07  0.465E-04    4.47      34.9  T
   5    -52.4865325 -0.421702E-08  0.235E-04    4.47      69.0  T
     SCC iter.                  ...        0 min,  0.065 sec
     gradient                   ...        0 min,  0.026 sec
 * total energy  :   -51.7506795 Eh     change       -0.1967168E-04 Eh
   gradient norm :     0.0012695 Eh/α   predicted    -0.8318886E-05 ( -57.71%)
   displ. norm   :     0.1031463 α      lambda       -0.1519630E-04
   maximum displ.:     0.0785218 α      in ANC's #1, #7, #2, ...

........................................................................
.............................. CYCLE   18 ..............................
........................................................................

 iter      E             dE          RMSdq      gap      omega  full diag
   1    -52.4864625 -0.524865E+02  0.250E-02    4.47       0.0  T
   2    -52.4864625 -0.929150E-07  0.147E-02    4.47       1.1  T
   3    -52.4864625  0.458443E-07  0.140E-03    4.47      11.6  T
   4    -52.4864626 -0.777547E-07  0.446E-04    4.47      36.4  T
   5    -52.4864626 -0.215027E-08  0.235E-04    4.47      68.9  T
     SCC iter.                  ...        0 min,  0.054 sec
     gradient                   ...        0 min,  0.022 sec
 * total energy  :   -51.7506969 Eh     change       -0.1745863E-04 Eh
   gradient norm :     0.0011140 Eh/α   predicted    -0.7636594E-05 ( -56.26%)
   displ. norm   :     0.0903081 α      lambda       -0.1184548E-04
   maximum displ.:     0.0706431 α      in ANC's #1, #7, #10, ...

........................................................................
.............................. CYCLE   19 ..............................
........................................................................

 iter      E             dE          RMSdq      gap      omega  full diag
   1    -52.4864902 -0.524865E+02  0.209E-02    4.47       0.0  T
   2    -52.4864904 -0.107294E-06  0.123E-02    4.47       1.3  T
   3    -52.4864903  0.177504E-07  0.125E-03    4.47      13.0  T
   4    -52.4864904 -0.484395E-07  0.455E-04    4.47      35.7  T
   5    -52.4864904 -0.291425E-08  0.255E-04    4.47      63.5  T
     SCC iter.                  ...        0 min,  0.105 sec
     gradient                   ...        0 min,  0.031 sec
 * total energy  :   -51.7507115 Eh     change       -0.1460411E-04 Eh
   gradient norm :     0.0009122 Eh/α   predicted    -0.5945598E-05 ( -59.29%)
   displ. norm   :     0.0769816 α      lambda       -0.1093523E-04
   maximum displ.:     0.0623919 α      in ANC's #1, #10, #2, ...

........................................................................
.............................. CYCLE   20 ..............................
........................................................................

 iter      E             dE          RMSdq      gap      omega  full diag
   1    -52.4862865 -0.524863E+02  0.159E-02    4.47       0.0  T
   2    -52.4862866 -0.502753E-07  0.943E-03    4.47       1.7  T
   3    -52.4862866  0.949760E-08  0.932E-04    4.47      17.4  T
   4    -52.4862866 -0.291376E-07  0.328E-04    4.47      49.5  T
     SCC iter.                  ...        0 min,  0.172 sec
     gradient                   ...        0 min,  0.053 sec
 * total energy  :   -51.7507265 Eh     change       -0.1491228E-04 Eh
   gradient norm :     0.0006188 Eh/α   predicted    -0.5485153E-05 ( -63.22%)
   displ. norm   :     0.0970843 α      lambda       -0.1467019E-04
   maximum displ.:     0.0746244 α      in ANC's #1, #3, #10, ...
 * RMSD in coord.:     0.3633698 α      energy gain  -0.5769938E-02 Eh

generating ANC from exact Hessian ...
Using Lindh-Hessian (1995)
 Shifting diagonal of input Hessian by    9.7518836107754504E-003
 Lowest  eigenvalues of input Hessian
    0.000000    0.000000    0.000000    0.000000    0.000000    0.000000
    0.010000    0.010143    0.010506    0.010753    0.011305    0.012002
    0.012900    0.014714    0.018112    0.018739    0.018838    0.019782
 Highest eigenvalues
    1.613881    1.900936    1.954046    2.004989    2.028903    2.363729


........................................................................
.............................. CYCLE   21 ..............................
........................................................................

 iter      E             dE          RMSdq      gap      omega  full diag
   1    -52.4860253 -0.524860E+02  0.191E-02    4.47       0.0  T
   2    -52.4860254 -0.688328E-07  0.113E-02    4.47       1.4  T
   3    -52.4860254  0.596422E-08  0.105E-03    4.47      15.5  T
   4    -52.4860254 -0.363616E-07  0.427E-04    4.47      38.0  T
   5    -52.4860254 -0.116793E-08  0.241E-04    4.47      67.3  T
     SCC iter.                  ...        0 min,  0.079 sec
     gradient                   ...        0 min,  0.044 sec
 * total energy  :   -51.7507462 Eh     change       -0.1979349E-04 Eh
   gradient norm :     0.0007012 Eh/α   predicted     0.0000000E+00 (-100.00%)
   displ. norm   :     0.0357316 α      lambda       -0.5737414E-06
   maximum displ.:     0.0285833 α      in ANC's #1, #8, #4, ...

........................................................................
.............................. CYCLE   22 ..............................
........................................................................

 iter      E             dE          RMSdq      gap      omega  full diag
   1    -52.4861663 -0.524862E+02  0.586E-03    4.47       0.0  T
   2    -52.4861663 -0.223860E-07  0.346E-03    4.47       4.7  T
   3    -52.4861663  0.114670E-07  0.745E-04    4.47      21.8  T
   4    -52.4861663 -0.163083E-07  0.143E-04    4.47     113.3  T
     SCC iter.                  ...        0 min,  0.057 sec
     gradient                   ...        0 min,  0.040 sec
 * total energy  :   -51.7507558 Eh     change       -0.9592282E-05 Eh
   gradient norm :     0.0003990 Eh/α   predicted    -0.3584957E-05 ( -62.63%)
   displ. norm   :     0.0811609 α      lambda       -0.1328280E-04
   maximum displ.:     0.0582336 α      in ANC's #1, #8, #4, ...

........................................................................
.............................. CYCLE   23 ..............................
........................................................................

 iter      E             dE          RMSdq      gap      omega  full diag
   1    -52.4862142 -0.524862E+02  0.132E-02    4.47       0.0  T
   2    -52.4862142 -0.424486E-07  0.775E-03    4.47       2.1  T
   3    -52.4862142  0.210263E-07  0.953E-04    4.47      17.0  T
   4    -52.4862143 -0.319092E-07  0.268E-04    4.47      60.5  T
     SCC iter.                  ...        0 min,  0.062 sec
     gradient                   ...        0 min,  0.039 sec
 * total energy  :   -51.7507721 Eh     change       -0.1630291E-04 Eh
   gradient norm :     0.0006192 Eh/α   predicted    -0.6662069E-05 ( -59.14%)
   displ. norm   :     0.0960952 α      lambda       -0.1165862E-04
   maximum displ.:     0.0709017 α      in ANC's #1, #2, #4, ...

........................................................................
.............................. CYCLE   24 ..............................
........................................................................

 iter      E             dE          RMSdq      gap      omega  full diag
   1    -52.4861566 -0.524862E+02  0.142E-02    4.46       0.0  T
   2    -52.4861566 -0.243900E-07  0.837E-03    4.46       1.9  T
   3    -52.4861566  0.207879E-07  0.843E-04    4.46      19.2  T
   4    -52.4861566 -0.314664E-07  0.236E-04    4.46      68.8  T
     SCC iter.                  ...        0 min,  0.063 sec
     gradient                   ...        0 min,  0.036 sec
 * total energy  :   -51.7507864 Eh     change       -0.1421422E-04 Eh
   gradient norm :     0.0007246 Eh/α   predicted    -0.5862449E-05 ( -58.76%)
   displ. norm   :     0.0792598 α      lambda       -0.8389984E-05
   maximum displ.:     0.0607385 α      in ANC's #1, #2, #4, ...

........................................................................
.............................. CYCLE   25 ..............................
........................................................................

 iter      E             dE          RMSdq      gap      omega  full diag
   1    -52.4862016 -0.524862E+02  0.995E-03    4.46       0.0  T
   2    -52.4862016 -0.211237E-07  0.587E-03    4.46       2.8  T
   3    -52.4862016  0.934636E-08  0.659E-04    4.46      24.6  T
   4    -52.4862016 -0.163871E-07  0.215E-04    4.46      75.3  T
     SCC iter.                  ...        0 min,  0.283 sec
     gradient                   ...        0 min,  0.095 sec
 * total energy  :   -51.7507977 Eh     change       -0.1137931E-04 Eh
   gradient norm :     0.0005617 Eh/α   predicted    -0.4207118E-05 ( -63.03%)
   displ. norm   :     0.0746283 α      lambda       -0.8744594E-05
   maximum displ.:     0.0577825 α      in ANC's #1, #2, #3, ...

........................................................................
.............................. CYCLE   26 ..............................
........................................................................

 iter      E             dE          RMSdq      gap      omega  full diag
   1    -52.4862247 -0.524862E+02  0.995E-03    4.46       0.0  T
   2    -52.4862247 -0.183495E-07  0.591E-03    4.46       2.7  T
   3    -52.4862247  0.381446E-08  0.557E-04    4.46      29.1  T
   4    -52.4862247 -0.111372E-07  0.219E-04    4.46      74.0  T
     SCC iter.                  ...        0 min,  0.057 sec
     gradient                   ...        0 min,  0.035 sec
 * total energy  :   -51.7508102 Eh     change       -0.1251364E-04 Eh
   gradient norm :     0.0003674 Eh/α   predicted    -0.4388582E-05 ( -64.93%)
   displ. norm   :     0.1003318 α      lambda       -0.1257059E-04
   maximum displ.:     0.0756490 α      in ANC's #1, #2, #3, ...

........................................................................
.............................. CYCLE   27 ..............................
........................................................................

 iter      E             dE          RMSdq      gap      omega  full diag
   1    -52.4861971 -0.524862E+02  0.154E-02    4.46       0.0  T
   2    -52.4861971 -0.370465E-07  0.910E-03    4.46       1.8  T
   3    -52.4861971 -0.279155E-08  0.676E-04    4.46      24.0  T
   4    -52.4861971 -0.126834E-07  0.312E-04    4.46      52.0  T
     SCC iter.                  ...        0 min,  0.048 sec
     gradient                   ...        0 min,  0.029 sec
 * total energy  :   -51.7508281 Eh     change       -0.1787141E-04 Eh
   gradient norm :     0.0003916 Eh/α   predicted    -0.6314098E-05 ( -64.67%)
   displ. norm   :     0.1520208 α      lambda       -0.1820685E-04
   maximum displ.:     0.1118351 α      in ANC's #1, #2, #3, ...

........................................................................
.............................. CYCLE   28 ..............................
........................................................................

 iter      E             dE          RMSdq      gap      omega  full diag
   1    -52.4861063 -0.524861E+02  0.247E-02    4.46       0.0  T
   2    -52.4861064 -0.787108E-07  0.146E-02    4.46       1.1  T
   3    -52.4861064 -0.132843E-07  0.953E-04    4.46      17.0  T
   4    -52.4861064 -0.220059E-07  0.457E-04    4.46      35.5  T
     SCC iter.                  ...        0 min,  0.050 sec
     gradient                   ...        0 min,  0.032 sec
 * total energy  :   -51.7508535 Eh     change       -0.2542024E-04 Eh
   gradient norm :     0.0006355 Eh/α   predicted    -0.9199663E-05 ( -63.81%)
   displ. norm   :     0.2043705 α      lambda       -0.2240860E-04
   maximum displ.:     0.1484960 α      in ANC's #1, #2, #3, ...

........................................................................
.............................. CYCLE   29 ..............................
........................................................................

 iter      E             dE          RMSdq      gap      omega  full diag
   1    -52.4859294 -0.524859E+02  0.329E-02    4.46       0.0  T
   2    -52.4859296 -0.129013E-06  0.194E-02    4.46       1.0  T
   3    -52.4859296 -0.275656E-07  0.121E-03    4.46      13.4  T
   4    -52.4859296 -0.333382E-07  0.603E-04    4.46      26.9  T
   5    -52.4859296 -0.132144E-08  0.248E-04    4.46      65.5  T
     SCC iter.                  ...        0 min,  0.055 sec
     gradient                   ...        0 min,  0.037 sec
 * total energy  :   -51.7508845 Eh     change       -0.3095627E-04 Eh
   gradient norm :     0.0009686 Eh/α   predicted    -0.1141451E-04 ( -63.13%)
   displ. norm   :     0.2356846 α      lambda       -0.2399486E-04
   maximum displ.:     0.1708847 α      in ANC's #1, #2, #3, ...

........................................................................
.............................. CYCLE   30 ..............................
........................................................................

 iter      E             dE          RMSdq      gap      omega  full diag
   1    -52.4857830 -0.524858E+02  0.367E-02    4.46       0.0  T
   2    -52.4857831 -0.148087E-06  0.216E-02    4.46       1.0  T
   3    -52.4857832 -0.500559E-07  0.113E-03    4.46      14.4  T
   4    -52.4857832 -0.185736E-07  0.630E-04    4.46      25.7  T
   5    -52.4857832 -0.237013E-08  0.262E-04    4.46      61.8  T
     SCC iter.                  ...        0 min,  0.059 sec
     gradient                   ...        0 min,  0.030 sec
 * total energy  :   -51.7509177 Eh     change       -0.3316575E-04 Eh
   gradient norm :     0.0011534 Eh/α   predicted    -0.1229422E-04 ( -62.93%)
   displ. norm   :     0.2484244 α      lambda       -0.2485911E-04
   maximum displ.:     0.1807462 α      in ANC's #1, #2, #3, ...

........................................................................
.............................. CYCLE   31 ..............................
........................................................................

 iter      E             dE          RMSdq      gap      omega  full diag
   1    -52.4857673 -0.524858E+02  0.366E-02    4.46       0.0  T
   2    -52.4857675 -0.146893E-06  0.216E-02    4.46       1.0  T
   3    -52.4857675 -0.508104E-07  0.112E-03    4.46      14.5  T
   4    -52.4857675 -0.173442E-07  0.643E-04    4.46      25.2  T
   5    -52.4857675 -0.319336E-08  0.275E-04    4.46      58.9  T
     SCC iter.                  ...        0 min,  0.047 sec
     gradient                   ...        0 min,  0.026 sec
 * total energy  :   -51.7509525 Eh     change       -0.3480411E-04 Eh
   gradient norm :     0.0011856 Eh/α   predicted    -0.1277115E-04 ( -63.31%)
   displ. norm   :     0.2747012 α      lambda       -0.2798419E-04
   maximum displ.:     0.2009341 α      in ANC's #1, #2, #3, ...

........................................................................
.............................. CYCLE   32 ..............................
........................................................................

 iter      E             dE          RMSdq      gap      omega  full diag
   1    -52.4858101 -0.524858E+02  0.382E-02    4.46       0.0  T
   2    -52.4858103 -0.164464E-06  0.225E-02    4.46       1.0  T
   3    -52.4858103 -0.527796E-07  0.116E-03    4.46      14.0  T
   4    -52.4858104 -0.199653E-07  0.665E-04    4.46      24.4  T
   5    -52.4858104 -0.284417E-08  0.318E-04    4.46      50.9  T
     SCC iter.                  ...        0 min,  0.074 sec
     gradient                   ...        0 min,  0.042 sec
 * total energy  :   -51.7509920 Eh     change       -0.3958340E-04 Eh
   gradient norm :     0.0010743 Eh/α   predicted    -0.1446205E-04 ( -63.46%)
   displ. norm   :     0.3286421 α      lambda       -0.3461528E-04
   maximum displ.:     0.2417110 α      in ANC's #1, #2, #3, ...

........................................................................
.............................. CYCLE   33 ..............................
........................................................................

 iter      E             dE          RMSdq      gap      omega  full diag
   1    -52.4858513 -0.524859E+02  0.428E-02    4.46       0.0  T
   2    -52.4858515 -0.207365E-06  0.252E-02    4.46       1.0  T
   3    -52.4858515 -0.623237E-07  0.136E-03    4.45      11.9  T
   4    -52.4858516 -0.300426E-07  0.772E-04    4.45      21.0  T
   5    -52.4858516 -0.442446E-08  0.368E-04    4.46      44.1  T
     SCC iter.                  ...        0 min,  0.064 sec
     gradient                   ...        0 min,  0.046 sec
 * total energy  :   -51.7510410 Eh     change       -0.4896873E-04 Eh
   gradient norm :     0.0010639 Eh/α   predicted    -0.1813984E-04 ( -62.96%)
   displ. norm   :     0.4215147 α      lambda       -0.4488893E-04
   maximum displ.:     0.3116242 α      in ANC's #1, #2, #3, ...

........................................................................
.............................. CYCLE   34 ..............................
........................................................................

 iter      E             dE          RMSdq      gap      omega  full diag
   1    -52.4856718 -0.524857E+02  0.529E-02    4.46       0.0  T
   2    -52.4856721 -0.311940E-06  0.312E-02    4.45       1.0  T
   3    -52.4856722 -0.100485E-06  0.159E-03    4.45      10.2  T
   4    -52.4856722 -0.353865E-07  0.910E-04    4.45      17.8  T
   5    -52.4856722 -0.475203E-08  0.441E-04    4.45      36.8  T
     SCC iter.                  ...        0 min,  0.088 sec
     gradient                   ...        0 min,  0.064 sec
 * total energy  :   -51.7511039 Eh     change       -0.6287493E-04 Eh
   gradient norm :     0.0013869 Eh/α   predicted    -0.2422078E-04 ( -61.48%)
   displ. norm   :     0.5423313 α      lambda       -0.5994888E-04
   maximum displ.:     0.4063302 α      in ANC's #1, #2, #3, ...

........................................................................
.............................. CYCLE   35 ..............................
........................................................................

 iter      E             dE          RMSdq      gap      omega  full diag
   1    -52.4855023 -0.524855E+02  0.645E-02    4.45       0.0  T
   2    -52.4855027 -0.429236E-06  0.380E-02    4.45       1.0  T
   3    -52.4855029 -0.147894E-06  0.192E-03    4.45       8.4  T
   4    -52.4855029 -0.506883E-07  0.112E-03    4.45      14.5  T
   5    -52.4855030 -0.816993E-08  0.515E-04    4.45      31.5  T
   6    -52.4855030 -0.351709E-08  0.150E-04    4.45     108.1  T
     SCC iter.                  ...        0 min,  0.107 sec
     gradient                   ...        0 min,  0.030 sec
 * total energy  :   -51.7511860 Eh     change       -0.8213025E-04 Eh
   gradient norm :     0.0017859 Eh/α   predicted    -0.3389402E-04 ( -58.73%)
   displ. norm   :     0.6769252 α      lambda       -0.7635795E-04
   maximum displ.:     0.5153500 α      in ANC's #1, #2, #3, ...

........................................................................
.............................. CYCLE   36 ..............................
........................................................................

 iter      E             dE          RMSdq      gap      omega  full diag
   1    -52.4850934 -0.524851E+02  0.790E-02    4.45       0.0  T
   2    -52.4850940 -0.633404E-06  0.466E-02    4.45       1.0  T
   3    -52.4850942 -0.204090E-06  0.234E-03    4.45       6.9  T
   4    -52.4850943 -0.804462E-07  0.134E-03    4.45      12.1  T
   5    -52.4850943 -0.104681E-07  0.629E-04    4.45      25.8  T
   6    -52.4850943 -0.518263E-08  0.184E-04    4.45      88.0  T
     SCC iter.                  ...        0 min,  0.082 sec
     gradient                   ...        0 min,  0.040 sec
 * total energy  :   -51.7512874 Eh     change       -0.1014045E-03 Eh
   gradient norm :     0.0023318 Eh/α   predicted    -0.4595585E-04 ( -54.68%)
   displ. norm   :     0.5372457 α      lambda       -0.9841724E-04
   maximum displ.:     0.4190054 α      in ANC's #1, #2, #3, ...

........................................................................
.............................. CYCLE   37 ..............................
........................................................................

 iter      E             dE          RMSdq      gap      omega  full diag
   1    -52.4858502 -0.524859E+02  0.598E-02    4.44       0.0  T
   2    -52.4858506 -0.325470E-06  0.352E-02    4.44       1.0  T
   3    -52.4858507 -0.957399E-07  0.187E-03    4.44       8.7  T
   4    -52.4858507 -0.631739E-07  0.102E-03    4.44      15.9  T
   5    -52.4858507 -0.502462E-08  0.432E-04    4.44      37.5  T
   6    -52.4858507 -0.233023E-08  0.136E-04    4.44     119.7  T
     SCC iter.                  ...        0 min,  0.084 sec
     gradient                   ...        0 min,  0.046 sec
 * total energy  :   -51.7513749 Eh     change       -0.8743699E-04 Eh
   gradient norm :     0.0018343 Eh/α   predicted    -0.6341351E-04 ( -27.48%)
   displ. norm   :     1.1314350 α      lambda       -0.1189281E-03
   maximum displ.:     0.8817494 α      in ANC's #1, #2, #3, ...

........................................................................
.............................. CYCLE   38 ..............................
........................................................................

 iter      E             dE          RMSdq      gap      omega  full diag
   1    -52.4806846 -0.524807E+02  0.134E-01    4.44       0.0  T
   2    -52.4806881 -0.358816E-05  0.788E-02    4.43       1.0  T
   3    -52.4806884 -0.226966E-06  0.562E-03    4.43       2.9  T
   4    -52.4806890 -0.680024E-06  0.233E-03    4.43       7.0  T
   5    -52.4806891 -0.315228E-07  0.130E-03    4.43      12.5  T
   6    -52.4806891 -0.479283E-08  0.498E-04    4.43      32.6  T
   7    -52.4806891 -0.545616E-08  0.150E-04    4.43     107.9  T
     SCC iter.                  ...        0 min,  0.110 sec
     gradient                   ...        0 min,  0.044 sec
 * total energy  :   -51.7514640 Eh     change       -0.8914352E-04 Eh
   gradient norm :     0.0074093 Eh/α   predicted    -0.9330193E-04 (   4.66%)
   displ. norm   :     0.2942580 α      lambda       -0.1900447E-03
   maximum displ.:     0.2427032 α      in ANC's #1, #2, #4, ...

........................................................................
.............................. CYCLE   39 ..............................
........................................................................

 iter      E             dE          RMSdq      gap      omega  full diag
   1    -52.4854238 -0.524854E+02  0.368E-02    4.43       0.0  T
   2    -52.4854249 -0.110961E-05  0.214E-02    4.43       1.0  T
   3    -52.4854249  0.261241E-07  0.313E-03    4.43       5.2  T
   4    -52.4854250 -0.123201E-06  0.105E-03    4.43      15.4  T
   5    -52.4854250 -0.167864E-07  0.544E-04    4.43      29.8  T
   6    -52.4854250 -0.548226E-09  0.233E-04    4.43      69.6  T
     SCC iter.                  ...        0 min,  0.086 sec
     gradient                   ...        0 min,  0.035 sec
 * total energy  :   -51.7515894 Eh     change       -0.1254352E-03 Eh
   gradient norm :     0.0022872 Eh/α   predicted    -0.1032506E-03 ( -17.69%)
   displ. norm   :     0.6174868 α      lambda       -0.1085371E-03
   maximum displ.:     0.4980643 α      in ANC's #1, #2, #3, ...

........................................................................
.............................. CYCLE   40 ..............................
........................................................................

 iter      E             dE          RMSdq      gap      omega  full diag
   1    -52.4856863 -0.524857E+02  0.701E-02    4.42       0.0  T
   2    -52.4856872 -0.899348E-06  0.414E-02    4.42       1.0  T
   3    -52.4856872  0.164897E-07  0.329E-03    4.42       4.9  T
   4    -52.4856874 -0.239156E-06  0.117E-03    4.42      13.8  T
   5    -52.4856875 -0.591768E-08  0.692E-04    4.42      23.5  T
   6    -52.4856875 -0.303722E-08  0.181E-04    4.42      89.8  T
     SCC iter.                  ...        0 min,  0.070 sec
     gradient                   ...        0 min,  0.037 sec
 * total energy  :   -51.7516763 Eh     change       -0.8682293E-04 Eh
   gradient norm :     0.0029890 Eh/α   predicted    -0.7496265E-04 ( -13.66%)
   displ. norm   :     0.6676851 α      lambda       -0.1156146E-03
   maximum displ.:     0.5408010 α      in ANC's #1, #2, #3, ...

........................................................................
.............................. CYCLE   41 ..............................
........................................................................

 iter      E             dE          RMSdq      gap      omega  full diag
   1    -52.4850687 -0.524851E+02  0.824E-02    4.42       0.0  T
   2    -52.4850697 -0.102313E-05  0.486E-02    4.41       1.0  T
   3    -52.4850696  0.694227E-07  0.397E-03    4.41       4.1  T
   4    -52.4850700 -0.399266E-06  0.145E-03    4.41      11.2  T
   5    -52.4850700 -0.744598E-08  0.784E-04    4.41      20.7  T
   6    -52.4850700 -0.577240E-08  0.239E-04    4.41      67.9  T
     SCC iter.                  ...        0 min,  0.074 sec
     gradient                   ...        0 min,  0.044 sec
 * total energy  :   -51.7517634 Eh     change       -0.8717665E-04 Eh
   gradient norm :     0.0025536 Eh/α   predicted    -0.8358077E-04 (  -4.12%)
   displ. norm   :     0.4238524 α      lambda       -0.1438530E-03
   maximum displ.:     0.3389608 α      in ANC's #1, #2, #4, ...

........................................................................
.............................. CYCLE   42 ..............................
........................................................................

 iter      E             dE          RMSdq      gap      omega  full diag
   1    -52.4911330 -0.524911E+02  0.679E-02    4.41       0.0  T
   2    -52.4911339 -0.888746E-06  0.402E-02    4.41       1.0  T
   3    -52.4911338  0.850831E-07  0.396E-03    4.41       4.1  T
   4    -52.4911341 -0.321297E-06  0.155E-03    4.41      10.4  T
   5    -52.4911341 -0.224269E-07  0.726E-04    4.41      22.3  T
   6    -52.4911341 -0.107636E-08  0.185E-04    4.41      87.7  T
     SCC iter.                  ...        0 min,  0.151 sec
     gradient                   ...        0 min,  0.053 sec
 * total energy  :   -51.7518179 Eh     change       -0.5450198E-04 Eh
   gradient norm :     0.0042289 Eh/α   predicted    -0.8484898E-04 (  55.68%)
   displ. norm   :     0.5760495 α      lambda       -0.1198699E-03
   maximum displ.:     0.4648564 α      in ANC's #1, #2, #3, ...
 * RMSD in coord.:     1.2025932 α      energy gain  -0.1091493E-02 Eh

generating ANC from exact Hessian ...
Using Lindh-Hessian (1995)
 Shifting diagonal of input Hessian by    9.6913511042430785E-003
 Lowest  eigenvalues of input Hessian
    0.000000    0.000000    0.000000    0.000000    0.000000    0.000000
    0.010000    0.010311    0.010560    0.010733    0.011502    0.011948
    0.013448    0.014716    0.018118    0.018398    0.018751    0.019520
 Highest eigenvalues
    1.612343    1.899201    1.957155    2.002762    2.026690    2.370144


........................................................................
.............................. CYCLE   43 ..............................
........................................................................

 iter      E             dE          RMSdq      gap      omega  full diag
   1    -52.4860920 -0.524861E+02  0.787E-02    4.40       0.0  T
   2    -52.4860932 -0.125533E-05  0.463E-02    4.39       1.0  T
   3    -52.4860933 -0.297937E-07  0.317E-03    4.40       5.1  T
   4    -52.4860935 -0.209152E-06  0.156E-03    4.39      10.4  T
   5    -52.4860935 -0.419298E-07  0.793E-04    4.39      20.5  T
   6    -52.4860935 -0.203094E-08  0.214E-04    4.39      75.7  T
     SCC iter.                  ...        0 min,  0.124 sec
     gradient                   ...        0 min,  0.045 sec
 * total energy  :   -51.7518723 Eh     change       -0.5435210E-04 Eh
   gradient norm :     0.0037551 Eh/α   predicted     0.0000000E+00 (-100.00%)
   displ. norm   :     0.0365719 α      lambda       -0.4279808E-04
   maximum displ.:     0.0233150 α      in ANC's #4, #5, #6, ...

........................................................................
.............................. CYCLE   44 ..............................
........................................................................

 iter      E             dE          RMSdq      gap      omega  full diag
   1    -52.4874229 -0.524874E+02  0.145E-02    4.40       0.0  T
   2    -52.4874232 -0.293421E-06  0.842E-03    4.40       1.9  T
   3    -52.4874232  0.164947E-07  0.190E-03    4.40       8.5  T
   4    -52.4874232 -0.410524E-07  0.439E-04    4.40      37.0  T
   5    -52.4874232 -0.330505E-08  0.216E-04    4.40      75.1  T
     SCC iter.                  ...        0 min,  0.060 sec
     gradient                   ...        0 min,  0.026 sec
 * total energy  :   -51.7519038 Eh     change       -0.3150096E-04 Eh
   gradient norm :     0.0012179 Eh/α   predicted    -0.2143590E-04 ( -31.95%)
   displ. norm   :     0.1097912 α      lambda       -0.3657880E-04
   maximum displ.:     0.0719807 α      in ANC's #4, #5, #6, ...

........................................................................
.............................. CYCLE   45 ..............................
........................................................................

 iter      E             dE          RMSdq      gap      omega  full diag
   1    -52.4888226 -0.524888E+02  0.370E-02    4.40       0.0  T
   2    -52.4888233 -0.670849E-06  0.217E-02    4.40       1.0  T
   3    -52.4888233  0.406155E-07  0.255E-03    4.40       6.4  T
   4    -52.4888234 -0.111440E-06  0.573E-04    4.40      28.3  T
   5    -52.4888234 -0.204401E-08  0.313E-04    4.40      51.8  T
     SCC iter.                  ...        0 min,  0.204 sec
     gradient                   ...        0 min,  0.077 sec
 * total energy  :   -51.7519363 Eh     change       -0.3251799E-04 Eh
   gradient norm :     0.0026924 Eh/α   predicted    -0.1838980E-04 ( -43.45%)
   displ. norm   :     0.0612158 α      lambda       -0.2119805E-04
   maximum displ.:     0.0391465 α      in ANC's #4, #5, #6, ...

........................................................................
.............................. CYCLE   46 ..............................
........................................................................

 iter      E             dE          RMSdq      gap      omega  full diag
   1    -52.4885353 -0.524885E+02  0.206E-02    4.40       0.0  T
   2    -52.4885353 -0.357946E-07  0.121E-02    4.40       1.3  T
   3    -52.4885353  0.155661E-08  0.681E-04    4.40      23.8  T
   4    -52.4885353 -0.117091E-07  0.284E-04    4.40      57.2  T
     SCC iter.                  ...        0 min,  0.047 sec
     gradient                   ...        0 min,  0.031 sec
 * total energy  :   -51.7519553 Eh     change       -0.1900831E-04 Eh
   gradient norm :     0.0022931 Eh/α   predicted    -0.1063933E-04 ( -44.03%)
   displ. norm   :     0.1479467 α      lambda       -0.4528465E-04
   maximum displ.:     0.0903261 α      in ANC's #4, #5, #6, ...

........................................................................
.............................. CYCLE   47 ..............................
........................................................................

 iter      E             dE          RMSdq      gap      omega  full diag
   1    -52.4875525 -0.524876E+02  0.513E-02    4.40       0.0  T
   2    -52.4875527 -0.211811E-06  0.301E-02    4.40       1.0  T
   3    -52.4875527  0.159300E-07  0.173E-03    4.40       9.4  T
   4    -52.4875528 -0.767757E-07  0.697E-04    4.40      23.3  T
   5    -52.4875528 -0.491143E-08  0.340E-04    4.40      47.7  T
     SCC iter.                  ...        0 min,  0.059 sec
     gradient                   ...        0 min,  0.033 sec
 * total energy  :   -51.7519873 Eh     change       -0.3196786E-04 Eh
   gradient norm :     0.0008831 Eh/α   predicted    -0.2313864E-04 ( -27.62%)
   displ. norm   :     0.1504483 α      lambda       -0.1544244E-04
   maximum displ.:     0.0938432 α      in ANC's #4, #5, #6, ...

........................................................................
.............................. CYCLE   48 ..............................
........................................................................

 iter      E             dE          RMSdq      gap      omega  full diag
   1    -52.4869205 -0.524869E+02  0.540E-02    4.40       0.0  T
   2    -52.4869207 -0.182574E-06  0.317E-02    4.40       1.0  T
   3    -52.4869207 -0.262409E-08  0.152E-03    4.40      10.7  T
   4    -52.4869207 -0.547897E-07  0.622E-04    4.40      26.1  T
   5    -52.4869207 -0.312193E-08  0.313E-04    4.40      51.8  T
     SCC iter.                  ...        0 min,  0.066 sec
     gradient                   ...        0 min,  0.037 sec
 * total energy  :   -51.7520007 Eh     change       -0.1338006E-04 Eh
   gradient norm :     0.0013559 Eh/α   predicted    -0.7799462E-05 ( -41.71%)
   displ. norm   :     0.0516613 α      lambda       -0.7048475E-05
   maximum displ.:     0.0320777 α      in ANC's #4, #5, #2, ...

........................................................................
.............................. CYCLE   49 ..............................
........................................................................

 iter      E             dE          RMSdq      gap      omega  full diag
   1    -52.4874394 -0.524874E+02  0.196E-02    4.41       0.0  T
   2    -52.4874394 -0.313937E-07  0.115E-02    4.40       1.4  T
   3    -52.4874394  0.363493E-08  0.600E-04    4.41      27.0  T
   4    -52.4874394 -0.109874E-07  0.201E-04    4.41      80.8  T
     SCC iter.                  ...        0 min,  0.051 sec
     gradient                   ...        0 min,  0.031 sec
 * total energy  :   -51.7520099 Eh     change       -0.9220441E-05 Eh
   gradient norm :     0.0009244 Eh/α   predicted    -0.3528961E-05 ( -61.73%)
   displ. norm   :     0.1364642 α      lambda       -0.1686410E-04
   maximum displ.:     0.0792181 α      in ANC's #4, #5, #2, ...

........................................................................
.............................. CYCLE   50 ..............................
........................................................................

 iter      E             dE          RMSdq      gap      omega  full diag
   1    -52.4879907 -0.524880E+02  0.503E-02    4.40       0.0  T
   2    -52.4879909 -0.187239E-06  0.295E-02    4.40       1.0  T
   3    -52.4879909  0.319094E-07  0.159E-03    4.40      10.2  T
   4    -52.4879909 -0.812659E-07  0.519E-04    4.40      31.3  T
   5    -52.4879909 -0.337651E-08  0.278E-04    4.40      58.3  T
     SCC iter.                  ...        0 min,  0.079 sec
     gradient                   ...        0 min,  0.044 sec
 * total energy  :   -51.7520280 Eh     change       -0.1810108E-04 Eh
   gradient norm :     0.0006525 Eh/α   predicted    -0.8504927E-05 ( -53.01%)
   displ. norm   :     0.1402972 α      lambda       -0.9988858E-05
   maximum displ.:     0.0823758 α      in ANC's #4, #2, #5, ...

........................................................................
.............................. CYCLE   51 ..............................
........................................................................

 iter      E             dE          RMSdq      gap      omega  full diag
   1    -52.4880157 -0.524880E+02  0.501E-02    4.40       0.0  T
   2    -52.4880158 -0.114764E-06  0.294E-02    4.40       1.0  T
   3    -52.4880158  0.155130E-07  0.139E-03    4.40      11.6  T
   4    -52.4880159 -0.601564E-07  0.470E-04    4.40      34.6  T
   5    -52.4880159 -0.130795E-08  0.239E-04    4.40      67.9  T
     SCC iter.                  ...        0 min,  0.074 sec
     gradient                   ...        0 min,  0.030 sec
 * total energy  :   -51.7520394 Eh     change       -0.1139953E-04 Eh
   gradient norm :     0.0009267 Eh/α   predicted    -0.5039659E-05 ( -55.79%)
   displ. norm   :     0.1280620 α      lambda       -0.8374182E-05
   maximum displ.:     0.0748912 α      in ANC's #4, #2, #1, ...

........................................................................
.............................. CYCLE   52 ..............................
........................................................................

 iter      E             dE          RMSdq      gap      omega  full diag
   1    -52.4879251 -0.524879E+02  0.435E-02    4.40       0.0  T
   2    -52.4879252 -0.748770E-07  0.255E-02    4.40       1.0  T
   3    -52.4879252  0.140519E-07  0.124E-03    4.40      13.0  T
   4    -52.4879253 -0.486803E-07  0.408E-04    4.40      39.8  T
   5    -52.4879253 -0.388980E-09  0.175E-04    4.40      92.9  T
     SCC iter.                  ...        0 min,  0.058 sec
     gradient                   ...        0 min,  0.031 sec
 * total energy  :   -51.7520498 Eh     change       -0.1036673E-04 Eh
   gradient norm :     0.0007139 Eh/α   predicted    -0.4221046E-05 ( -59.28%)
   displ. norm   :     0.1430385 α      lambda       -0.9973644E-05
   maximum displ.:     0.0824652 α      in ANC's #4, #2, #1, ...

........................................................................
.............................. CYCLE   53 ..............................
........................................................................

 iter      E             dE          RMSdq      gap      omega  full diag
   1    -52.4876692 -0.524877E+02  0.450E-02    4.40       0.0  T
   2    -52.4876693 -0.107701E-06  0.264E-02    4.40       1.0  T
   3    -52.4876693  0.190650E-07  0.144E-03    4.40      11.2  T
   4    -52.4876694 -0.619005E-07  0.490E-04    4.40      33.1  T
   5    -52.4876694 -0.126597E-08  0.250E-04    4.40      65.0  T
     SCC iter.                  ...        0 min,  0.058 sec
     gradient                   ...        0 min,  0.027 sec
 * total energy  :   -51.7520619 Eh     change       -0.1214922E-04 Eh
   gradient norm :     0.0004033 Eh/α   predicted    -0.5033588E-05 ( -58.57%)
   displ. norm   :     0.1550113 α      lambda       -0.1005492E-04
   maximum displ.:     0.0869513 α      in ANC's #2, #4, #1, ...

........................................................................
.............................. CYCLE   54 ..............................
........................................................................

 iter      E             dE          RMSdq      gap      omega  full diag
   1    -52.4874701 -0.524875E+02  0.444E-02    4.40       0.0  T
   2    -52.4874702 -0.121214E-06  0.261E-02    4.40       1.0  T
   3    -52.4874702  0.158297E-07  0.147E-03    4.40      11.1  T
   4    -52.4874703 -0.620191E-07  0.512E-04    4.40      31.7  T
   5    -52.4874703 -0.150149E-08  0.274E-04    4.40      59.2  T
     SCC iter.                  ...        0 min,  0.073 sec
     gradient                   ...        0 min,  0.043 sec
 * total energy  :   -51.7520737 Eh     change       -0.1182348E-04 Eh
   gradient norm :     0.0005924 Eh/α   predicted    -0.5084266E-05 ( -57.00%)
   displ. norm   :     0.1425132 α      lambda       -0.8350678E-05
   maximum displ.:     0.0828497 α      in ANC's #2, #1, #4, ...

........................................................................
.............................. CYCLE   55 ..............................
........................................................................

 iter      E             dE          RMSdq      gap      omega  full diag
   1    -52.4874071 -0.524874E+02  0.360E-02    4.40       0.0  T
   2    -52.4874071 -0.868235E-07  0.212E-02    4.40       1.0  T
   3    -52.4874071  0.322996E-08  0.117E-03    4.40      13.9  T
   4    -52.4874072 -0.386868E-07  0.453E-04    4.40      35.8  T
   5    -52.4874072 -0.111627E-08  0.243E-04    4.40      66.7  T
     SCC iter.                  ...        0 min,  0.071 sec
     gradient                   ...        0 min,  0.032 sec
 * total energy  :   -51.7520837 Eh     change       -0.9984665E-05 Eh
   gradient norm :     0.0008020 Eh/α   predicted    -0.4214174E-05 ( -57.79%)
   displ. norm   :     0.1431761 α      lambda       -0.8210307E-05
   maximum displ.:     0.0842163 α      in ANC's #2, #1, #4, ...

........................................................................
.............................. CYCLE   56 ..............................
........................................................................

 iter      E             dE          RMSdq      gap      omega  full diag
   1    -52.4874247 -0.524874E+02  0.332E-02    4.40       0.0  T
   2    -52.4874248 -0.690186E-07  0.195E-02    4.40       1.0  T
   3    -52.4874248 -0.672692E-09  0.103E-03    4.40      15.8  T
   4    -52.4874248 -0.319907E-07  0.432E-04    4.40      37.6  T
   5    -52.4874248 -0.101871E-08  0.215E-04    4.40      75.3  T
     SCC iter.                  ...        0 min,  0.062 sec
     gradient                   ...        0 min,  0.025 sec
 * total energy  :   -51.7520935 Eh     change       -0.9768574E-05 Eh
   gradient norm :     0.0007884 Eh/α   predicted    -0.4144260E-05 ( -57.58%)
   displ. norm   :     0.1382885 α      lambda       -0.7691297E-05
   maximum displ.:     0.0824199 α      in ANC's #2, #1, #4, ...

........................................................................
.............................. CYCLE   57 ..............................
........................................................................

 iter      E             dE          RMSdq      gap      omega  full diag
   1    -52.4876307 -0.524876E+02  0.293E-02    4.40       0.0  T
   2    -52.4876308 -0.615366E-07  0.172E-02    4.40       1.0  T
   3    -52.4876308 -0.100885E-07  0.838E-04    4.40      19.4  T
   4    -52.4876308 -0.187339E-07  0.416E-04    4.40      39.0  T
     SCC iter.                  ...        0 min,  0.097 sec
     gradient                   ...        0 min,  0.038 sec
 * total energy  :   -51.7521020 Eh     change       -0.8561787E-05 Eh
   gradient norm :     0.0005866 Eh/α   predicted    -0.3880347E-05 ( -54.68%)
   displ. norm   :     0.1097255 α      lambda       -0.5283259E-05
   maximum displ.:     0.0674554 α      in ANC's #1, #2, #4, ...

........................................................................
.............................. CYCLE   58 ..............................
........................................................................

 iter      E             dE          RMSdq      gap      omega  full diag
   1    -52.4877700 -0.524878E+02  0.226E-02    4.40       0.0  T
   2    -52.4877700 -0.418058E-07  0.133E-02    4.40       1.2  T
   3    -52.4877700  0.614888E-08  0.838E-04    4.40      19.4  T
   4    -52.4877700 -0.252287E-07  0.336E-04    4.40      48.3  T
     SCC iter.                  ...        0 min,  0.040 sec
     gradient                   ...        0 min,  0.025 sec
 * total energy  :   -51.7521075 Eh     change       -0.5483057E-05 Eh
   gradient norm :     0.0004392 Eh/α   predicted    -0.2660461E-05 ( -51.48%)
   displ. norm   :     0.0639618 α      lambda       -0.3136198E-05
   maximum displ.:     0.0424048 α      in ANC's #1, #2, #4, ...

........................................................................
.............................. CYCLE   59 ..............................
........................................................................

 iter      E             dE          RMSdq      gap      omega  full diag
   1    -52.4879661 -0.524880E+02  0.119E-02    4.40       0.0  T
   2    -52.4879662 -0.164829E-07  0.703E-03    4.40       2.3  T
   3    -52.4879662  0.215933E-08  0.497E-04    4.40      32.6  T
   4    -52.4879662 -0.816380E-08  0.204E-04    4.40      79.6  T
     SCC iter.                  ...        0 min,  0.046 sec
     gradient                   ...        0 min,  0.033 sec
 * total energy  :   -51.7521110 Eh     change       -0.3446573E-05 Eh
   gradient norm :     0.0003658 Eh/α   predicted    -0.1572155E-05 ( -54.38%)
   displ. norm   :     0.0503020 α      lambda       -0.2820341E-05
   maximum displ.:     0.0344917 α      in ANC's #1, #2, #11, ...

........................................................................
.............................. CYCLE   60 ..............................
........................................................................

 iter      E             dE          RMSdq      gap      omega  full diag
   1    -52.4880358 -0.524880E+02  0.847E-03    4.40       0.0  T
   2    -52.4880358 -0.758097E-08  0.501E-03    4.40       3.2  T
   3    -52.4880358  0.144664E-08  0.366E-04    4.40      44.3  T
   4    -52.4880358 -0.432679E-08  0.148E-04    4.40     109.7  T
     SCC iter.                  ...        0 min,  0.046 sec
     gradient                   ...        0 min,  0.034 sec
 * total energy  :   -51.7521143 Eh     change       -0.3350930E-05 Eh
   gradient norm :     0.0004046 Eh/α   predicted    -0.1412923E-05 ( -57.83%)
   displ. norm   :     0.0592042 α      lambda       -0.3326622E-05
   maximum displ.:     0.0399286 α      in ANC's #1, #2, #11, ...

........................................................................
.............................. CYCLE   61 ..............................
........................................................................

 iter      E             dE          RMSdq      gap      omega  full diag
   1    -52.4879549 -0.524880E+02  0.918E-03    4.40       0.0  T
   2    -52.4879549 -0.893097E-08  0.545E-03    4.40       3.0  T
   3    -52.4879549  0.232924E-08  0.424E-04    4.40      38.3  T
   4    -52.4879549 -0.608630E-08  0.174E-04    4.40      93.5  T
     SCC iter.                  ...        0 min,  0.047 sec
     gradient                   ...        0 min,  0.030 sec
 * total energy  :   -51.7521181 Eh     change       -0.3764945E-05 Eh
   gradient norm :     0.0003879 Eh/α   predicted    -0.1669441E-05 ( -55.66%)
   displ. norm   :     0.0508605 α      lambda       -0.2338455E-05
   maximum displ.:     0.0355420 α      in ANC's #1, #2, #11, ...

........................................................................
.............................. CYCLE   62 ..............................
........................................................................

 iter      E             dE          RMSdq      gap      omega  full diag
   1    -52.4878988 -0.524879E+02  0.768E-03    4.40       0.0  T
   2    -52.4878988 -0.620464E-08  0.454E-03    4.40       3.6  T
   3    -52.4878988  0.152794E-08  0.361E-04    4.40      45.0  T
   4    -52.4878988 -0.416898E-08  0.139E-04    4.40     116.6  T
     SCC iter.                  ...        0 min,  0.117 sec
     gradient                   ...        0 min,  0.059 sec
 * total energy  :   -51.7521207 Eh     change       -0.2625627E-05 Eh
   gradient norm :     0.0002877 Eh/α   predicted    -0.1171548E-05 ( -55.38%)
   displ. norm   :     0.0374370 α      lambda       -0.1566241E-05
   maximum displ.:     0.0276482 α      in ANC's #1, #2, #11, ...

........................................................................
.............................. CYCLE   63 ..............................
........................................................................

 iter      E             dE          RMSdq      gap      omega  full diag
   1    -52.4879211 -0.524879E+02  0.567E-03    4.40       0.0  T
   2    -52.4879211 -0.536534E-08  0.335E-03    4.40       4.8  T
   3    -52.4879211  0.310862E-08  0.410E-04    4.40      39.5  T
   4    -52.4879211 -0.510088E-08  0.110E-04    4.40     147.0  T
     SCC iter.                  ...        0 min,  0.157 sec
     gradient                   ...        0 min,  0.060 sec
 * total energy  :   -51.7521226 Eh     change       -0.1844542E-05 Eh
   gradient norm :     0.0002404 Eh/α   predicted    -0.7878800E-06 ( -57.29%)
   displ. norm   :     0.0348654 α      lambda       -0.1513734E-05
   maximum displ.:     0.0258383 α      in ANC's #1, #2, #4, ...

........................................................................
.............................. CYCLE   64 ..............................
........................................................................

 iter      E             dE          RMSdq      gap      omega  full diag
   1    -52.4879237 -0.524879E+02  0.566E-03    4.40       0.0  T
   2    -52.4879237 -0.483117E-08  0.333E-03    4.40       4.9  T
   3    -52.4879237  0.442466E-08  0.423E-04    4.40      38.3  T
   4    -52.4879237 -0.629716E-08  0.986E-05    4.40     164.5  T
     SCC iter.                  ...        0 min,  0.073 sec
     gradient                   ...        0 min,  0.046 sec
 * total energy  :   -51.7521244 Eh     change       -0.1848127E-05 Eh
   gradient norm :     0.0002386 Eh/α   predicted    -0.7583631E-06 ( -58.97%)
   displ. norm   :     0.0434185 α      lambda       -0.1775061E-05
   maximum displ.:     0.0314979 α      in ANC's #1, #2, #4, ...

........................................................................
.............................. CYCLE   65 ..............................
........................................................................

 iter      E             dE          RMSdq      gap      omega  full diag
   1    -52.4878969 -0.524879E+02  0.705E-03    4.40       0.0  T
   2    -52.4878969 -0.575810E-08  0.414E-03    4.40       3.9  T
   3    -52.4878969  0.612226E-08  0.498E-04    4.40      32.6  T
   4    -52.4878969 -0.848277E-08  0.107E-04    4.40     151.4  T
     SCC iter.                  ...        0 min,  0.066 sec
     gradient                   ...        0 min,  0.048 sec
 * total energy  :   -51.7521267 Eh     change       -0.2281181E-05 Eh
   gradient norm :     0.0002836 Eh/α   predicted    -0.8909075E-06 ( -60.95%)
   displ. norm   :     0.0585970 α      lambda       -0.2289129E-05
   maximum displ.:     0.0420531 α      in ANC's #1, #2, #4, ...

........................................................................
.............................. CYCLE   66 ..............................
........................................................................

 iter      E             dE          RMSdq      gap      omega  full diag
   1    -52.4878755 -0.524879E+02  0.985E-03    4.40       0.0  T
   2    -52.4878755 -0.769421E-08  0.580E-03    4.40       2.8  T
   3    -52.4878755  0.555038E-08  0.513E-04    4.40      31.6  T
   4    -52.4878755 -0.908254E-08  0.138E-04    4.40     117.7  T
     SCC iter.                  ...        0 min,  0.060 sec
     gradient                   ...        0 min,  0.046 sec
 * total energy  :   -51.7521296 Eh     change       -0.2904905E-05 Eh
   gradient norm :     0.0003222 Eh/α   predicted    -0.1146973E-05 ( -60.52%)
   displ. norm   :     0.0767674 α      lambda       -0.2685038E-05
   maximum displ.:     0.0557428 α      in ANC's #1, #2, #4, ...
 * RMSD in coord.:     0.2910677 α      energy gain  -0.3116527E-03 Eh

generating ANC from exact Hessian ...
Using Lindh-Hessian (1995)
 Shifting diagonal of input Hessian by    9.6902365069668605E-003
 Lowest  eigenvalues of input Hessian
    0.000000    0.000000    0.000000    0.000000    0.000000    0.000000
    0.010000    0.010380    0.010540    0.010710    0.011444    0.011975
    0.013427    0.014885    0.018112    0.018393    0.018886    0.019425
 Highest eigenvalues
    1.612895    1.900266    1.953569    2.004257    2.027965    2.363897


........................................................................
.............................. CYCLE   67 ..............................
........................................................................

 iter      E             dE          RMSdq      gap      omega  full diag
   1    -52.4878122 -0.524878E+02  0.139E-02    4.39       0.0  T
   2    -52.4878122 -0.191712E-07  0.821E-03    4.39       2.0  T
   3    -52.4878122  0.191737E-07  0.842E-04    4.39      19.3  T
   4    -52.4878122 -0.277398E-07  0.211E-04    4.39      76.8  T
     SCC iter.                  ...        0 min,  0.072 sec
     gradient                   ...        0 min,  0.052 sec
 * total energy  :   -51.7521329 Eh     change       -0.3271942E-05 Eh
   gradient norm :     0.0003414 Eh/α   predicted     0.0000000E+00 (-100.00%)
   displ. norm   :     0.0104767 α      lambda       -0.1138847E-06
   maximum displ.:     0.0066687 α      in ANC's #1, #5, #7, ...

........................................................................
.............................. CYCLE   68 ..............................
........................................................................

 iter      E             dE          RMSdq      gap      omega  full diag
   1    -52.4879642 -0.524880E+02  0.331E-03    4.39       0.0  T
   2    -52.4879642 -0.211058E-08  0.195E-03    4.39       8.3  T
   3    -52.4879642  0.256470E-08  0.271E-04    4.39      59.8  T
   4    -52.4879642 -0.330219E-08  0.638E-05    4.39     254.4  T
     SCC iter.                  ...        0 min,  0.097 sec
     gradient                   ...        0 min,  0.059 sec
 * total energy  :   -51.7521339 Eh     change       -0.1003430E-05 Eh
   gradient norm :     0.0001606 Eh/α   predicted    -0.4222744E-06 ( -57.92%)
   displ. norm   :     0.0275823 α      lambda       -0.1449476E-05
   maximum displ.:     0.0172374 α      in ANC's #1, #5, #3, ...

........................................................................
.............................. CYCLE   69 ..............................
........................................................................

 iter      E             dE          RMSdq      gap      omega  full diag
   1    -52.4880257 -0.524880E+02  0.790E-03    4.39       0.0  T
   2    -52.4880257 -0.866660E-08  0.465E-03    4.39       3.5  T
   3    -52.4880257  0.563686E-08  0.458E-04    4.39      35.4  T
   4    -52.4880257 -0.829522E-08  0.127E-04    4.39     128.0  T
     SCC iter.                  ...        0 min,  0.078 sec
     gradient                   ...        0 min,  0.050 sec
 * total energy  :   -51.7521354 Eh     change       -0.1554396E-05 Eh
   gradient norm :     0.0002604 Eh/α   predicted    -0.7251271E-06 ( -53.35%)
   displ. norm   :     0.0263855 α      lambda       -0.8775813E-06
   maximum displ.:     0.0178926 α      in ANC's #1, #5, #3, ...

........................................................................
.............................. CYCLE   70 ..............................
........................................................................

 iter      E             dE          RMSdq      gap      omega  full diag
   1    -52.4879585 -0.524880E+02  0.738E-03    4.39       0.0  T
   2    -52.4879585 -0.420744E-08  0.434E-03    4.39       3.7  T
   3    -52.4879585  0.385517E-08  0.362E-04    4.39      44.9  T
   4    -52.4879585 -0.556065E-08  0.984E-05    4.39     164.8  T
     SCC iter.                  ...        0 min,  0.076 sec
     gradient                   ...        0 min,  0.057 sec
 * total energy  :   -51.7521365 Eh     change       -0.1093782E-05 Eh
   gradient norm :     0.0002644 Eh/α   predicted    -0.4468764E-06 ( -59.14%)
   displ. norm   :     0.0276242 α      lambda       -0.9140176E-06
   maximum displ.:     0.0189881 α      in ANC's #1, #5, #3, ...

........................................................................
.............................. CYCLE   71 ..............................
........................................................................

 iter      E             dE          RMSdq      gap      omega  full diag
   1    -52.4879241 -0.524879E+02  0.788E-03    4.39       0.0  T
   2    -52.4879241 -0.291441E-08  0.463E-03    4.39       3.5  T
   3    -52.4879241  0.197604E-08  0.281E-04    4.39      57.8  T
   4    -52.4879241 -0.338707E-08  0.850E-05    4.39     190.8  T
     SCC iter.                  ...        0 min,  0.061 sec
     gradient                   ...        0 min,  0.038 sec
 * total energy  :   -51.7521378 Eh     change       -0.1228635E-05 Eh
   gradient norm :     0.0002122 Eh/α   predicted    -0.4582838E-06 ( -62.70%)
   displ. norm   :     0.0373703 α      lambda       -0.1260985E-05
   maximum displ.:     0.0258162 α      in ANC's #1, #5, #3, ...

........................................................................
.............................. CYCLE   72 ..............................
........................................................................

 iter      E             dE          RMSdq      gap      omega  full diag
   1    -52.4878797 -0.524879E+02  0.108E-02    4.39       0.0  T
   2    -52.4878797 -0.577913E-08  0.635E-03    4.39       2.6  T
   3    -52.4878797  0.608566E-08  0.448E-04    4.39      36.2  T
   4    -52.4878797 -0.898316E-08  0.111E-04    4.39     145.9  T
     SCC iter.                  ...        0 min,  0.059 sec
     gradient                   ...        0 min,  0.044 sec
 * total energy  :   -51.7521394 Eh     change       -0.1624558E-05 Eh
   gradient norm :     0.0001508 Eh/α   predicted    -0.6322369E-06 ( -61.08%)
   displ. norm   :     0.0423969 α      lambda       -0.1214265E-05
   maximum displ.:     0.0299107 α      in ANC's #1, #5, #3, ...

........................................................................
.............................. CYCLE   73 ..............................
........................................................................

 iter      E             dE          RMSdq      gap      omega  full diag
   1    -52.4878772 -0.524879E+02  0.122E-02    4.39       0.0  T
   2    -52.4878772 -0.770365E-08  0.714E-03    4.39       2.3  T
   3    -52.4878772  0.107048E-07  0.573E-04    4.39      28.3  T
   4    -52.4878772 -0.147191E-07  0.124E-04    4.39     130.9  T
     SCC iter.                  ...        0 min,  0.069 sec
     gradient                   ...        0 min,  0.042 sec
 * total energy  :   -51.7521409 Eh     change       -0.1533636E-05 Eh
   gradient norm :     0.0001357 Eh/α   predicted    -0.6082023E-06 ( -60.34%)
   displ. norm   :     0.0355724 α      lambda       -0.8839032E-06
   maximum displ.:     0.0258367 α      in ANC's #1, #5, #3, ...

........................................................................
.............................. CYCLE   74 ..............................
........................................................................

 iter      E             dE          RMSdq      gap      omega  full diag
   1    -52.4878989 -0.524879E+02  0.984E-03    4.39       0.0  T
   2    -52.4878990 -0.500670E-08  0.578E-03    4.39       2.8  T
   3    -52.4878989  0.653859E-08  0.456E-04    4.39      35.6  T
   4    -52.4878990 -0.921508E-08  0.104E-04    4.39     155.9  T
     SCC iter.                  ...        0 min,  0.044 sec
     gradient                   ...        0 min,  0.037 sec
 * total energy  :   -51.7521421 Eh     change       -0.1182747E-05 Eh
   gradient norm :     0.0001467 Eh/α   predicted    -0.4429535E-06 ( -62.55%)
   displ. norm   :     0.0292242 α      lambda       -0.7667621E-06
   maximum displ.:     0.0216412 α      in ANC's #1, #3, #5, ...

........................................................................
.............................. CYCLE   75 ..............................
........................................................................

 iter      E             dE          RMSdq      gap      omega  full diag
   1    -52.4879087 -0.524879E+02  0.767E-03    4.39       0.0  T
   2    -52.4879087 -0.309903E-08  0.451E-03    4.39       3.6  T
   3    -52.4879087  0.453110E-08  0.378E-04    4.39      42.9  T
   4    -52.4879087 -0.630991E-08  0.855E-05    4.39     189.8  T
     SCC iter.                  ...        0 min,  0.055 sec
     gradient                   ...        0 min,  0.038 sec
 * total energy  :   -51.7521432 Eh     change       -0.1083418E-05 Eh
   gradient norm :     0.0001425 Eh/α   predicted    -0.3849968E-06 ( -64.46%)
   displ. norm   :     0.0301775 α      lambda       -0.8805026E-06
   maximum displ.:     0.0226577 α      in ANC's #1, #3, #5, ...

........................................................................
.............................. CYCLE   76 ..............................
........................................................................

 iter      E             dE          RMSdq      gap      omega  full diag
   1    -52.4879325 -0.524879E+02  0.726E-03    4.39       0.0  T
   2    -52.4879325 -0.306560E-08  0.427E-03    4.39       3.8  T
   3    -52.4879325  0.317433E-08  0.339E-04    4.39      47.8  T
   4    -52.4879325 -0.484452E-08  0.891E-05    4.39     182.2  T
     SCC iter.                  ...        0 min,  0.057 sec
     gradient                   ...        0 min,  0.046 sec
 * total energy  :   -51.7521444 Eh     change       -0.1243682E-05 Eh
   gradient norm :     0.0001169 Eh/α   predicted    -0.4414644E-06 ( -64.50%)
   displ. norm   :     0.0335214 α      lambda       -0.9756046E-06
   maximum displ.:     0.0254271 α      in ANC's #1, #3, #5, ...

........................................................................
.............................. CYCLE   77 ..............................
........................................................................

 iter      E             dE          RMSdq      gap      omega  full diag
   1    -52.4879333 -0.524879E+02  0.751E-03    4.39       0.0  T
   2    -52.4879333 -0.365340E-08  0.441E-03    4.39       3.7  T
   3    -52.4879333  0.291811E-08  0.345E-04    4.39      47.1  T
   4    -52.4879333 -0.480686E-08  0.976E-05    4.39     166.3  T
     SCC iter.                  ...        0 min,  0.068 sec
     gradient                   ...        0 min,  0.046 sec
 * total energy  :   -51.7521458 Eh     change       -0.1343422E-05 Eh
   gradient norm :     0.0000867 Eh/α   predicted    -0.4889277E-06 ( -63.61%)
   displ. norm   :     0.0327670 α      lambda       -0.8844850E-06
   maximum displ.:     0.0252939 α      in ANC's #1, #3, #13, ...

........................................................................
.............................. CYCLE   78 ..............................
........................................................................

 iter      E             dE          RMSdq      gap      omega  full diag
   1    -52.4879426 -0.524879E+02  0.688E-03    4.39       0.0  T
   2    -52.4879426 -0.322671E-08  0.404E-03    4.39       4.0  T
   3    -52.4879426  0.180616E-08  0.299E-04    4.39      54.3  T
   4    -52.4879426 -0.345837E-08  0.932E-05    4.39     174.0  T
     SCC iter.                  ...        0 min,  0.085 sec
     gradient                   ...        0 min,  0.045 sec
 * total energy  :   -51.7521470 Eh     change       -0.1205827E-05 Eh
   gradient norm :     0.0000801 Eh/α   predicted    -0.4471593E-06 ( -62.92%)
   displ. norm   :     0.0285706 α      lambda       -0.7339426E-06
   maximum displ.:     0.0224339 α      in ANC's #1, #3, #13, ...

........................................................................
.............................. CYCLE   79 ..............................
........................................................................

 iter      E             dE          RMSdq      gap      omega  full diag
   1    -52.4879541 -0.524880E+02  0.568E-03    4.39       0.0  T
   2    -52.4879541 -0.230195E-08  0.334E-03    4.39       4.9  T
   3    -52.4879541  0.110759E-08  0.247E-04    4.39      65.6  T
   4    -52.4879541 -0.228405E-08  0.798E-05    4.39     203.4  T
     SCC iter.                  ...        0 min,  0.054 sec
     gradient                   ...        0 min,  0.039 sec
 * total energy  :   -51.7521480 Eh     change       -0.1034264E-05 Eh
   gradient norm :     0.0000869 Eh/α   predicted    -0.3675743E-06 ( -64.46%)
   displ. norm   :     0.0245445 α      lambda       -0.6587154E-06
   maximum displ.:     0.0194123 α      in ANC's #1, #3, #2, ...

........................................................................
.............................. CYCLE   80 ..............................
........................................................................

 iter      E             dE          RMSdq      gap      omega  full diag
   1    -52.4879565 -0.524880E+02  0.462E-03    4.39       0.0  T
   2    -52.4879565 -0.161364E-08  0.272E-03    4.39       6.0  T
   3    -52.4879565  0.323595E-09  0.190E-04    4.39      85.2  T
   4    -52.4879565 -0.118694E-08  0.742E-05    4.39     218.7  T
     SCC iter.                  ...        0 min,  0.061 sec
     gradient                   ...        0 min,  0.033 sec
 * total energy  :   -51.7521490 Eh     change       -0.9540464E-06 Eh
   gradient norm :     0.0000977 Eh/α   predicted    -0.3297890E-06 ( -65.43%)
   displ. norm   :     0.0247150 α      lambda       -0.7172852E-06
   maximum displ.:     0.0194042 α      in ANC's #1, #3, #2, ...

   *** GEOMETRY OPTIMIZATION CONVERGED AFTER 80 ITERATIONS ***

------------------------------------------------------------------------
 total energy gain   :        -0.0071924 Eh       -4.5133 kcal/mol
 total RMSD          :         1.6804148 a0        0.8892 Å
 total power (kW/mol):        -0.2360469 (step)   -1.4509 (real)
------------------------------------------------------------------------

 ANCopt (total)                0 d,  0 h,  0 min, 13.015 sec
 optimizer setup                ...        0 min,  0.001 sec (  0.006%)
 model hessian                  ...        0 min,  0.089 sec (  0.681%)
 ANC generation                 ...        0 min,  0.016 sec (  0.127%)
 coordinate transformation      ...        0 min,  0.002 sec (  0.012%)
 single point calculation       ...        0 min, 12.561 sec ( 96.514%)
 optimization log               ...        0 min,  0.012 sec (  0.093%)
 hessian update                 ...        0 min,  0.303 sec (  2.331%)
 rational function              ...        0 min,  0.009 sec (  0.072%)

================
 final structure:
================
38
 xtb: 6.7.1 (edcfbbe)
C            3.62673373551652        0.74097343016093        1.99342633267163
C            2.37829432419674        0.38107292492415        1.19284123299094
C            1.99816804132608        1.51126044728177        0.24094221187280
C            2.61928936018794       -0.92107633528877        0.41951058289382
N            1.45920821043060       -1.31855074545649       -0.33828344967750
C            1.46668338710979       -1.49143086212861       -1.66714261472085
O            2.45561338562994       -1.44355030285227       -2.36884704582384
C            0.08135030116390       -1.77010987626426       -2.25757830291184
O           -0.90334483696948       -1.72096384776263       -1.25665455772028
C           -2.22630568730063       -1.63724886427036       -1.73694247464376
C           -3.13386669291174       -1.30627079990288       -0.54828305186643
C           -2.69235843234528       -0.00993952535820        0.07243249378053
C           -3.05693986547074        1.20272412093142       -0.49871030139967
C           -2.59964674972329        2.39702063723582        0.02893370368985
C           -1.76953813331784        2.39373048659506        1.13683041753068
C           -1.40404029328647        1.19076426281657        1.71531048707671
C           -1.86087285447533       -0.00265649717162        1.18403531146939
H            3.88846219309459       -0.05947614975348        2.68184239121597
H            3.46064181573252        1.64831809492508        2.56906278378231
H            4.46794669469072        0.90771789582639        1.32483778802196
H            1.54726599808114        0.21593509727900        1.88862242812195
H            2.78590249655568        1.66657939119889       -0.49261034359888
H            1.84819618209938        2.43701228022148        0.79143327054882
H            1.07659068961676        1.27703840961800       -0.28699083682208
H            3.43337539647413       -0.79435894083381       -0.29854850327227
H            2.89072560204896       -1.72039085941208        1.11962451098347
H            0.56321687998886       -1.34234160851291        0.12642029574707
H           -0.10477480716238       -1.01011781873613       -3.03116669860393
H            0.09993057963961       -2.75168294689406       -2.75460874459349
H           -2.52711247896137       -2.58798367544657       -2.20325214002027
H           -2.29828211022102       -0.84306676863087       -2.49550761746034
H           -4.16268942726280       -1.23588344352564       -0.90435439232359
H           -3.06429041792372       -2.11462990608072        0.18023430090371
H           -3.70629945732289        1.21050369810905       -1.36318690836194
H           -2.89111683801238        3.33258022558548       -0.42578661868948
H           -1.41059302056546        3.32535191587356        1.54838254263289
H           -0.76192614924273        1.18414590421331        2.58423833647882
H           -1.57359702110960       -0.94099944850970        1.63731003823176

 Bond Distances (Angstroems)
 ---------------------------
C1-C2=1.5261         C1-H18=1.0877        C1-H19=1.0873        C1-H20=1.0874        C2-C1=1.5261         C2-C3=1.5258         
C2-C4=1.5335         C2-H21=1.0964        C3-C2=1.5258         C3-H22=1.0875        C3-H23=1.0875        C3-H24=1.0876        
C4-C2=1.5335         C4-N5=1.4415         C4-H25=1.0929        C4-H26=1.0967        N5-C4=1.4415         N5-C6=1.3401         
N5-H27=1.0096        C6-N5=1.3401         C6-O7=1.2135         C6-C8=1.5315         O7-C6=1.2135         C8-C6=1.5315         
C8-O9=1.4050         C8-H28=1.1003        C8-H29=1.1004        O9-C8=1.4050         O9-C10=1.4099        C10-O9=1.4099        
C10-C11=1.5317       C10-H30=1.1008       C10-H31=1.1006       C11-C10=1.5317       C11-C12=1.5036       C11-H32=1.0910       
C11-H33=1.0904       C12-C11=1.5036       C12-C13=1.3891       C12-C17=1.3882       C13-C12=1.3891       C13-C14=1.3834       
C13-H34=1.0812       C14-C13=1.3834       C14-C15=1.3844       C14-H35=1.0803       C15-C14=1.3844       C15-C16=1.3840       
C15-H36=1.0799       C16-C15=1.3840       C16-C17=1.3839       C16-H37=1.0805       C17-C12=1.3882       C17-C16=1.3839       
C17-H38=1.0810       H18-C1=1.0877        H19-C1=1.0873        H20-C1=1.0874        H21-C2=1.0964        H22-C3=1.0875        
H23-C3=1.0875        H24-C3=1.0876        H25-C4=1.0929        H26-C4=1.0967        H27-N5=1.0096        H28-C8=1.1003        
H29-C8=1.1004        H30-C10=1.1008       H31-C10=1.1006       H32-C11=1.0910       H33-C11=1.0904       H34-C13=1.0812       
H35-C14=1.0803       H36-C15=1.0799       H37-C16=1.0805       H38-C17=1.0810       
 C  H  Rav=1.0899 sigma=0.0072  Rmin=1.0799  Rmax=1.1008    20
 C  C  Rav=1.4554 sigma=0.0703  Rmin=1.3834  Rmax=1.5335    12
 N  H  Rav=1.0096 sigma=0.0000  Rmin=1.0096  Rmax=1.0096     1
 N  C  Rav=1.3908 sigma=0.0507  Rmin=1.3401  Rmax=1.4415     2
 O  C  Rav=1.3428 sigma=0.0914  Rmin=1.2135  Rmax=1.4099     3

 selected bond angles (degree)
 --------------------
H18-C1-C2=110.81               H19-C1-C2=110.46               H19-C1-H18=108.41              H20-C1-C2=110.27               
H20-C1-H18=108.41              H20-C1-H19=108.40              C3-C2-C1=110.88                C4-C2-C1=109.65                
C4-C2-C3=110.70                H21-C2-C1=108.82               H21-C2-C3=108.58               H21-C2-C4=108.13               
H22-C3-C2=110.25               H23-C3-C2=110.43               H23-C3-H22=108.65              H24-C3-C2=110.76               
H24-C3-H22=108.49              H24-C3-H23=108.19              N5-C4-C2=111.89                H25-C4-C2=110.48               
H25-C4-N5=106.62               H26-C4-C2=109.62               H26-C4-N5=109.50               H26-C4-H25=108.64              
C6-N5-C4=123.53                H27-N5-C4=118.60               H27-N5-C6=117.28               O7-C6-N5=124.95                
C8-C6-N5=113.62                C8-C6-O7=121.43                O9-C8-C6=110.67                H28-C8-C6=107.36               
H28-C8-O9=110.99               H29-C8-C6=108.73               H29-C8-O9=111.40               H29-C8-H28=107.54              
C10-O9-C8=114.65               C11-C10-O9=107.72              H30-C10-O9=110.45              H30-C10-C11=110.70             
H31-C10-O9=109.82              H31-C10-C11=109.89             H31-C10-H30=108.26             

 selected dihedral angles (degree)
 ---------------------------------
C3-C2-C1-H18=179.19           C3-C2-C1-H19= 59.03           C3-C2-C1-H20=299.23           C4-C2-C1-H18=301.73           
C4-C2-C1-H19=181.57           C4-C2-C1-H20= 61.77           H21-C2-C1-H18= 59.82          H21-C2-C1-H19=299.66          
H21-C2-C1-H20=179.86          H22-C3-C2-C1= 63.16           H22-C3-C2-C4=301.23           H22-C3-C2-H21=182.67          
H23-C3-C2-C1=303.08           H23-C3-C2-C4=181.16           H23-C3-C2-H21= 62.59          H24-C3-C2-C1=183.25           
H24-C3-C2-C4= 61.32           H24-C3-C2-H21=302.76          N5-C4-C2-C1=179.04            N5-C4-C2-C3=301.69            
N5-C4-C2-H21= 60.52           H25-C4-C2-C1=297.67           H25-C4-C2-C3= 60.32           H25-C4-C2-H21=179.15          
H26-C4-C2-C1= 57.36           H26-C4-C2-C3=180.01           H26-C4-C2-H21=298.84          C6-N5-C4-C2=121.54            
C6-N5-C4-H25=  0.64           C6-N5-C4-H26=243.29           H27-N5-C4-C2=310.58           H27-N5-C4-H25=189.69          
H27-N5-C4-H26= 72.33          O7-C6-N5-C4=  6.30            O7-C6-N5-H27=177.37           C8-C6-N5-C4=186.08            
C8-C6-N5-H27=357.14           O9-C8-C6-N5=  2.62            O9-C8-C6-O7=182.40            H28-C8-C6-N5=123.89           
H28-C8-C6-O7=303.67           H29-C8-C6-N5=239.96           H29-C8-C6-O7= 59.74           C10-O9-C8-C6=165.18           
C10-O9-C8-H28= 46.08          C10-O9-C8-H29=286.28          C11-C10-O9-C8=191.37          H30-C10-O9-C8= 70.36          
H31-C10-O9-C8=311.03          
           -------------------------------------------------
          |                Final Singlepoint                |
           -------------------------------------------------

          ...................................................
          :                      SETUP                      :
          :.................................................:
          :  # basis functions                  89          :
          :  # atomic orbitals                  89          :
          :  # shells                           55          :
          :  # electrons                        94          :
          :  max. iterations                   250          :
          :  Hamiltonian                  GFN2-xTB          :
          :  restarted?                      false          :
          :  GBSA solvation                  false          :
          :  PC potential                    false          :
          :  electronic temp.          300.0000000     K    :
          :  accuracy                    1.0000000          :
          :  -> integral cutoff          0.2500000E+02      :
          :  -> integral neglect         0.1000000E-07      :
          :  -> SCF convergence          0.1000000E-05 Eh   :
          :  -> wf. convergence          0.1000000E-03 e    :
          :  Broyden damping             0.4000000          :
          :  net charge                          0          :
          :  unpaired electrons                  0          :
          ...................................................

 iter      E             dE          RMSdq      gap      omega  full diag
   1    -52.4879565 -0.524880E+02  0.241E-05    4.39       0.0  T
   2    -52.4879565 -0.609646E-11  0.149E-05    4.39    1089.0  T
   3    -52.4879565 -0.270006E-11  0.904E-06    4.39    1793.5  T

   *** convergence criteria satisfied after 3 iterations ***

         #    Occupation            Energy/Eh            Energy/eV
      -------------------------------------------------------------
         1        2.0000           -0.7116810             -19.3658
       ...           ...                  ...                  ...
        41        2.0000           -0.4286935             -11.6653
        42        2.0000           -0.4252359             -11.5713
        43        2.0000           -0.4122175             -11.2170
        44        2.0000           -0.4072339             -11.0814
        45        2.0000           -0.4014527             -10.9241
        46        2.0000           -0.3933140             -10.7026
        47        2.0000           -0.3878455             -10.5538 (HOMO)
        48                         -0.2265948              -6.1660 (LUMO)
        49                         -0.2260374              -6.1508
        50                         -0.1978548              -5.3839
        51                         -0.0979668              -2.6658
        52                         -0.0053798              -0.1464
       ...                                ...                  ...
        89                          0.6609402              17.9851
      -------------------------------------------------------------
                  HL-Gap            0.1612507 Eh            4.3879 eV
             Fermi-level           -0.3072202 Eh           -8.3599 eV

 SCC (total)                   0 d,  0 h,  0 min,  0.107 sec
 SCC setup                      ...        0 min,  0.004 sec (  3.555%)
 Dispersion                     ...        0 min,  0.007 sec (  6.735%)
 classical contributions        ...        0 min,  0.004 sec (  3.444%)
 integral evaluation            ...        0 min,  0.013 sec ( 11.707%)
 iterations                     ...        0 min,  0.042 sec ( 39.620%)
 molecular gradient             ...        0 min,  0.037 sec ( 34.741%)
 printout                       ...        0 min,  0.000 sec (  0.170%)

         :::::::::::::::::::::::::::::::::::::::::::::::::::::
         ::                     SUMMARY                     ::
         :::::::::::::::::::::::::::::::::::::::::::::::::::::
         :: total energy             -51.752148956050 Eh    ::
         :: gradient norm              0.000100141314 Eh/a0 ::
         :: HOMO-LUMO gap              4.387854057838 eV    ::
         ::.................................................::
         :: SCC energy               -52.487027181313 Eh    ::
         :: -> isotropic ES            0.058733874781 Eh    ::
         :: -> anisotropic ES          0.006407868777 Eh    ::
         :: -> anisotropic XC          0.021187621736 Eh    ::
         :: -> dispersion             -0.034645604449 Eh    ::
         :: repulsion energy           0.734878225263 Eh    ::
         :: add. restraining           0.000000000000 Eh    ::
         :: total charge              -0.000000000000 e     ::
         :::::::::::::::::::::::::::::::::::::::::::::::::::::

           -------------------------------------------------
          |                Property Printout                |
           -------------------------------------------------

    * Orbital Energies and Occupations

         #    Occupation            Energy/Eh            Energy/eV
      -------------------------------------------------------------
         1        2.0000           -0.7116810             -19.3658
       ...           ...                  ...                  ...
        35        2.0000           -0.4651995             -12.6587
        36        2.0000           -0.4613056             -12.5528
        37        2.0000           -0.4568891             -12.4326
        38        2.0000           -0.4488223             -12.2131
        39        2.0000           -0.4419419             -12.0259
        40        2.0000           -0.4311998             -11.7335
        41        2.0000           -0.4286935             -11.6653
        42        2.0000           -0.4252359             -11.5713
        43        2.0000           -0.4122175             -11.2170
        44        2.0000           -0.4072339             -11.0814
        45        2.0000           -0.4014527             -10.9241
        46        2.0000           -0.3933140             -10.7026
        47        2.0000           -0.3878455             -10.5538 (HOMO)
        48                         -0.2265948              -6.1660 (LUMO)
        49                         -0.2260374              -6.1508
        50                         -0.1978548              -5.3839
        51                         -0.0979668              -2.6658
        52                         -0.0053798              -0.1464
        53                          0.0158344               0.4309
        54                          0.0741501               2.0177
        55                          0.0858393               2.3358
        56                          0.0971801               2.6444
        57                          0.0995934               2.7101
        58                          0.1075280               2.9260
       ...                                ...                  ...
        89                          0.6609402              17.9851
      -------------------------------------------------------------
                  HL-Gap            0.1612507 Eh            4.3879 eV
             Fermi-level           -0.3072202 Eh           -8.3599 eV

     #   Z          covCN         q      C6AA      α(0)
     1   6 C        3.757    -0.111    22.673     6.789
     2   6 C        3.850    -0.015    20.804     6.488
     3   6 C        3.756    -0.107    22.609     6.780
     4   6 C        3.745    -0.003    20.703     6.490
     5   7 N        2.688    -0.164    24.549     7.359
     6   6 C        2.749     0.268    22.478     7.763
     7   8 O        0.858    -0.440    22.498     6.359
     8   6 C        3.702     0.055    19.800     6.363
     9   8 O        1.702    -0.325    19.442     5.953
    10   6 C        3.701     0.093    19.186     6.264
    11   6 C        3.807    -0.067    21.770     6.642
    12   6 C        2.972     0.019    27.590     8.616
    13   6 C        2.925    -0.037    28.918     8.819
    14   6 C        2.919    -0.029    28.735     8.790
    15   6 C        2.920    -0.032    28.789     8.799
    16   6 C        2.919    -0.029    28.730     8.790
    17   6 C        2.925    -0.035    28.862     8.810
    18   1 H        0.925     0.036     2.506     2.475
    19   1 H        0.925     0.042     2.420     2.433
    20   1 H        0.925     0.043     2.409     2.427
    21   1 H        0.924     0.031     2.577     2.511
    22   1 H        0.925     0.045     2.386     2.416
    23   1 H        0.925     0.038     2.481     2.463
    24   1 H        0.925     0.035     2.512     2.478
    25   1 H        0.924     0.079     1.990     2.206
    26   1 H        0.924     0.042     2.426     2.436
    27   1 H        0.860     0.192     1.145     1.676
    28   1 H        0.923     0.042     2.420     2.433
    29   1 H        0.923     0.044     2.402     2.424
    30   1 H        0.923     0.021     2.712     2.575
    31   1 H        0.923     0.022     2.708     2.574
    32   1 H        0.924     0.045     2.383     2.414
    33   1 H        0.924     0.053     2.287     2.365
    34   1 H        0.925     0.028     2.609     2.526
    35   1 H        0.926     0.031     2.568     2.506
    36   1 H        0.926     0.031     2.574     2.509
    37   1 H        0.926     0.030     2.586     2.515
    38   1 H        0.926     0.029     2.595     2.519

 Mol. C6AA /au·bohr⁶  :      13306.136257
 Mol. C8AA /au·bohr⁸  :     299449.247253
 Mol. α(0) /au        :        176.753283


Wiberg/Mayer (AO) data.
largest (>0.10) Wiberg bond orders for each atom

 ---------------------------------------------------------------------------
     #   Z sym  total        # sym  WBO       # sym  WBO       # sym  WBO
 ---------------------------------------------------------------------------
     1   6 C    3.995 --     2 C    1.008    18 H    0.986    20 H    0.986
                            19 H    0.986
     2   6 C    3.995 --     3 C    1.010     1 C    1.008     4 C    0.985
                            21 H    0.967
     3   6 C    3.996 --     2 C    1.010    23 H    0.986    22 H    0.986
                            24 H    0.985
     4   6 C    3.964 --     5 N    0.993     2 C    0.985    26 H    0.966
                            25 H    0.965
     5   7 N    3.470 --     6 C    1.286     4 C    0.993    27 H    0.922
                             7 O    0.206
     6   6 C    3.960 --     7 O    1.672     5 N    1.286     8 C    0.944
     7   8 O    1.996 --     6 C    1.672     5 N    0.206
     8   6 C    3.950 --     9 O    0.987    29 H    0.954    28 H    0.954
                             6 C    0.944
     9   8 O    2.075 --     8 C    0.987    10 C    0.975
    10   6 C    3.952 --    11 C    0.986     9 O    0.975    30 H    0.967
                            31 H    0.967
    11   6 C    3.994 --    12 C    1.010    10 C    0.986    33 H    0.974
                            32 H    0.970
    12   6 C    3.989 --    17 C    1.415    13 C    1.413    11 C    1.010
                            15 C    0.110
    13   6 C    3.992 --    14 C    1.447    12 C    1.413    34 H    0.970
                            16 C    0.111
    14   6 C    3.992 --    13 C    1.447    15 C    1.437    35 H    0.971
                            17 C    0.111
    15   6 C    3.992 --    16 C    1.439    14 C    1.437    36 H    0.972
                            12 C    0.110
    16   6 C    3.993 --    17 C    1.444    15 C    1.439    37 H    0.970
                            13 C    0.111
    17   6 C    3.992 --    16 C    1.444    12 C    1.415    38 H    0.968
                            14 C    0.111
    18   1 H    0.999 --     1 C    0.986
    19   1 H    0.998 --     1 C    0.986
    20   1 H    0.998 --     1 C    0.986
    21   1 H    0.999 --     2 C    0.967
    22   1 H    0.998 --     3 C    0.986
    23   1 H    0.999 --     3 C    0.986
    24   1 H    0.999 --     3 C    0.985
    25   1 H    0.993 --     4 C    0.965
    26   1 H    0.998 --     4 C    0.966
    27   1 H    0.963 --     5 N    0.922
    28   1 H    0.998 --     8 C    0.954
    29   1 H    0.998 --     8 C    0.954
    30   1 H    0.999 --    10 C    0.967
    31   1 H    1.000 --    10 C    0.967
    32   1 H    0.997 --    11 C    0.970
    33   1 H    0.997 --    11 C    0.974
    34   1 H    0.999 --    13 C    0.970
    35   1 H    0.999 --    14 C    0.971
    36   1 H    0.999 --    15 C    0.972
    37   1 H    0.999 --    16 C    0.970
    38   1 H    0.999 --    17 C    0.968
 ---------------------------------------------------------------------------

Topologies differ in total number of bonds
Writing topology from bond orders to xtbtopo.mol

molecular dipole:
                 x           y           z       tot (Debye)
 q only:       -0.927       0.289       1.024
   full:       -1.314       0.202       0.885       4.061
molecular quadrupole (traceless):
                xx          xy          yy          xz          yz          zz
 q only:        1.179       6.332       1.647      14.014      -3.077      -2.826
  q+dip:       -4.321       7.782       5.825      19.437      -3.522      -1.504
   full:       -2.675       7.599       4.416      17.794      -3.127      -1.741

           -------------------------------------------------
          |                Geometry Summary                 |
           -------------------------------------------------

      molecular mass/u    :      235.3225714
   center of mass at/Å    :       -0.1278383      -0.1491816      -0.1921180
  moments of inertia/u·Å² :        0.9271583E+03   0.1393877E+04   0.2030170E+04
rotational constants/cm⁻¹ :        0.1818204E-01   0.1209406E-01   0.8303556E-02

 * 36 selected distances

     #   Z          #   Z                                           value/Å
     1   6 C        2   6 C                                       1.5261279
     2   6 C        3   6 C                                       1.5257562
     2   6 C        4   6 C                                       1.5335293 (max)
     4   6 C        5   7 N                                       1.4415361
     5   7 N        6   6 C                                       1.3400785
     6   6 C        7   8 O                                       1.2135339
     8   6 C        9   8 O                                       1.4049514
     9   8 O       10   6 C                                       1.4099328
    10   6 C       11   6 C                                       1.5317066
    12   6 C       13   6 C                                       1.3891282
    13   6 C       14   6 C                                       1.3834268
    14   6 C       15   6 C                                       1.3843867
    15   6 C       16   6 C                                       1.3839639
    12   6 C       17   6 C                                       1.3881940
    16   6 C       17   6 C                                       1.3839085
     1   6 C       18   1 H                                       1.0877216
     1   6 C       19   1 H                                       1.0872987
     1   6 C       20   1 H                                       1.0874069
     2   6 C       21   1 H                                       1.0963532
     3   6 C       22   1 H                                       1.0875427
     3   6 C       23   1 H                                       1.0874505
     3   6 C       24   1 H                                       1.0876021
     4   6 C       25   1 H                                       1.0928872
     4   6 C       26   1 H                                       1.0966955
     5   7 N       27   1 H                                       1.0096119 (min)
     8   6 C       28   1 H                                       1.1003044
     8   6 C       29   1 H                                       1.1003956
    10   6 C       30   1 H                                       1.1008298
    10   6 C       31   1 H                                       1.1006031
    11   6 C       32   1 H                                       1.0909710
    11   6 C       33   1 H                                       1.0904233
    13   6 C       34   1 H                                       1.0812254
    14   6 C       35   1 H                                       1.0802765
    15   6 C       36   1 H                                       1.0798775
    16   6 C       37   1 H                                       1.0804583
    17   6 C       38   1 H                                       1.0809593

 * 5 distinct bonds (by element types)

   Z      Z             #   av. dist./Å        max./Å        min./Å
   1 H    6 C          20     1.0898641     1.1008298     1.0798775
   6 C    6 C          10     1.4430128     1.5335293     1.3834268
   1 H    7 N           1     1.0096119     1.0096119     1.0096119
   6 C    7 N           2     1.3908073     1.4415361     1.3400785
   6 C    8 O           3     1.3428060     1.4099328     1.2135339


optimized geometry written to: xtbopt.xyz


           -------------------------------------------------
          | TOTAL ENERGY              -51.752148956050 Eh   |
          | GRADIENT NORM               0.000100141314 Eh/α |
          | HOMO-LUMO GAP               4.387854057838 eV   |
           -------------------------------------------------

------------------------------------------------------------------------
 * finished run on 2026/07/07 at 07:45:47.707     
------------------------------------------------------------------------
 total:
 * wall-time:     0 d,  0 h,  0 min, 13.541 sec
 *  cpu-time:     0 d,  0 h,  3 min, 35.302 sec
 * ratio c/w:    15.900 speedup
 SCF:
 * wall-time:     0 d,  0 h,  0 min,  0.346 sec
 *  cpu-time:     0 d,  0 h,  0 min,  5.499 sec
 * ratio c/w:    15.902 speedup
 ANC optimizer:
 * wall-time:     0 d,  0 h,  0 min, 13.128 sec
 *  cpu-time:     0 d,  0 h,  3 min, 28.793 sec
 * ratio c/w:    15.904 speedup

