      -----------------------------------------------------------      
     |                   =====================                   |     
     |                           x T B                           |     
     |                   =====================                   |     
     |                         S. Grimme                         |     
     |          Mulliken Center for Theoretical Chemistry        |     
     |                    University of Bonn                     |     
      -----------------------------------------------------------      

   * xtb version 6.7.1 (edcfbbe) compiled by 'conda@5dfe00f5fb80' on 2026-06-10

   xtb is free software: you can redistribute it and/or modify it under
   the terms of the GNU Lesser General Public License as published by
   the Free Software Foundation, either version 3 of the License, or
   (at your option) any later version.
   
   xtb is distributed in the hope that it will be useful,
   but WITHOUT ANY WARRANTY; without even the implied warranty of
   MERCHANTABILITY or FITNESS FOR A PARTICULAR PURPOSE.  See the
   GNU Lesser General Public License for more details.
   
   Cite this work as:
   * C. Bannwarth, E. Caldeweyher, S. Ehlert, A. Hansen, P. Pracht,
     J. Seibert, S. Spicher, S. Grimme, WIREs Comput. Mol. Sci., 2020, 11,
     e01493. DOI: 10.1002/wcms.1493
   
   for GFN2-xTB:
   * C. Bannwarth, S. Ehlert and S. Grimme., J. Chem. Theory Comput., 2019,
     15, 1652-1671. DOI: 10.1021/acs.jctc.8b01176
   for GFN1-xTB:
   * S. Grimme, C. Bannwarth, P. Shushkov, J. Chem. Theory Comput., 2017,
     13, 1989-2009. DOI: 10.1021/acs.jctc.7b00118
   for GFN0-xTB:
   * P. Pracht, E. Caldeweyher, S. Ehlert, S. Grimme, ChemRxiv, 2019, preprint.
     DOI: 10.26434/chemrxiv.8326202.v1
   for GFN-FF:
   * S. Spicher and S. Grimme, Angew. Chem. Int. Ed., 2020, 59, 15665-15673.
     DOI: 10.1002/anie.202004239
   
   for ALPB and GBSA implicit solvation:
   * S. Ehlert, M. Stahn, S. Spicher, S. Grimme, J. Chem. Theory Comput.,
     2021, 17, 4250-4261. DOI: 10.1021/acs.jctc.1c00471
   
   for ddCOSMO and CPCM-X implicit solvation:
   * M. Stahn, S. Ehlert, S. Grimme, J. Phys. Chem. A,
     2023, XX, XXXX-XXXX. DOI: 10.1021/acs.jpca.3c04382
   
   for DFT-D4:
   * E. Caldeweyher, C. Bannwarth and S. Grimme, J. Chem. Phys., 2017,
     147, 034112. DOI: 10.1063/1.4993215
   * E. Caldeweyher, S. Ehlert, A. Hansen, H. Neugebauer, S. Spicher,
     C. Bannwarth and S. Grimme, J. Chem. Phys., 2019, 150, 154122.
     DOI: 10.1063/1.5090222
   * E. Caldeweyher, J.-M. Mewes, S. Ehlert and S. Grimme, Phys. Chem. Chem. Phys.
     2020, 22, 8499-8512. DOI: 10.1039/D0CP00502A
   
   for sTDA-xTB:
   * S. Grimme and C. Bannwarth, J. Chem. Phys., 2016, 145, 054103.
     DOI: 10.1063/1.4959605
   
   in the mass-spec context:
   * V. Asgeirsson, C. Bauer and S. Grimme, Chem. Sci., 2017, 8, 4879.
     DOI: 10.1039/c7sc00601b
   * J. Koopman and S. Grimme, ACS Omega 2019, 4, 12, 15120-15133.
     DOI: 10.1021/acsomega.9b02011
   
   for metadynamics refer to:
   * S. Grimme, J. Chem. Theory Comput., 2019, 155, 2847-2862
     DOI: 10.1021/acs.jctc.9b00143
   
   for SPH calculations refer to:
   * S. Spicher and S. Grimme, J. Chem. Theory Comput., 2021, 17, 1701-1714
     DOI: 10.1021/acs.jctc.0c01306
   
   for ONIOM refer to:
   * C. Plett, A. Katbashev, S. Ehlert, S. Grimme, M. Bursch,
     Phys. Chem. Chem. Phys., 2023, 25, 17860-17868. DOI: 10.1039/D3CP02178E
   
   for DIPRO refer to:
   * J. Kohn, N. Gildemeister, S. Grimme, D. Fazzi, A. Hansen,
     J. Chem. Phys., 2023, just accepted.
   
   for PTB refer to:
   * S. Grimme, M. Mueller, A. Hansen, J. Chem. Phys., 2023, 158, 124111.
     DOI: 10.1063/5.0137838
   
   with help from (in alphabetical order)
   P. Atkinson, C. Bannwarth, F. Bohle, G. Brandenburg, E. Caldeweyher
   M. Checinski, S. Dohm, S. Ehlert, S. Ehrlich, I. Gerasimov, C. Hölzer
   A. Katbashev, J. Kohn, J. Koopman, C. Lavigne, S. Lehtola, F. März, M. Müller,
   F. Musil, H. Neugebauer, J. Pisarek, C. Plett, P. Pracht, F. Pultar,
   J. Seibert, P. Shushkov, S. Spicher, M. Stahn, M. Steiner, T. Strunk,
   J. Stückrath, T. Rose, and J. Unsleber
   
 * started run on 2026/07/06 at 20:27:19.670     
   ID    Z sym.   atoms
    1    8 O      1
    2    6 C      2-8, 10
    3   17 Cl     9, 11-13
    4    1 H      14-19

           -------------------------------------------------
          |                Calculation Setup                |
           -------------------------------------------------

          program call               : /home/ws/xd2484/miniforge3/envs/p3z_dft/bin/xtb xtb_input.xyz --gfn 2 --opt tight --cycles 500 --chrg 0 --uhf 0
          hostname                   : gpu10
          coordinate file            : xtb_input.xyz
          omp threads                :                    16


           -------------------------------------------------
          |                 G F N 2 - x T B                 |
           -------------------------------------------------

        Reference                      10.1021/acs.jctc.8b01176
      * Hamiltonian:
        H0-scaling (s, p, d)           1.850000    2.230000    2.230000
        zeta-weighting                 0.500000
      * Dispersion:
        s8                             2.700000
        a1                             0.520000
        a2                             5.000000
        s9                             5.000000
      * Repulsion:
        kExp                           1.500000    1.000000
        rExp                           1.000000
      * Coulomb:
        alpha                          2.000000
        third order                    shell-resolved
        anisotropic                    true
        a3                             3.000000
        a5                             4.000000
        cn-shift                       1.200000
        cn-exp                         4.000000
        max-rad                        5.000000


          ...................................................
          :                      SETUP                      :
          :.................................................:
          :  # basis functions                  82          :
          :  # atomic orbitals                  78          :
          :  # shells                           36          :
          :  # electrons                        72          :
          :  max. iterations                   250          :
          :  Hamiltonian                  GFN2-xTB          :
          :  restarted?                      false          :
          :  GBSA solvation                  false          :
          :  PC potential                    false          :
          :  electronic temp.          300.0000000     K    :
          :  accuracy                    1.0000000          :
          :  -> integral cutoff          0.2500000E+02      :
          :  -> integral neglect         0.1000000E-07      :
          :  -> SCF convergence          0.1000000E-05 Eh   :
          :  -> wf. convergence          0.1000000E-03 e    :
          :  Broyden damping             0.4000000          :
          :  net charge                          0          :
          :  unpaired electrons                  0          :
          ...................................................

 iter      E             dE          RMSdq      gap      omega  full diag
   1    -42.6811192 -0.426811E+02  0.511E+00    4.25       0.0  T
   2    -42.7428840 -0.617647E-01  0.359E+00    4.01       1.0  T
   3    -42.7577021 -0.148181E-01  0.180E+00    4.05       1.0  T
   4    -42.7741746 -0.164725E-01  0.290E-01    4.01       1.0  T
   5    -42.7748021 -0.627488E-03  0.132E-01    4.03       1.0  T
   6    -42.7749080 -0.105902E-03  0.913E-02    4.02       1.0  T
   7    -42.7749461 -0.381470E-04  0.543E-02    4.02       1.0  T
   8    -42.7749632 -0.170867E-04  0.377E-02    4.02       1.0  T
   9    -42.7749737 -0.105037E-04  0.199E-02    4.02       1.2  T
  10    -42.7749763 -0.259067E-05  0.121E-02    4.02       1.9  T
  11    -42.7749775 -0.117435E-05  0.727E-03    4.02       3.2  T
  12    -42.7749778 -0.305372E-06  0.537E-03    4.02       4.3  T
  13    -42.7749780 -0.220184E-06  0.375E-03    4.02       6.1  T
  14    -42.7749782 -0.156491E-06  0.191E-03    4.02      12.0  T
  15    -42.7749782 -0.338623E-07  0.103E-03    4.02      22.2  T
  16    -42.7749782 -0.753320E-08  0.710E-04    4.02      32.3  T
  17    -42.7749782 -0.428488E-08  0.471E-04    4.02      48.7  T

   *** convergence criteria satisfied after 17 iterations ***

         #    Occupation            Energy/Eh            Energy/eV
      -------------------------------------------------------------
         1        2.0000           -1.0891254             -29.6366
       ...           ...                  ...                  ...
        30        2.0000           -0.4499811             -12.2446
        31        2.0000           -0.4479355             -12.1889
        32        2.0000           -0.4456861             -12.1277
        33        2.0000           -0.4394778             -11.9588
        34        2.0000           -0.4297277             -11.6935
        35        2.0000           -0.4259218             -11.5899
        36        2.0000           -0.4098296             -11.1520 (HOMO)
        37                         -0.2620141              -7.1298 (LUMO)
        38                         -0.2525465              -6.8721
        39                         -0.2412694              -6.5653
        40                         -0.2004638              -5.4549
        41                         -0.1924708              -5.2374
       ...                                ...                  ...
        78                          0.5906200              16.0716
      -------------------------------------------------------------
                  HL-Gap            0.1478156 Eh            4.0223 eV
             Fermi-level           -0.3359218 Eh           -9.1409 eV

 SCC (total)                   0 d,  0 h,  0 min,  0.320 sec
 SCC setup                      ...        0 min,  0.004 sec (  1.162%)
 Dispersion                     ...        0 min,  0.011 sec (  3.350%)
 classical contributions        ...        0 min,  0.004 sec (  1.384%)
 integral evaluation            ...        0 min,  0.014 sec (  4.488%)
 iterations                     ...        0 min,  0.248 sec ( 77.567%)
 molecular gradient             ...        0 min,  0.038 sec ( 11.978%)
 printout                       ...        0 min,  0.000 sec (  0.062%)

         :::::::::::::::::::::::::::::::::::::::::::::::::::::
         ::                     SUMMARY                     ::
         :::::::::::::::::::::::::::::::::::::::::::::::::::::
         :: total energy             -42.441232618144 Eh    ::
         :: gradient norm              0.051648276273 Eh/a0 ::
         :: HOMO-LUMO gap              4.022266579333 eV    ::
         ::.................................................::
         :: SCC energy               -42.774780218786 Eh    ::
         :: -> isotropic ES            0.038372521864 Eh    ::
         :: -> anisotropic ES         -0.002014004167 Eh    ::
         :: -> anisotropic XC          0.010044183478 Eh    ::
         :: -> dispersion             -0.024884484105 Eh    ::
         :: repulsion energy           0.333547600642 Eh    ::
         :: add. restraining           0.000000000000 Eh    ::
         :: total charge              -0.000000000000 e     ::
         :::::::::::::::::::::::::::::::::::::::::::::::::::::

      ----------------------------------------------------------- 
     |                   =====================                   |
     |                        A N C O P T                        |
     |                   =====================                   |
     |               Approximate Normal Coordinate               |
     |                Rational Function Optimizer                |
      ----------------------------------------------------------- 
      ----------------------------------------------------------- 
     |                   =====================                   |
     |                        A N C O P T                        |
     |                   =====================                   |
     |               Approximate Normal Coordinate               |
     |                Rational Function Optimizer                |
      ----------------------------------------------------------- 

          ...................................................
          :                      SETUP                      :
          :.................................................:
          :   optimization level             tight          :
          :   max. optcycles                   500          :
          :   ANC micro-cycles                  20          :
          :   degrees of freedom                51          :
          :.................................................:
          :   RF solver                   davidson          :
          :   write xtbopt.log                true          :
          :   linear?                        false          :
          :   energy convergence         0.1000000E-05 Eh   :
          :   grad. convergence          0.8000000E-03 Eh/α :
          :   maxmium RF displ.          1.0000000          :
          :   Hlow (freq-cutoff)         0.1000000E-01      :
          :   Hmax (freq-cutoff)         5.0000000          :
          :   S6 in model hess.         20.0000000          :
          ...................................................

generating ANC from exact Hessian ...
Using Lindh-Hessian (1995)
 Shifting diagonal of input Hessian by    8.0707700399130534E-003
 Lowest  eigenvalues of input Hessian
    0.000000    0.000000    0.000000    0.000000    0.000000    0.000000
    0.010000    0.010220    0.011293    0.015199    0.016416    0.018306
    0.021132    0.028479    0.029008    0.030289    0.032420    0.041666
 Highest eigenvalues
    1.379141    1.515793    1.575571    1.799910    1.921527    1.939273


........................................................................
.............................. CYCLE    1 ..............................
........................................................................

 iter      E             dE          RMSdq      gap      omega  full diag
   1    -42.7749782 -0.427750E+02  0.175E-04    4.02       0.0  T
   2    -42.7749782 -0.950564E-10  0.127E-04    4.02     181.0  T
   3    -42.7749782 -0.584279E-10  0.105E-04    4.02     218.6  T
     SCC iter.                  ...        0 min,  0.038 sec
     gradient                   ...        0 min,  0.035 sec
 * total energy  :   -42.4412326 Eh     change       -0.2377632E-08 Eh
   gradient norm :     0.0516483 Eh/α   predicted     0.0000000E+00 (-100.00%)
   displ. norm   :     0.3532776 α      lambda       -0.1034782E-01
   maximum displ.:     0.1674026 α      in ANC's #10, #12, #7, ...

........................................................................
.............................. CYCLE    2 ..............................
........................................................................

 iter      E             dE          RMSdq      gap      omega  full diag
   1    -42.8028972 -0.428029E+02  0.250E-01    4.13       0.0  T
   2    -42.8029768 -0.795559E-04  0.167E-01    4.12       1.0  T
   3    -42.8029716  0.515997E-05  0.890E-02    4.12       1.0  T
   4    -42.8030348 -0.631575E-04  0.225E-02    4.11       1.0  T
   5    -42.8030364 -0.160765E-05  0.171E-02    4.12       1.3  T
   6    -42.8030375 -0.114559E-05  0.108E-02    4.12       2.1  T
   7    -42.8030382 -0.710035E-06  0.636E-03    4.12       3.6  T
   8    -42.8030386 -0.384410E-06  0.384E-03    4.11       6.0  T
   9    -42.8030387 -0.109746E-06  0.267E-03    4.11       8.6  T
  10    -42.8030388 -0.687211E-07  0.172E-03    4.12      13.3  T
  11    -42.8030388 -0.313569E-07  0.107E-03    4.11      21.5  T
  12    -42.8030388 -0.106893E-07  0.432E-04    4.11      53.1  T
  13    -42.8030388 -0.150136E-08  0.292E-04    4.11      78.7  T
     SCC iter.                  ...        0 min,  0.170 sec
     gradient                   ...        0 min,  0.038 sec
 * total energy  :   -42.4479486 Eh     change       -0.6715956E-02 Eh
   gradient norm :     0.0267088 Eh/α   predicted    -0.5820078E-02 ( -13.34%)
   displ. norm   :     0.2530976 α      lambda       -0.2535972E-02
   maximum displ.:     0.1352215 α      in ANC's #4, #2, #10, ...

........................................................................
.............................. CYCLE    3 ..............................
........................................................................

 iter      E             dE          RMSdq      gap      omega  full diag
   1    -42.8154580 -0.428155E+02  0.161E-01    4.17       0.0  T
   2    -42.8154933 -0.353802E-04  0.108E-01    4.16       1.0  T
   3    -42.8154885  0.483387E-05  0.559E-02    4.17       1.0  T
   4    -42.8155136 -0.250530E-04  0.156E-02    4.16       1.5  T
   5    -42.8155144 -0.876367E-06  0.116E-02    4.16       2.0  T
   6    -42.8155149 -0.504978E-06  0.771E-03    4.16       3.0  T
   7    -42.8155153 -0.334041E-06  0.436E-03    4.16       5.3  T
   8    -42.8155155 -0.195559E-06  0.266E-03    4.16       8.6  T
   9    -42.8155155 -0.638412E-07  0.168E-03    4.16      13.6  T
  10    -42.8155156 -0.253154E-07  0.115E-03    4.16      20.0  T
  11    -42.8155156 -0.171445E-07  0.430E-04    4.16      53.3  T
  12    -42.8155156 -0.865484E-09  0.272E-04    4.16      84.3  T
     SCC iter.                  ...        0 min,  0.177 sec
     gradient                   ...        0 min,  0.044 sec
 * total energy  :   -42.4493366 Eh     change       -0.1387977E-02 Eh
   gradient norm :     0.0095486 Eh/α   predicted    -0.1349213E-02 (  -2.79%)
   displ. norm   :     0.1179725 α      lambda       -0.2810145E-03
   maximum displ.:     0.0878127 α      in ANC's #2, #4, #1, ...

........................................................................
.............................. CYCLE    4 ..............................
........................................................................

 iter      E             dE          RMSdq      gap      omega  full diag
   1    -42.8146900 -0.428147E+02  0.650E-02    4.16       0.0  T
   2    -42.8146926 -0.256425E-05  0.387E-02    4.16       1.0  T
   3    -42.8146923  0.307181E-06  0.104E-02    4.16       2.2  T
   4    -42.8146932 -0.918356E-06  0.486E-03    4.16       4.7  T
   5    -42.8146933 -0.773541E-07  0.371E-03    4.16       6.2  T
   6    -42.8146934 -0.649403E-07  0.234E-03    4.16       9.8  T
   7    -42.8146934 -0.369017E-07  0.944E-04    4.16      24.3  T
   8    -42.8146934 -0.647505E-08  0.686E-04    4.16      33.4  T
     SCC iter.                  ...        0 min,  0.116 sec
     gradient                   ...        0 min,  0.030 sec
 * total energy  :   -42.4495280 Eh     change       -0.1914072E-03 Eh
   gradient norm :     0.0037510 Eh/α   predicted    -0.1426774E-03 ( -25.46%)
   displ. norm   :     0.1135159 α      lambda       -0.1296469E-03
   maximum displ.:     0.0958194 α      in ANC's #2, #1, #5, ...

........................................................................
.............................. CYCLE    5 ..............................
........................................................................

 iter      E             dE          RMSdq      gap      omega  full diag
   1    -42.8132596 -0.428133E+02  0.621E-02    4.15       0.0  T
   2    -42.8132604 -0.843174E-06  0.365E-02    4.15       1.0  T
   3    -42.8132599  0.566505E-06  0.751E-03    4.15       3.1  T
   4    -42.8132607 -0.816278E-06  0.285E-03    4.15       8.1  T
   5    -42.8132607 -0.427455E-07  0.220E-03    4.15      10.4  T
   6    -42.8132608 -0.277989E-07  0.150E-03    4.15      15.3  T
   7    -42.8132608 -0.193853E-07  0.875E-04    4.15      26.2  T
   8    -42.8132608 -0.729014E-08  0.583E-04    4.15      39.4  T
     SCC iter.                  ...        0 min,  0.145 sec
     gradient                   ...        0 min,  0.035 sec
 * total energy  :   -42.4496132 Eh     change       -0.8528724E-04 Eh
   gradient norm :     0.0017612 Eh/α   predicted    -0.6566362E-04 ( -23.01%)
   displ. norm   :     0.1146441 α      lambda       -0.4337753E-04
   maximum displ.:     0.0969078 α      in ANC's #2, #1, #4, ...

........................................................................
.............................. CYCLE    6 ..............................
........................................................................

 iter      E             dE          RMSdq      gap      omega  full diag
   1    -42.8127250 -0.428127E+02  0.615E-02    4.15       0.0  T
   2    -42.8127252 -0.180959E-06  0.361E-02    4.15       1.0  T
   3    -42.8127250  0.204327E-06  0.441E-03    4.15       5.2  T
   4    -42.8127253 -0.310125E-06  0.164E-03    4.15      14.0  T
   5    -42.8127253 -0.715078E-08  0.115E-03    4.15      19.9  T
   6    -42.8127253 -0.671671E-08  0.648E-04    4.15      35.4  T
   7    -42.8127253 -0.209448E-08  0.398E-04    4.15      57.7  T
     SCC iter.                  ...        0 min,  0.089 sec
     gradient                   ...        0 min,  0.039 sec
 * total energy  :   -42.4496589 Eh     change       -0.4567432E-04 Eh
   gradient norm :     0.0022654 Eh/α   predicted    -0.2181639E-04 ( -52.23%)
   displ. norm   :     0.0546507 α      lambda       -0.2680354E-04
   maximum displ.:     0.0439599 α      in ANC's #2, #1, #4, ...

........................................................................
.............................. CYCLE    7 ..............................
........................................................................

 iter      E             dE          RMSdq      gap      omega  full diag
   1    -42.8131244 -0.428131E+02  0.309E-02    4.15       0.0  T
   2    -42.8131244 -0.546170E-07  0.182E-02    4.15       1.3  T
   3    -42.8131244  0.469181E-07  0.213E-03    4.15      10.8  T
   4    -42.8131245 -0.739022E-07  0.837E-04    4.15      27.4  T
   5    -42.8131245 -0.250510E-08  0.642E-04    4.15      35.7  T
     SCC iter.                  ...        0 min,  0.083 sec
     gradient                   ...        0 min,  0.037 sec
 * total energy  :   -42.4496808 Eh     change       -0.2185758E-04 Eh
   gradient norm :     0.0016104 Eh/α   predicted    -0.1344207E-04 ( -38.50%)
   displ. norm   :     0.0966106 α      lambda       -0.2308825E-04
   maximum displ.:     0.0778082 α      in ANC's #2, #1, #3, ...

........................................................................
.............................. CYCLE    8 ..............................
........................................................................

 iter      E             dE          RMSdq      gap      omega  full diag
   1    -42.8138190 -0.428138E+02  0.542E-02    4.15       0.0  T
   2    -42.8138192 -0.186783E-06  0.319E-02    4.15       1.0  T
   3    -42.8138189  0.241158E-06  0.449E-03    4.15       5.1  T
   4    -42.8138193 -0.340028E-06  0.146E-03    4.15      15.7  T
   5    -42.8138193 -0.732683E-08  0.114E-03    4.15      20.1  T
   6    -42.8138193 -0.816572E-08  0.702E-04    4.15      32.7  T
   7    -42.8138193 -0.340073E-08  0.493E-04    4.15      46.6  T
     SCC iter.                  ...        0 min,  0.103 sec
     gradient                   ...        0 min,  0.041 sec
 * total energy  :   -42.4497012 Eh     change       -0.2038122E-04 Eh
   gradient norm :     0.0008631 Eh/α   predicted    -0.1159248E-04 ( -43.12%)
   displ. norm   :     0.0360863 α      lambda       -0.4715117E-05
   maximum displ.:     0.0320735 α      in ANC's #2, #3, #1, ...

........................................................................
.............................. CYCLE    9 ..............................
........................................................................

 iter      E             dE          RMSdq      gap      omega  full diag
   1    -42.8136565 -0.428137E+02  0.190E-02    4.15       0.0  T
   2    -42.8136565 -0.263982E-07  0.112E-02    4.15       2.0  T
   3    -42.8136565  0.185061E-07  0.146E-03    4.15      15.7  T
   4    -42.8136565 -0.346257E-07  0.767E-04    4.15      29.9  T
   5    -42.8136565 -0.253495E-08  0.600E-04    4.15      38.2  T
     SCC iter.                  ...        0 min,  0.076 sec
     gradient                   ...        0 min,  0.039 sec
 * total energy  :   -42.4497058 Eh     change       -0.4622673E-05 Eh
   gradient norm :     0.0004515 Eh/α   predicted    -0.2363668E-05 ( -48.87%)
   displ. norm   :     0.0193821 α      lambda       -0.1999023E-05
   maximum displ.:     0.0179870 α      in ANC's #2, #3, #10, ...

........................................................................
.............................. CYCLE   10 ..............................
........................................................................

 iter      E             dE          RMSdq      gap      omega  full diag
   1    -42.8136173 -0.428136E+02  0.108E-02    4.15       0.0  T
   2    -42.8136173 -0.137248E-07  0.637E-03    4.15       3.6  T
   3    -42.8136173  0.117285E-07  0.114E-03    4.15      20.1  T
   4    -42.8136173 -0.186631E-07  0.524E-04    4.15      43.8  T
   5    -42.8136173 -0.978034E-09  0.397E-04    4.15      57.8  T
     SCC iter.                  ...        0 min,  0.143 sec
     gradient                   ...        0 min,  0.077 sec
 * total energy  :   -42.4497075 Eh     change       -0.1713257E-05 Eh
   gradient norm :     0.0002697 Eh/α   predicted    -0.1000027E-05 ( -41.63%)
   displ. norm   :     0.0117796 α      lambda       -0.7699421E-06
   maximum displ.:     0.0103239 α      in ANC's #2, #1, #4, ...

........................................................................
.............................. CYCLE   11 ..............................
........................................................................

 iter      E             dE          RMSdq      gap      omega  full diag
   1    -42.8135796 -0.428136E+02  0.668E-03    4.15       0.0  T
   2    -42.8135796 -0.562109E-08  0.399E-03    4.15       5.7  T
   3    -42.8135796 -0.173625E-08  0.791E-04    4.15      29.0  T
   4    -42.8135797 -0.499591E-08  0.607E-04    4.15      37.8  T
     SCC iter.                  ...        0 min,  0.054 sec
     gradient                   ...        0 min,  0.034 sec
 * total energy  :   -42.4497083 Eh     change       -0.7966083E-06 Eh
   gradient norm :     0.0002066 Eh/α   predicted    -0.3887576E-06 ( -51.20%)
   displ. norm   :     0.0132963 α      lambda        0.1534273E-06
   maximum displ.:     0.0116556 α      in ANC's #2, #1, #4, ...

   *** GEOMETRY OPTIMIZATION CONVERGED AFTER 11 ITERATIONS ***

------------------------------------------------------------------------
 total energy gain   :        -0.0084757 Eh       -5.3186 kcal/mol
 total RMSD          :         0.2013300 a0        0.1065 Å
 total power (kW/mol):        -2.0229894 (step)  -10.8884 (real)
------------------------------------------------------------------------

 ANCopt (total)                0 d,  0 h,  0 min,  2.044 sec
 optimizer setup                ...        0 min,  0.001 sec (  0.032%)
 model hessian                  ...        0 min,  0.004 sec (  0.185%)
 ANC generation                 ...        0 min,  0.001 sec (  0.028%)
 coordinate transformation      ...        0 min,  0.000 sec (  0.005%)
 single point calculation       ...        0 min,  1.992 sec ( 97.462%)
 optimization log               ...        0 min,  0.001 sec (  0.048%)
 hessian update                 ...        0 min,  0.043 sec (  2.116%)
 rational function              ...        0 min,  0.001 sec (  0.041%)

================
 final structure:
================
19
 xtb: 6.7.1 (edcfbbe)
O           -1.78640560361155       -0.49469808660510       -1.62272574318098
C           -1.43903682176197        0.29035719535693       -0.52547097949322
C            0.04231174710602        0.15366494834673       -0.26169299094268
C            0.66473814644891       -1.07357272632051       -0.45262124315986
C            2.01518007410937       -1.23079628101392       -0.20107484528770
C            2.76523901353004       -0.15572591525565        0.24347651453071
C            2.16743216657510        1.07915396699069        0.41872616171331
C            0.81401415357553        1.23186842070196        0.16276145779581
Cl           0.11757184238570        2.80169687742558        0.36719650731600
C           -2.25071744293754       -0.14676345870254        0.72067465166524
Cl          -3.98718635984647        0.13897053720227        0.39403742928207
Cl          -2.03104787660355       -1.87023528341248        1.05740104763937
Cl          -1.78828401737424        0.78101033005832        2.15213126570933
H           -2.73733866243254       -0.42330884333183       -1.78026888318236
H           -1.68323250965080        1.35100259712484       -0.69816293815793
H            0.07427744019145       -1.89771558397470       -0.81792261154809
H            2.48000632664524       -2.19257816881527       -0.35235198635405
H            3.81891740568024       -0.27118787605635        0.44621356749387
H            2.74356097797293        1.92885735028200        0.74967361816117

 Bond Distances (Angstroems)
 ---------------------------
O1-C2=1.3932         O1-H14=0.9665        C2-O1=1.3932         C2-C3=1.5108         C2-C10=1.5501        C2-H15=1.1020        
C3-C2=1.5108         C3-C4=1.3892         C3-C8=1.3922         C4-C3=1.3892         C4-C5=1.3826         C4-H16=1.0776        
C5-C4=1.3826         C5-C6=1.3842         C5-H17=1.0789        C6-C5=1.3842         C6-C7=1.3831         C6-H18=1.0792        
C7-C6=1.3831         C7-C8=1.3859         C7-H19=1.0786        C8-C3=1.3922         C8-C7=1.3859         C8-Cl9=1.7295        
Cl9-C8=1.7295        C10-C2=1.5501        C10-Cl11=1.7899      C10-Cl12=1.7697      C10-Cl13=1.7674      Cl11-C10=1.7899      
Cl12-C10=1.7697      Cl13-C10=1.7674      H14-O1=0.9665        H15-C2=1.1020        H16-C4=1.0776        H17-C5=1.0789        
H18-C6=1.0792        H19-C7=1.0786        
 C  H  Rav=1.0833 sigma=0.0094  Rmin=1.0776  Rmax=1.1020     5
 C  C  Rav=1.4223 sigma=0.0633  Rmin=1.3826  Rmax=1.5501     8
 O  H  Rav=0.9665 sigma=0.0000  Rmin=0.9665  Rmax=0.9665     1
 O  C  Rav=1.3932 sigma=0.0000  Rmin=1.3932  Rmax=1.3932     1
 Cl C  Rav=1.7641 sigma=0.0218  Rmin=1.7295  Rmax=1.7899     4

 selected bond angles (degree)
 --------------------
H14-O1-C2=109.39               C3-C2-O1=109.33                C10-C2-O1=110.10               C10-C2-C3=110.34               
H15-C2-O1=111.33               H15-C2-C3=109.37               H15-C2-C10=106.34              C4-C3-C2=119.68                
C8-C3-C2=121.78                C8-C3-C4=118.54                C5-C4-C3=120.87                H16-C4-C3=118.47               
H16-C4-C5=120.66               C6-C5-C4=119.96                H17-C5-C4=119.78               H17-C5-C6=120.26               
C7-C6-C5=119.99                H18-C6-C5=120.42               H18-C6-C7=119.59               C8-C7-C6=119.81                
H19-C7-C6=120.75               H19-C7-C8=119.44               C7-C8-C3=120.82                Cl9-C8-C3=121.05               
Cl9-C8-C7=118.13               Cl11-C10-C2=108.44             Cl12-C10-C2=111.26             Cl12-C10-Cl11=108.10           
Cl13-C10-C2=111.47             Cl13-C10-Cl11=108.53           Cl13-C10-Cl12=108.94           

 selected dihedral angles (degree)
 ---------------------------------
C3-C2-O1-H14=178.75           C10-C2-O1-H14= 57.38          H15-C2-O1-H14=299.71          C4-C3-C2-O1=323.41            
C4-C3-C2-C10= 84.64           C4-C3-C2-H15=201.28           C8-C3-C2-O1=142.97            C8-C3-C2-C10=264.20           
C8-C3-C2-H15= 20.84           C5-C4-C3-C2=180.89            C5-C4-C3-C8=  1.32            H16-C4-C3-C2=  1.93           
H16-C4-C3-C8=182.35           C6-C5-C4-C3=359.82            C6-C5-C4-H16=178.76           H17-C5-C4-C3=179.81           
H17-C5-C4-H16=358.75          C7-C6-C5-C4=359.14            C7-C6-C5-H17=179.15           H18-C6-C5-C4=179.73           
H18-C6-C5-H17=359.74          C8-C7-C6-C5=  0.74            C8-C7-C6-H18=180.15           H19-C7-C6-C5=180.97           
H19-C7-C6-H18=  0.38          C7-C8-C3-C2=179.00            C7-C8-C3-C4=358.56            Cl9-C8-C3-C2=358.25           
Cl9-C8-C3-C4=177.82           C3-C8-C7-C6=  0.42            C3-C8-C7-H19=180.20           Cl9-C8-C7-C6=181.15           
Cl9-C8-C7-H19=  0.92          Cl11-C10-C2-O1=296.99         Cl11-C10-C2-C3=176.23         Cl11-C10-C2-H15= 57.72        
Cl12-C10-C2-O1= 55.75         Cl12-C10-C2-C3=294.98         Cl12-C10-C2-H15=176.47        Cl13-C10-C2-O1=177.58         
Cl13-C10-C2-C3= 56.81         Cl13-C10-C2-H15=298.30        
           -------------------------------------------------
          |                Final Singlepoint                |
           -------------------------------------------------

          ...................................................
          :                      SETUP                      :
          :.................................................:
          :  # basis functions                  82          :
          :  # atomic orbitals                  78          :
          :  # shells                           36          :
          :  # electrons                        72          :
          :  max. iterations                   250          :
          :  Hamiltonian                  GFN2-xTB          :
          :  restarted?                      false          :
          :  GBSA solvation                  false          :
          :  PC potential                    false          :
          :  electronic temp.          300.0000000     K    :
          :  accuracy                    1.0000000          :
          :  -> integral cutoff          0.2500000E+02      :
          :  -> integral neglect         0.1000000E-07      :
          :  -> SCF convergence          0.1000000E-05 Eh   :
          :  -> wf. convergence          0.1000000E-03 e    :
          :  Broyden damping             0.4000000          :
          :  net charge                          0          :
          :  unpaired electrons                  0          :
          ...................................................

 iter      E             dE          RMSdq      gap      omega  full diag
   1    -42.8135797 -0.428136E+02  0.429E-04    4.15       0.0  T
   2    -42.8135797 -0.615643E-09  0.378E-04    4.15      60.7  T
   3    -42.8135797 -0.540368E-09  0.319E-04    4.15      71.8  T

   *** convergence criteria satisfied after 3 iterations ***

         #    Occupation            Energy/Eh            Energy/eV
      -------------------------------------------------------------
         1        2.0000           -1.0912198             -29.6936
       ...           ...                  ...                  ...
        30        2.0000           -0.4518208             -12.2947
        31        2.0000           -0.4476776             -12.1819
        32        2.0000           -0.4461832             -12.1413
        33        2.0000           -0.4386751             -11.9370
        34        2.0000           -0.4302549             -11.7078
        35        2.0000           -0.4261565             -11.5963
        36        2.0000           -0.4107277             -11.1765 (HOMO)
        37                         -0.2583240              -7.0294 (LUMO)
        38                         -0.2496558              -6.7935
        39                         -0.2336753              -6.3586
        40                         -0.1883245              -5.1246
        41                         -0.1815502              -4.9402
       ...                                ...                  ...
        78                          0.6289664              17.1150
      -------------------------------------------------------------
                  HL-Gap            0.1524037 Eh            4.1471 eV
             Fermi-level           -0.3345259 Eh           -9.1029 eV

 SCC (total)                   0 d,  0 h,  0 min,  0.104 sec
 SCC setup                      ...        0 min,  0.004 sec (  3.613%)
 Dispersion                     ...        0 min,  0.009 sec (  8.768%)
 classical contributions        ...        0 min,  0.003 sec (  2.830%)
 integral evaluation            ...        0 min,  0.014 sec ( 13.601%)
 iterations                     ...        0 min,  0.039 sec ( 36.959%)
 molecular gradient             ...        0 min,  0.036 sec ( 34.031%)
 printout                       ...        0 min,  0.000 sec (  0.169%)

         :::::::::::::::::::::::::::::::::::::::::::::::::::::
         ::                     SUMMARY                     ::
         :::::::::::::::::::::::::::::::::::::::::::::::::::::
         :: total energy             -42.449708297325 Eh    ::
         :: gradient norm              0.000204559943 Eh/a0 ::
         :: HOMO-LUMO gap              4.147116935026 eV    ::
         ::.................................................::
         :: SCC energy               -42.813389480108 Eh    ::
         :: -> isotropic ES            0.037825117242 Eh    ::
         :: -> anisotropic ES         -0.001966360201 Eh    ::
         :: -> anisotropic XC          0.008625633452 Eh    ::
         :: -> dispersion             -0.025818363134 Eh    ::
         :: repulsion energy           0.363681182783 Eh    ::
         :: add. restraining           0.000000000000 Eh    ::
         :: total charge              -0.000000000000 e     ::
         :::::::::::::::::::::::::::::::::::::::::::::::::::::

           -------------------------------------------------
          |                Property Printout                |
           -------------------------------------------------

    * Orbital Energies and Occupations

         #    Occupation            Energy/Eh            Energy/eV
      -------------------------------------------------------------
         1        2.0000           -1.0912198             -29.6936
       ...           ...                  ...                  ...
        24        2.0000           -0.4687671             -12.7558
        25        2.0000           -0.4675684             -12.7232
        26        2.0000           -0.4646888             -12.6448
        27        2.0000           -0.4607014             -12.5363
        28        2.0000           -0.4595247             -12.5043
        29        2.0000           -0.4528602             -12.3230
        30        2.0000           -0.4518208             -12.2947
        31        2.0000           -0.4476776             -12.1819
        32        2.0000           -0.4461832             -12.1413
        33        2.0000           -0.4386751             -11.9370
        34        2.0000           -0.4302549             -11.7078
        35        2.0000           -0.4261565             -11.5963
        36        2.0000           -0.4107277             -11.1765 (HOMO)
        37                         -0.2583240              -7.0294 (LUMO)
        38                         -0.2496558              -6.7935
        39                         -0.2336753              -6.3586
        40                         -0.1883245              -5.1246
        41                         -0.1815502              -4.9402
        42                         -0.1513061              -4.1172
        43                         -0.1257645              -3.4222
        44                         -0.0426792              -1.1614
        45                         -0.0214976              -0.5850
        46                         -0.0199461              -0.5428
        47                         -0.0192894              -0.5249
       ...                                ...                  ...
        78                          0.6289664              17.1150
      -------------------------------------------------------------
                  HL-Gap            0.1524037 Eh            4.1471 eV
             Fermi-level           -0.3345259 Eh           -9.1029 eV

     #   Z          covCN         q      C6AA      α(0)
     1   8 O        1.657    -0.412    21.084     6.199
     2   6 C        3.808     0.119    18.631     6.144
     3   6 C        2.998    -0.004    28.111     8.697
     4   6 C        2.926    -0.022    28.558     8.764
     5   6 C        2.918    -0.029    28.724     8.789
     6   6 C        2.922    -0.024    28.607     8.771
     7   6 C        2.963    -0.036    28.899     8.818
     8   6 C        2.890     0.093    25.932     8.349
     9  17 Cl       0.970    -0.167   104.404    15.632
    10   6 C        3.640     0.211    17.605     6.034
    11  17 Cl       1.239    -0.131   103.270    15.547
    12  17 Cl       1.241    -0.106   102.499    15.489
    13  17 Cl       1.239    -0.114   102.735    15.507
    14   1 H        0.805     0.312     0.686     1.301
    15   1 H        0.923     0.060     2.202     2.321
    16   1 H        0.926     0.077     2.010     2.217
    17   1 H        0.926     0.055     2.262     2.352
    18   1 H        0.926     0.055     2.256     2.349
    19   1 H        0.926     0.065     2.146     2.291

 Mol. C6AA /au·bohr⁶  :       8772.748257
 Mol. C8AA /au·bohr⁸  :     278847.418566
 Mol. α(0) /au        :        145.569476


Wiberg/Mayer (AO) data.
largest (>0.10) Wiberg bond orders for each atom

 ---------------------------------------------------------------------------
     #   Z sym  total        # sym  WBO       # sym  WBO       # sym  WBO
 ---------------------------------------------------------------------------
     1   8 O    1.991 --     2 C    1.017    14 H    0.879
     2   6 C    3.955 --     1 O    1.017     3 C    0.981    15 H    0.942
                            10 C    0.937
     3   6 C    3.983 --     4 C    1.411     8 C    1.380     2 C    0.981
                             6 C    0.106
     4   6 C    3.986 --     5 C    1.442     3 C    1.411    16 H    0.962
                             7 C    0.109
     5   6 C    3.991 --     4 C    1.442     6 C    1.435    17 H    0.969
                             8 C    0.101
     6   6 C    3.989 --     7 C    1.440     5 C    1.435    18 H    0.968
                             3 C    0.106
     7   6 C    3.987 --     6 C    1.440     8 C    1.407    19 H    0.966
                             4 C    0.109
     8   6 C    3.920 --     7 C    1.407     3 C    1.380     9 Cl   0.976
                             5 C    0.101
     9  17 Cl   1.124 --     8 C    0.976
    10   6 C    3.899 --    13 Cl   0.976    12 Cl   0.975    11 Cl   0.949
                             2 C    0.937
    11  17 Cl   1.078 --    10 C    0.949
    12  17 Cl   1.099 --    10 C    0.975
    13  17 Cl   1.093 --    10 C    0.976
    14   1 H    0.902 --     1 O    0.879
    15   1 H    0.996 --     2 C    0.942
    16   1 H    0.994 --     4 C    0.962
    17   1 H    0.996 --     5 C    0.969
    18   1 H    0.996 --     6 C    0.968
    19   1 H    0.995 --     7 C    0.966
 ---------------------------------------------------------------------------

Topologies differ in total number of bonds
Writing topology from bond orders to xtbtopo.mol

molecular dipole:
                 x           y           z       tot (Debye)
 q only:        0.840      -0.452      -0.583
   full:        0.491      -0.183      -0.191       1.418
molecular quadrupole (traceless):
                xx          xy          yy          xz          yz          zz
 q only:        5.422      -1.412      -3.636       6.250      -0.636      -1.786
  q+dip:        8.033      -1.477      -2.621       5.144      -0.483      -5.413
   full:        6.861      -1.867      -3.153       4.948      -0.696      -3.708

           -------------------------------------------------
          |                Geometry Summary                 |
           -------------------------------------------------

      molecular mass/u    :      259.9446869
   center of mass at/Å    :       -0.9195897       0.2230750       0.4370117
  moments of inertia/u·Å² :        0.6774508E+03   0.1241613E+04   0.1509426E+04
rotational constants/cm⁻¹ :        0.2488392E-01   0.1357720E-01   0.1116824E-01

 * 17 selected distances

     #   Z          #   Z                                           value/Å
     1   8 O        2   6 C                                       1.3931781
     3   6 C        4   6 C                                       1.3892375
     4   6 C        5   6 C                                       1.3826383
     5   6 C        6   6 C                                       1.3841933
     6   6 C        7   6 C                                       1.3831175
     3   6 C        8   6 C                                       1.3921958
     7   6 C        8   6 C                                       1.3858500
     8   6 C        9  17 Cl                                      1.7295050
    10   6 C       11  17 Cl                                      1.7898773 (max)
    10   6 C       12  17 Cl                                      1.7697444
    10   6 C       13  17 Cl                                      1.7673929
     1   8 O       14   1 H                                       0.9665351 (min)
     2   6 C       15   1 H                                       1.1020086
     4   6 C       16   1 H                                       1.0776366
     5   6 C       17   1 H                                       1.0788757
     6   6 C       18   1 H                                       1.0791998
     7   6 C       19   1 H                                       1.0786319

 * 5 distinct bonds (by element types)

   Z      Z             #   av. dist./Å        max./Å        min./Å
   1 H    6 C           5     1.0832705     1.1020086     1.0776366
   6 C    6 C           6     1.3862054     1.3921958     1.3826383
   1 H    8 O           1     0.9665351     0.9665351     0.9665351
   6 C    8 O           1     1.3931781     1.3931781     1.3931781
   6 C   17 Cl          4     1.7641299     1.7898773     1.7295050


optimized geometry written to: xtbopt.xyz


           -------------------------------------------------
          | TOTAL ENERGY              -42.449708297325 Eh   |
          | GRADIENT NORM               0.000204559943 Eh/α |
          | HOMO-LUMO GAP               4.147116935026 eV   |
           -------------------------------------------------

------------------------------------------------------------------------
 * finished run on 2026/07/06 at 20:27:22.197     
------------------------------------------------------------------------
 total:
 * wall-time:     0 d,  0 h,  0 min,  2.527 sec
 *  cpu-time:     0 d,  0 h,  0 min, 40.149 sec
 * ratio c/w:    15.890 speedup
 SCF:
 * wall-time:     0 d,  0 h,  0 min,  0.320 sec
 *  cpu-time:     0 d,  0 h,  0 min,  5.115 sec
 * ratio c/w:    15.977 speedup
 ANC optimizer:
 * wall-time:     0 d,  0 h,  0 min,  2.153 sec
 *  cpu-time:     0 d,  0 h,  0 min, 34.278 sec
 * ratio c/w:    15.921 speedup

