      -----------------------------------------------------------      
     |                   =====================                   |     
     |                           x T B                           |     
     |                   =====================                   |     
     |                         S. Grimme                         |     
     |          Mulliken Center for Theoretical Chemistry        |     
     |                    University of Bonn                     |     
      -----------------------------------------------------------      

   * xtb version 6.7.1 (edcfbbe) compiled by 'conda@5dfe00f5fb80' on 2026-06-10

   xtb is free software: you can redistribute it and/or modify it under
   the terms of the GNU Lesser General Public License as published by
   the Free Software Foundation, either version 3 of the License, or
   (at your option) any later version.
   
   xtb is distributed in the hope that it will be useful,
   but WITHOUT ANY WARRANTY; without even the implied warranty of
   MERCHANTABILITY or FITNESS FOR A PARTICULAR PURPOSE.  See the
   GNU Lesser General Public License for more details.
   
   Cite this work as:
   * C. Bannwarth, E. Caldeweyher, S. Ehlert, A. Hansen, P. Pracht,
     J. Seibert, S. Spicher, S. Grimme, WIREs Comput. Mol. Sci., 2020, 11,
     e01493. DOI: 10.1002/wcms.1493
   
   for GFN2-xTB:
   * C. Bannwarth, S. Ehlert and S. Grimme., J. Chem. Theory Comput., 2019,
     15, 1652-1671. DOI: 10.1021/acs.jctc.8b01176
   for GFN1-xTB:
   * S. Grimme, C. Bannwarth, P. Shushkov, J. Chem. Theory Comput., 2017,
     13, 1989-2009. DOI: 10.1021/acs.jctc.7b00118
   for GFN0-xTB:
   * P. Pracht, E. Caldeweyher, S. Ehlert, S. Grimme, ChemRxiv, 2019, preprint.
     DOI: 10.26434/chemrxiv.8326202.v1
   for GFN-FF:
   * S. Spicher and S. Grimme, Angew. Chem. Int. Ed., 2020, 59, 15665-15673.
     DOI: 10.1002/anie.202004239
   
   for ALPB and GBSA implicit solvation:
   * S. Ehlert, M. Stahn, S. Spicher, S. Grimme, J. Chem. Theory Comput.,
     2021, 17, 4250-4261. DOI: 10.1021/acs.jctc.1c00471
   
   for ddCOSMO and CPCM-X implicit solvation:
   * M. Stahn, S. Ehlert, S. Grimme, J. Phys. Chem. A,
     2023, XX, XXXX-XXXX. DOI: 10.1021/acs.jpca.3c04382
   
   for DFT-D4:
   * E. Caldeweyher, C. Bannwarth and S. Grimme, J. Chem. Phys., 2017,
     147, 034112. DOI: 10.1063/1.4993215
   * E. Caldeweyher, S. Ehlert, A. Hansen, H. Neugebauer, S. Spicher,
     C. Bannwarth and S. Grimme, J. Chem. Phys., 2019, 150, 154122.
     DOI: 10.1063/1.5090222
   * E. Caldeweyher, J.-M. Mewes, S. Ehlert and S. Grimme, Phys. Chem. Chem. Phys.
     2020, 22, 8499-8512. DOI: 10.1039/D0CP00502A
   
   for sTDA-xTB:
   * S. Grimme and C. Bannwarth, J. Chem. Phys., 2016, 145, 054103.
     DOI: 10.1063/1.4959605
   
   in the mass-spec context:
   * V. Asgeirsson, C. Bauer and S. Grimme, Chem. Sci., 2017, 8, 4879.
     DOI: 10.1039/c7sc00601b
   * J. Koopman and S. Grimme, ACS Omega 2019, 4, 12, 15120-15133.
     DOI: 10.1021/acsomega.9b02011
   
   for metadynamics refer to:
   * S. Grimme, J. Chem. Theory Comput., 2019, 155, 2847-2862
     DOI: 10.1021/acs.jctc.9b00143
   
   for SPH calculations refer to:
   * S. Spicher and S. Grimme, J. Chem. Theory Comput., 2021, 17, 1701-1714
     DOI: 10.1021/acs.jctc.0c01306
   
   for ONIOM refer to:
   * C. Plett, A. Katbashev, S. Ehlert, S. Grimme, M. Bursch,
     Phys. Chem. Chem. Phys., 2023, 25, 17860-17868. DOI: 10.1039/D3CP02178E
   
   for DIPRO refer to:
   * J. Kohn, N. Gildemeister, S. Grimme, D. Fazzi, A. Hansen,
     J. Chem. Phys., 2023, just accepted.
   
   for PTB refer to:
   * S. Grimme, M. Mueller, A. Hansen, J. Chem. Phys., 2023, 158, 124111.
     DOI: 10.1063/5.0137838
   
   with help from (in alphabetical order)
   P. Atkinson, C. Bannwarth, F. Bohle, G. Brandenburg, E. Caldeweyher
   M. Checinski, S. Dohm, S. Ehlert, S. Ehrlich, I. Gerasimov, C. Hölzer
   A. Katbashev, J. Kohn, J. Koopman, C. Lavigne, S. Lehtola, F. März, M. Müller,
   F. Musil, H. Neugebauer, J. Pisarek, C. Plett, P. Pracht, F. Pultar,
   J. Seibert, P. Shushkov, S. Spicher, M. Stahn, M. Steiner, T. Strunk,
   J. Stückrath, T. Rose, and J. Unsleber
   
 * started run on 2026/07/09 at 09:00:12.162     
   ID    Z sym.   atoms
    1    6 C      1-7, 9-11
    2    7 N      8
    3    1 H      12-28

           -------------------------------------------------
          |                Calculation Setup                |
           -------------------------------------------------

          program call               : /home/ws/xd2484/miniforge3/envs/p3z_dft/bin/xtb xtb_input.xyz --gfn 2 --opt tight --cycles 500 --chrg 0 --uhf 0
          hostname                   : gpu10
          coordinate file            : xtb_input.xyz
          omp threads                :                    16


           -------------------------------------------------
          |                 G F N 2 - x T B                 |
           -------------------------------------------------

        Reference                      10.1021/acs.jctc.8b01176
      * Hamiltonian:
        H0-scaling (s, p, d)           1.850000    2.230000    2.230000
        zeta-weighting                 0.500000
      * Dispersion:
        s8                             2.700000
        a1                             0.520000
        a2                             5.000000
        s9                             5.000000
      * Repulsion:
        kExp                           1.500000    1.000000
        rExp                           1.000000
      * Coulomb:
        alpha                          2.000000
        third order                    shell-resolved
        anisotropic                    true
        a3                             3.000000
        a5                             4.000000
        cn-shift                       1.200000
        cn-exp                         4.000000
        max-rad                        5.000000


          ...................................................
          :                      SETUP                      :
          :.................................................:
          :  # basis functions                  61          :
          :  # atomic orbitals                  61          :
          :  # shells                           39          :
          :  # electrons                        62          :
          :  max. iterations                   250          :
          :  Hamiltonian                  GFN2-xTB          :
          :  restarted?                      false          :
          :  GBSA solvation                  false          :
          :  PC potential                    false          :
          :  electronic temp.          300.0000000     K    :
          :  accuracy                    1.0000000          :
          :  -> integral cutoff          0.2500000E+02      :
          :  -> integral neglect         0.1000000E-07      :
          :  -> SCF convergence          0.1000000E-05 Eh   :
          :  -> wf. convergence          0.1000000E-03 e    :
          :  Broyden damping             0.4000000          :
          :  net charge                          0          :
          :  unpaired electrons                  0          :
          ...................................................

 iter      E             dE          RMSdq      gap      omega  full diag
   1    -33.4325896 -0.334326E+02  0.368E+00    3.95       0.0  T
   2    -33.4678184 -0.352288E-01  0.227E+00    3.89       1.0  T
   3    -33.4447670  0.230514E-01  0.158E+00    3.85       1.0  T
   4    -33.4891018 -0.443348E-01  0.458E-01    3.69       1.0  T
   5    -33.4915253 -0.242350E-02  0.106E-01    3.71       1.0  T
   6    -33.4915835 -0.582006E-04  0.411E-02    3.73       1.0  T
   7    -33.4915877 -0.421039E-05  0.215E-02    3.73       1.0  T
   8    -33.4915911 -0.346854E-05  0.112E-02    3.73       1.7  T
   9    -33.4915932 -0.204649E-05  0.127E-03    3.73      14.9  T
  10    -33.4915932 -0.741571E-08  0.682E-04    3.73      27.7  T
  11    -33.4915932 -0.124705E-08  0.171E-04    3.73     110.5  T

   *** convergence criteria satisfied after 11 iterations ***

         #    Occupation            Energy/Eh            Energy/eV
      -------------------------------------------------------------
         1        2.0000           -0.6485739             -17.6486
       ...           ...                  ...                  ...
        25        2.0000           -0.4501616             -12.2495
        26        2.0000           -0.4471216             -12.1668
        27        2.0000           -0.4427831             -12.0487
        28        2.0000           -0.4347566             -11.8303
        29        2.0000           -0.4318225             -11.7505
        30        2.0000           -0.4096350             -11.1467
        31        2.0000           -0.3945548             -10.7364 (HOMO)
        32                         -0.2575906              -7.0094 (LUMO)
        33                         -0.2013459              -5.4789
        34                         -0.1378350              -3.7507
        35                          0.0428609               1.1663
        36                          0.0567429               1.5441
       ...                                ...                  ...
        61                          1.0916006              29.7040
      -------------------------------------------------------------
                  HL-Gap            0.1369641 Eh            3.7270 eV
             Fermi-level           -0.3260727 Eh           -8.8729 eV

 SCC (total)                   0 d,  0 h,  0 min,  0.289 sec
 SCC setup                      ...        0 min,  0.006 sec (  1.965%)
 Dispersion                     ...        0 min,  0.012 sec (  4.130%)
 classical contributions        ...        0 min,  0.006 sec (  2.032%)
 integral evaluation            ...        0 min,  0.019 sec (  6.558%)
 iterations                     ...        0 min,  0.204 sec ( 70.508%)
 molecular gradient             ...        0 min,  0.043 sec ( 14.729%)
 printout                       ...        0 min,  0.000 sec (  0.066%)

         :::::::::::::::::::::::::::::::::::::::::::::::::::::
         ::                     SUMMARY                     ::
         :::::::::::::::::::::::::::::::::::::::::::::::::::::
         :: total energy             -32.959428285750 Eh    ::
         :: gradient norm              0.042182654268 Eh/a0 ::
         :: HOMO-LUMO gap              3.726983601228 eV    ::
         ::.................................................::
         :: SCC energy               -33.491415382781 Eh    ::
         :: -> isotropic ES            0.013100887335 Eh    ::
         :: -> anisotropic ES          0.008456312574 Eh    ::
         :: -> anisotropic XC          0.033404410764 Eh    ::
         :: -> dispersion             -0.020710631511 Eh    ::
         :: repulsion energy           0.531987097030 Eh    ::
         :: add. restraining           0.000000000000 Eh    ::
         :: total charge              -0.000000000000 e     ::
         :::::::::::::::::::::::::::::::::::::::::::::::::::::

      ----------------------------------------------------------- 
     |                   =====================                   |
     |                        A N C O P T                        |
     |                   =====================                   |
     |               Approximate Normal Coordinate               |
     |                Rational Function Optimizer                |
      ----------------------------------------------------------- 
      ----------------------------------------------------------- 
     |                   =====================                   |
     |                        A N C O P T                        |
     |                   =====================                   |
     |               Approximate Normal Coordinate               |
     |                Rational Function Optimizer                |
      ----------------------------------------------------------- 

          ...................................................
          :                      SETUP                      :
          :.................................................:
          :   optimization level             tight          :
          :   max. optcycles                   500          :
          :   ANC micro-cycles                  20          :
          :   degrees of freedom                78          :
          :.................................................:
          :   RF solver                   davidson          :
          :   write xtbopt.log                true          :
          :   linear?                        false          :
          :   energy convergence         0.1000000E-05 Eh   :
          :   grad. convergence          0.8000000E-03 Eh/α :
          :   maxmium RF displ.          1.0000000          :
          :   Hlow (freq-cutoff)         0.1000000E-01      :
          :   Hmax (freq-cutoff)         5.0000000          :
          :   S6 in model hess.         20.0000000          :
          ...................................................

generating ANC from exact Hessian ...
Using Lindh-Hessian (1995)
 Shifting diagonal of input Hessian by    9.8339260995135933E-003
 Lowest  eigenvalues of input Hessian
    0.000000    0.000000    0.000000    0.000000    0.000000    0.000000
    0.010000    0.010522    0.011310    0.011747    0.012394    0.012751
    0.014494    0.017710    0.018269    0.018540    0.019466    0.020330
 Highest eigenvalues
    1.208417    1.241007    1.258837    1.407841    1.785906    2.516151


........................................................................
.............................. CYCLE    1 ..............................
........................................................................

 iter      E             dE          RMSdq      gap      omega  full diag
   1    -33.4915932 -0.334916E+02  0.572E-05    3.73       0.0  T
   2    -33.4915932 -0.289191E-11  0.484E-05    3.73     390.5  T
   3    -33.4915932 -0.430020E-10  0.225E-05    3.73     838.8  T
     SCC iter.                  ...        0 min,  0.030 sec
     gradient                   ...        0 min,  0.037 sec
 * total energy  :   -32.9594283 Eh     change       -0.2370726E-09 Eh
   gradient norm :     0.0421837 Eh/α   predicted     0.0000000E+00 (-100.00%)
   displ. norm   :     0.2246737 α      lambda       -0.5057026E-02
   maximum displ.:     0.0773367 α      in ANC's #15, #35, #14, ...

........................................................................
.............................. CYCLE    2 ..............................
........................................................................

 iter      E             dE          RMSdq      gap      omega  full diag
   1    -33.5215525 -0.335216E+02  0.173E-01    3.82       0.0  T
   2    -33.5215587 -0.618241E-05  0.113E-01    3.82       1.0  T
   3    -33.5215123  0.464422E-04  0.776E-02    3.82       1.0  T
   4    -33.5216113 -0.990022E-04  0.534E-03    3.82       3.5  T
   5    -33.5216114 -0.181188E-06  0.318E-03    3.82       5.9  T
   6    -33.5216115 -0.692562E-07  0.189E-03    3.82      10.0  T
   7    -33.5216116 -0.461117E-07  0.308E-04    3.82      61.4  T
   8    -33.5216116 -0.789910E-09  0.103E-04    3.82     183.1  T
     SCC iter.                  ...        0 min,  0.105 sec
     gradient                   ...        0 min,  0.040 sec
 * total energy  :   -32.9624210 Eh     change       -0.2992762E-02 Eh
   gradient norm :     0.0158264 Eh/α   predicted    -0.2656534E-02 ( -11.23%)
   displ. norm   :     0.1672254 α      lambda       -0.7844791E-03
   maximum displ.:     0.0782168 α      in ANC's #15, #16, #6, ...

........................................................................
.............................. CYCLE    3 ..............................
........................................................................

 iter      E             dE          RMSdq      gap      omega  full diag
   1    -33.5270190 -0.335270E+02  0.143E-01    3.81       0.0  T
   2    -33.5270274 -0.841766E-05  0.845E-02    3.81       1.0  T
   3    -33.5269782  0.491870E-04  0.505E-02    3.82       1.0  T
   4    -33.5270382 -0.599523E-04  0.459E-03    3.82       4.1  T
   5    -33.5270383 -0.138463E-06  0.230E-03    3.82       8.2  T
   6    -33.5270383 -0.785612E-08  0.125E-03    3.82      15.2  T
   7    -33.5270384 -0.342782E-07  0.283E-04    3.82      66.9  T
   8    -33.5270384 -0.532360E-09  0.805E-05    3.82     234.7  T
     SCC iter.                  ...        0 min,  0.103 sec
     gradient                   ...        0 min,  0.023 sec
 * total energy  :   -32.9627194 Eh     change       -0.2983658E-03 Eh
   gradient norm :     0.0070277 Eh/α   predicted    -0.4032121E-03 (  35.14%)
   displ. norm   :     0.1867987 α      lambda       -0.6738786E-03
   maximum displ.:     0.0863205 α      in ANC's #15, #8, #10, ...

........................................................................
.............................. CYCLE    4 ..............................
........................................................................

 iter      E             dE          RMSdq      gap      omega  full diag
   1    -33.5299815 -0.335300E+02  0.176E-01    3.78       0.0  T
   2    -33.5299911 -0.961217E-05  0.100E-01    3.79       1.0  T
   3    -33.5299553  0.357245E-04  0.419E-02    3.79       1.0  T
   4    -33.5299987 -0.433243E-04  0.470E-03    3.79       4.0  T
   5    -33.5299988 -0.836036E-07  0.229E-03    3.79       8.2  T
   6    -33.5299988 -0.244479E-07  0.106E-03    3.79      17.8  T
   7    -33.5299988 -0.270511E-07  0.283E-04    3.79      66.7  T
   8    -33.5299988 -0.525048E-09  0.671E-05    3.79     281.5  T
     SCC iter.                  ...        0 min,  0.130 sec
     gradient                   ...        0 min,  0.044 sec
 * total energy  :   -32.9626573 Eh     change        0.6214487E-04 Eh
   gradient norm :     0.0129546 Eh/α   predicted    -0.3487058E-03 (-661.12%)
   displ. norm   :     0.0889408 α      lambda       -0.5331366E-03
   maximum displ.:     0.0423715 α      in ANC's #15, #10, #14, ...

........................................................................
.............................. CYCLE    5 ..............................
........................................................................

 iter      E             dE          RMSdq      gap      omega  full diag
   1    -33.5278227 -0.335278E+02  0.100E-01    3.81       0.0  T
   2    -33.5278270 -0.427672E-05  0.581E-02    3.80       1.0  T
   3    -33.5278056  0.213816E-04  0.330E-02    3.80       1.0  T
   4    -33.5278316 -0.260437E-04  0.316E-03    3.80       6.0  T
   5    -33.5278317 -0.742342E-07  0.154E-03    3.80      12.3  T
   6    -33.5278317 -0.661817E-08  0.677E-04    3.80      27.9  T
   7    -33.5278317 -0.103233E-07  0.196E-04    3.80      96.4  T
     SCC iter.                  ...        0 min,  0.104 sec
     gradient                   ...        0 min,  0.044 sec
 * total energy  :   -32.9629407 Eh     change       -0.2834144E-03 Eh
   gradient norm :     0.0019794 Eh/α   predicted    -0.2686774E-03 (  -5.20%)
   displ. norm   :     0.0741924 α      lambda       -0.3394080E-04
   maximum displ.:     0.0524529 α      in ANC's #6, #3, #2, ...

........................................................................
.............................. CYCLE    6 ..............................
........................................................................

 iter      E             dE          RMSdq      gap      omega  full diag
   1    -33.5265037 -0.335265E+02  0.357E-02    3.80       0.0  T
   2    -33.5265041 -0.335760E-06  0.204E-02    3.80       1.0  T
   3    -33.5265022  0.189148E-05  0.979E-03    3.80       1.9  T
   4    -33.5265044 -0.224109E-05  0.859E-04    3.80      22.0  T
   5    -33.5265044 -0.192180E-08  0.397E-04    3.80      47.6  T
   6    -33.5265044  0.617035E-10  0.155E-04    3.80     122.2  T
     SCC iter.                  ...        0 min,  0.088 sec
     gradient                   ...        0 min,  0.041 sec
 * total energy  :   -32.9629795 Eh     change       -0.3883188E-04 Eh
   gradient norm :     0.0015558 Eh/α   predicted    -0.1701257E-04 ( -56.19%)
   displ. norm   :     0.1657591 α      lambda       -0.5000284E-04
   maximum displ.:     0.1108530 α      in ANC's #6, #1, #3, ...

........................................................................
.............................. CYCLE    7 ..............................
........................................................................

 iter      E             dE          RMSdq      gap      omega  full diag
   1    -33.5261906 -0.335262E+02  0.664E-02    3.80       0.0  T
   2    -33.5261915 -0.966548E-06  0.378E-02    3.80       1.0  T
   3    -33.5261876  0.396028E-05  0.135E-02    3.80       1.4  T
   4    -33.5261923 -0.470702E-05  0.161E-03    3.80      11.7  T
   5    -33.5261923 -0.648036E-08  0.758E-04    3.80      24.9  T
   6    -33.5261923  0.648775E-09  0.387E-04    3.80      48.8  T
     SCC iter.                  ...        0 min,  0.083 sec
     gradient                   ...        0 min,  0.041 sec
 * total energy  :   -32.9630334 Eh     change       -0.5389180E-04 Eh
   gradient norm :     0.0014510 Eh/α   predicted    -0.2530781E-04 ( -53.04%)
   displ. norm   :     0.1682366 α      lambda       -0.3379160E-04
   maximum displ.:     0.1045235 α      in ANC's #6, #1, #4, ...

........................................................................
.............................. CYCLE    8 ..............................
........................................................................

 iter      E             dE          RMSdq      gap      omega  full diag
   1    -33.5261212 -0.335261E+02  0.608E-02    3.80       0.0  T
   2    -33.5261220 -0.776742E-06  0.345E-02    3.81       1.0  T
   3    -33.5261210  0.105643E-05  0.779E-03    3.81       2.4  T
   4    -33.5261224 -0.146074E-05  0.146E-03    3.81      12.9  T
   5    -33.5261224 -0.371384E-08  0.538E-04    3.81      35.1  T
   6    -33.5261224 -0.579163E-09  0.194E-04    3.81      97.5  T
     SCC iter.                  ...        0 min,  0.076 sec
     gradient                   ...        0 min,  0.042 sec
 * total energy  :   -32.9630701 Eh     change       -0.3672802E-04 Eh
   gradient norm :     0.0019702 Eh/α   predicted    -0.1712256E-04 ( -53.38%)
   displ. norm   :     0.1880028 α      lambda       -0.2827737E-04
   maximum displ.:     0.1069583 α      in ANC's #1, #6, #4, ...

........................................................................
.............................. CYCLE    9 ..............................
........................................................................

 iter      E             dE          RMSdq      gap      omega  full diag
   1    -33.5267309 -0.335267E+02  0.560E-02    3.81       0.0  T
   2    -33.5267315 -0.665248E-06  0.319E-02    3.81       1.0  T
   3    -33.5267311  0.407440E-06  0.528E-03    3.81       3.6  T
   4    -33.5267318 -0.702724E-06  0.151E-03    3.81      12.5  T
   5    -33.5267318 -0.968464E-08  0.521E-04    3.81      36.3  T
   6    -33.5267318 -0.115801E-08  0.193E-04    3.81      98.1  T
     SCC iter.                  ...        0 min,  0.085 sec
     gradient                   ...        0 min,  0.037 sec
 * total energy  :   -32.9630977 Eh     change       -0.2760152E-04 Eh
   gradient norm :     0.0015111 Eh/α   predicted    -0.1436189E-04 ( -47.97%)
   displ. norm   :     0.1209599 α      lambda       -0.1612628E-04
   maximum displ.:     0.0740198 α      in ANC's #1, #4, #6, ...

........................................................................
.............................. CYCLE   10 ..............................
........................................................................

 iter      E             dE          RMSdq      gap      omega  full diag
   1    -33.5272250 -0.335272E+02  0.322E-02    3.81       0.0  T
   2    -33.5272253 -0.278185E-06  0.184E-02    3.81       1.0  T
   3    -33.5272245  0.793994E-06  0.618E-03    3.81       3.1  T
   4    -33.5272255 -0.980771E-06  0.993E-04    3.81      19.0  T
   5    -33.5272255 -0.240041E-08  0.300E-04    3.81      63.1  T
     SCC iter.                  ...        0 min,  0.112 sec
     gradient                   ...        0 min,  0.042 sec
 * total energy  :   -32.9631146 Eh     change       -0.1684871E-04 Eh
   gradient norm :     0.0009797 Eh/α   predicted    -0.8118112E-05 ( -51.82%)
   displ. norm   :     0.1199833 α      lambda       -0.1453589E-04
   maximum displ.:     0.0694122 α      in ANC's #1, #4, #9, ...

........................................................................
.............................. CYCLE   11 ..............................
........................................................................

 iter      E             dE          RMSdq      gap      omega  full diag
   1    -33.5275127 -0.335275E+02  0.399E-02    3.81       0.0  T
   2    -33.5275132 -0.459301E-06  0.226E-02    3.81       1.0  T
   3    -33.5275123  0.879015E-06  0.688E-03    3.81       2.7  T
   4    -33.5275135 -0.115115E-05  0.114E-03    3.81      16.5  T
   5    -33.5275135 -0.210703E-08  0.323E-04    3.81      58.6  T
   6    -33.5275135 -0.619792E-09  0.155E-04    3.81     121.6  T
     SCC iter.                  ...        0 min,  0.075 sec
     gradient                   ...        0 min,  0.035 sec
 * total energy  :   -32.9631293 Eh     change       -0.1468487E-04 Eh
   gradient norm :     0.0010733 Eh/α   predicted    -0.7317556E-05 ( -50.17%)
   displ. norm   :     0.0841708 α      lambda       -0.9466201E-05
   maximum displ.:     0.0490775 α      in ANC's #4, #1, #9, ...

........................................................................
.............................. CYCLE   12 ..............................
........................................................................

 iter      E             dE          RMSdq      gap      omega  full diag
   1    -33.5274315 -0.335274E+02  0.355E-02    3.81       0.0  T
   2    -33.5274318 -0.337447E-06  0.200E-02    3.81       1.0  T
   3    -33.5274308  0.105362E-05  0.715E-03    3.81       2.6  T
   4    -33.5274321 -0.129575E-05  0.887E-04    3.81      21.3  T
   5    -33.5274321 -0.595897E-09  0.384E-04    3.81      49.2  T
   6    -33.5274321 -0.120153E-09  0.196E-04    3.81      96.6  T
     SCC iter.                  ...        0 min,  0.069 sec
     gradient                   ...        0 min,  0.021 sec
 * total energy  :   -32.9631385 Eh     change       -0.9194264E-05 Eh
   gradient norm :     0.0007145 Eh/α   predicted    -0.4749747E-05 ( -48.34%)
   displ. norm   :     0.0458674 α      lambda       -0.4532275E-05
   maximum displ.:     0.0254886 α      in ANC's #4, #3, #8, ...

........................................................................
.............................. CYCLE   13 ..............................
........................................................................

 iter      E             dE          RMSdq      gap      omega  full diag
   1    -33.5272790 -0.335273E+02  0.224E-02    3.81       0.0  T
   2    -33.5272791 -0.118548E-06  0.126E-02    3.81       1.5  T
   3    -33.5272790  0.972938E-07  0.255E-03    3.81       7.4  T
   4    -33.5272792 -0.155119E-06  0.540E-04    3.81      35.0  T
   5    -33.5272792 -0.321627E-09  0.166E-04    3.81     113.6  T
     SCC iter.                  ...        0 min,  0.059 sec
     gradient                   ...        0 min,  0.033 sec
 * total energy  :   -32.9631426 Eh     change       -0.4184067E-05 Eh
   gradient norm :     0.0004559 Eh/α   predicted    -0.2269213E-05 ( -45.77%)
   displ. norm   :     0.0302252 α      lambda       -0.2147223E-05
   maximum displ.:     0.0140670 α      in ANC's #4, #8, #1, ...

........................................................................
.............................. CYCLE   14 ..............................
........................................................................

 iter      E             dE          RMSdq      gap      omega  full diag
   1    -33.5270807 -0.335271E+02  0.109E-02    3.81       0.0  T
   2    -33.5270807 -0.362520E-07  0.617E-03    3.81       3.1  T
   3    -33.5270807 -0.114135E-08  0.753E-04    3.81      25.1  T
   4    -33.5270807 -0.962511E-08  0.394E-04    3.81      48.0  T
     SCC iter.                  ...        0 min,  0.050 sec
     gradient                   ...        0 min,  0.032 sec
 * total energy  :   -32.9631446 Eh     change       -0.1976707E-05 Eh
   gradient norm :     0.0004021 Eh/α   predicted    -0.1075385E-05 ( -45.60%)
   displ. norm   :     0.0315439 α      lambda       -0.1615500E-05
   maximum displ.:     0.0238443 α      in ANC's #1, #5, #2, ...

........................................................................
.............................. CYCLE   15 ..............................
........................................................................

 iter      E             dE          RMSdq      gap      omega  full diag
   1    -33.5271130 -0.335271E+02  0.943E-03    3.81       0.0  T
   2    -33.5271131 -0.285793E-07  0.535E-03    3.81       3.5  T
   3    -33.5271130  0.519224E-07  0.165E-03    3.81      11.5  T
   4    -33.5271131 -0.673045E-07  0.284E-04    3.81      66.6  T
   5    -33.5271131 -0.271214E-09  0.122E-04    3.81     154.5  T
     SCC iter.                  ...        0 min,  0.055 sec
     gradient                   ...        0 min,  0.029 sec
 * total energy  :   -32.9631464 Eh     change       -0.1783639E-05 Eh
   gradient norm :     0.0003577 Eh/α   predicted    -0.8089244E-06 ( -54.65%)
   displ. norm   :     0.0612145 α      lambda       -0.2660099E-05
   maximum displ.:     0.0273014 α      in ANC's #1, #2, #4, ...

........................................................................
.............................. CYCLE   16 ..............................
........................................................................

 iter      E             dE          RMSdq      gap      omega  full diag
   1    -33.5268848 -0.335269E+02  0.179E-02    3.81       0.0  T
   2    -33.5268849 -0.748065E-07  0.102E-02    3.81       1.8  T
   3    -33.5268848  0.109690E-06  0.250E-03    3.81       7.6  T
   4    -33.5268849 -0.149247E-06  0.538E-04    3.81      35.1  T
   5    -33.5268849 -0.641599E-09  0.150E-04    3.81     126.3  T
     SCC iter.                  ...        0 min,  0.051 sec
     gradient                   ...        0 min,  0.027 sec
 * total energy  :   -32.9631492 Eh     change       -0.2828860E-05 Eh
   gradient norm :     0.0006481 Eh/α   predicted    -0.1335089E-05 ( -52.80%)
   displ. norm   :     0.0874452 α      lambda       -0.3414200E-05
   maximum displ.:     0.0442706 α      in ANC's #1, #2, #5, ...

........................................................................
.............................. CYCLE   17 ..............................
........................................................................

 iter      E             dE          RMSdq      gap      omega  full diag
   1    -33.5271394 -0.335271E+02  0.260E-02    3.81       0.0  T
   2    -33.5271395 -0.161616E-06  0.148E-02    3.81       1.3  T
   3    -33.5271395  0.557127E-07  0.242E-03    3.81       7.8  T
   4    -33.5271396 -0.123240E-06  0.765E-04    3.81      24.7  T
   5    -33.5271396 -0.212012E-08  0.214E-04    3.81      88.2  T
     SCC iter.                  ...        0 min,  0.060 sec
     gradient                   ...        0 min,  0.031 sec
 * total energy  :   -32.9631525 Eh     change       -0.3292524E-05 Eh
   gradient norm :     0.0004388 Eh/α   predicted    -0.1714005E-05 ( -47.94%)
   displ. norm   :     0.0563785 α      lambda       -0.1632884E-05
   maximum displ.:     0.0257739 α      in ANC's #2, #4, #9, ...

........................................................................
.............................. CYCLE   18 ..............................
........................................................................

 iter      E             dE          RMSdq      gap      omega  full diag
   1    -33.5271851 -0.335272E+02  0.130E-02    3.81       0.0  T
   2    -33.5271851 -0.209440E-07  0.765E-03    3.81       2.5  T
   3    -33.5271851  0.542554E-08  0.852E-04    3.81      22.2  T
   4    -33.5271851 -0.125046E-07  0.359E-04    3.81      52.6  T
     SCC iter.                  ...        0 min,  0.050 sec
     gradient                   ...        0 min,  0.035 sec
 * total energy  :   -32.9631541 Eh     change       -0.1544123E-05 Eh
   gradient norm :     0.0002098 Eh/α   predicted    -0.8219966E-06 ( -46.77%)
   displ. norm   :     0.0202055 α      lambda       -0.5945543E-06
   maximum displ.:     0.0092597 α      in ANC's #2, #4, #9, ...

........................................................................
.............................. CYCLE   19 ..............................
........................................................................

 iter      E             dE          RMSdq      gap      omega  full diag
   1    -33.5273374 -0.335273E+02  0.499E-03    3.81       0.0  T
   2    -33.5273374 -0.379728E-08  0.293E-03    3.81       6.4  T
   3    -33.5273374  0.438135E-08  0.480E-04    3.81      39.4  T
   4    -33.5273374 -0.507622E-08  0.172E-04    3.81     109.9  T
     SCC iter.                  ...        0 min,  0.043 sec
     gradient                   ...        0 min,  0.035 sec
 * total energy  :   -32.9631546 Eh     change       -0.4998016E-06 Eh
   gradient norm :     0.0001743 Eh/α   predicted    -0.2990679E-06 ( -40.16%)
   displ. norm   :     0.0097574 α      lambda       -0.1618646E-06
   maximum displ.:     0.0055310 α      in ANC's #2, #4, #3, ...

   *** GEOMETRY OPTIMIZATION CONVERGED AFTER 19 ITERATIONS ***

------------------------------------------------------------------------
 total energy gain   :        -0.0037263 Eh       -2.3383 kcal/mol
 total RMSD          :         0.2184072 a0        0.1156 Å
 total power (kW/mol):        -0.5149141 (step)   -3.6315 (real)
------------------------------------------------------------------------

 ANCopt (total)                0 d,  0 h,  0 min,  2.694 sec
 optimizer setup                ...        0 min,  0.001 sec (  0.029%)
 model hessian                  ...        0 min,  0.012 sec (  0.441%)
 ANC generation                 ...        0 min,  0.001 sec (  0.045%)
 coordinate transformation      ...        0 min,  0.000 sec (  0.007%)
 single point calculation       ...        0 min,  2.614 sec ( 97.038%)
 optimization log               ...        0 min,  0.003 sec (  0.095%)
 hessian update                 ...        0 min,  0.060 sec (  2.215%)
 rational function              ...        0 min,  0.002 sec (  0.087%)

================
 final structure:
================
28
 xtb: 6.7.1 (edcfbbe)
C           -2.88211146576020        1.95669470371187        0.19875582763205
C           -2.17416943366357        0.68052024450692        0.63426686725968
C           -1.32291310786670        0.09605012742001       -0.50208865988408
C           -0.62426667711022       -1.15929956161296       -0.06706786667101
C           -1.38965513350411       -2.42548061726699       -0.29177389084021
C            0.58827797748701       -1.15705060199495        0.51007307478461
C            1.19664525353469       -2.36874646190805        0.90515688754499
N            1.73027296509661       -3.32646188263899        1.24686787478135
C            1.45273490235853        0.05428289504246        0.75692640209011
C            2.46853285758832        0.23432569330233       -0.37698037120572
C            3.35632546471094        1.44957464369380       -0.14335365499473
H           -3.48055967247555        2.35682736685960        1.01368574628469
H           -2.15959412437300        2.71356858271304       -0.09947790568553
H           -3.53947745452439        1.76065193000026       -0.64562200707583
H           -1.53545409108409        0.89017386201540        1.49511339057382
H           -2.91498579466222       -0.05776334941250        0.94804928181918
H           -0.60441434723183        0.84782813108473       -0.83119462210685
H           -1.97672432027871       -0.13348422795953       -1.34634966006504
H           -2.39558929805812       -2.33267772301282        0.11605865100549
H           -1.48534475771778       -2.61385667926475       -1.36178441525611
H           -0.89877883497537       -3.27960566909287        0.16742441052214
H            1.99315530910152       -0.08000818778583        1.69775789930485
H            0.83891046750144        0.95051989133866        0.84804326514378
H            1.93525034090973        0.34513933689892       -1.32474699240983
H            3.08634279847419       -0.66377697350489       -0.44817577653157
H            2.75761818270742        2.35642596937292       -0.08245377731647
H            4.06831330119029        1.56272265456585       -0.95727418323298
H            3.91165869262800        1.34290590292834        0.78587818860679

 Bond Distances (Angstroems)
 ---------------------------
C1-C2=1.5230         C1-H12=1.0874        C1-H13=1.0880        C1-H14=1.0879        C2-C1=1.5230         C2-C3=1.5354         
C2-H15=1.0922        C2-H16=1.0919        C3-C2=1.5354         C3-C4=1.5011         C3-H17=1.0907        C3-H18=1.0922        
C4-C3=1.5011         C4-C5=1.4965         C4-C6=1.3429         C5-C4=1.4965         C5-H19=1.0894        C5-H20=1.0907        
C5-H21=1.0869        C6-C4=1.3429         C6-C7=1.4122         C6-C9=1.5085         C7-C6=1.4122         C7-N8=1.1484         
N8-C7=1.1484         C9-C6=1.5085         C9-C10=1.5330        C9-H22=1.0933        C9-H23=1.0901        C10-C9=1.5330        
C10-C11=1.5230       C10-H24=1.0931       C10-H25=1.0924       C11-C10=1.5230       C11-H26=1.0884       C11-H27=1.0873       
C11-H28=1.0878       H12-C1=1.0874        H13-C1=1.0880        H14-C1=1.0879        H15-C2=1.0922        H16-C2=1.0919        
H17-C3=1.0907        H18-C3=1.0922        H19-C5=1.0894        H20-C5=1.0907        H21-C5=1.0869        H22-C9=1.0933        
H23-C9=1.0901        H24-C10=1.0931       H25-C10=1.0924       H26-C11=1.0884       H27-C11=1.0873       H28-C11=1.0878       
 C  H  Rav=1.0900 sigma=0.0022  Rmin=1.0869  Rmax=1.0933    17
 C  C  Rav=1.4862 sigma=0.0616  Rmin=1.3429  Rmax=1.5354     9
 N  C  Rav=1.1484 sigma=0.0000  Rmin=1.1484  Rmax=1.1484     1

 selected bond angles (degree)
 --------------------
H12-C1-C2=110.48               H13-C1-C2=110.65               H13-C1-H12=108.36              H14-C1-C2=110.60               
H14-C1-H12=108.39              H14-C1-H13=108.29              C3-C2-C1=111.41                H15-C2-C1=109.66               
H15-C2-C3=109.40               H16-C2-C1=109.47               H16-C2-C3=109.36               H16-C2-H15=107.46              
C4-C3-C2=111.22                H17-C3-C2=109.04               H17-C3-C4=110.93               H18-C3-C2=108.67               
H18-C3-C4=109.08               H18-C3-H17=107.81              C5-C4-C3=115.22                C6-C4-C3=122.92                
C6-C4-C5=121.85                H19-C5-C4=110.12               H20-C5-C4=109.77               H20-C5-H19=107.52              
H21-C5-C4=111.74               H21-C5-H19=109.01              H21-C5-H20=108.56              C7-C6-C4=120.52                
C9-C6-C4=126.09                C9-C6-C7=113.35                N8-C7-C6=177.41                C10-C9-C6=110.67               
H22-C9-C6=108.99               H22-C9-C10=108.87              H23-C9-C6=110.56               H23-C9-C10=109.78              
H23-C9-H22=107.90              C11-C10-C9=111.50              H24-C10-C9=109.27              H24-C10-C11=109.66             
H25-C10-C9=109.05              H25-C10-C11=109.65             H25-C10-H24=107.62             

 selected dihedral angles (degree)
 ---------------------------------
C3-C2-C1-H12=179.95           C3-C2-C1-H13=299.95           C3-C2-C1-H14= 59.95           H15-C2-C1-H12=301.21          
H15-C2-C1-H13= 61.21          H15-C2-C1-H14=181.21          H16-C2-C1-H12= 58.87          H16-C2-C1-H13=178.87          
H16-C2-C1-H14=298.86          C4-C3-C2-C1=179.84            C4-C3-C2-H15= 58.44           C4-C3-C2-H16=300.99           
H17-C3-C2-C1= 57.21           H17-C3-C2-H15=295.80          H17-C3-C2-H16=178.35          H18-C3-C2-C1=299.93           
H18-C3-C2-H15=178.52          H18-C3-C2-H16= 61.08          C5-C4-C3-C2= 89.69            C5-C4-C3-H17=211.23           
C5-C4-C3-H18=329.84           C6-C4-C3-C2=271.08            C6-C4-C3-H17= 32.62           C6-C4-C3-H18=151.23           
H19-C5-C4-C3=309.39           H19-C5-C4-C6=128.01           H20-C5-C4-C3= 67.57           H20-C5-C4-C6=246.20           
H21-C5-C4-C3=188.08           H21-C5-C4-C6=  6.70           C7-C6-C4-C3=179.72            C7-C6-C4-C5=  1.20            
C9-C6-C4-C3=357.21            C9-C6-C4-C5=178.69            N8-C7-C6-C4=184.29            N8-C7-C6-C9=  6.50            
C10-C9-C6-C4=264.48           C10-C9-C6-C7= 82.13           H22-C9-C6-C4=144.79           H22-C9-C6-C7=322.43           
H23-C9-C6-C4= 26.34           H23-C9-C6-C7=203.98           C11-C10-C9-C6=180.26          C11-C10-C9-H22=300.04         
C11-C10-C9-H23= 57.95         H24-C10-C9-C6= 58.88          H24-C10-C9-H22=178.65         H24-C10-C9-H23=296.56         
H25-C10-C9-C6=301.49          H25-C10-C9-H22= 61.26         H25-C10-C9-H23=179.18         
           -------------------------------------------------
          |                Final Singlepoint                |
           -------------------------------------------------

          ...................................................
          :                      SETUP                      :
          :.................................................:
          :  # basis functions                  61          :
          :  # atomic orbitals                  61          :
          :  # shells                           39          :
          :  # electrons                        62          :
          :  max. iterations                   250          :
          :  Hamiltonian                  GFN2-xTB          :
          :  restarted?                      false          :
          :  GBSA solvation                  false          :
          :  PC potential                    false          :
          :  electronic temp.          300.0000000     K    :
          :  accuracy                    1.0000000          :
          :  -> integral cutoff          0.2500000E+02      :
          :  -> integral neglect         0.1000000E-07      :
          :  -> SCF convergence          0.1000000E-05 Eh   :
          :  -> wf. convergence          0.1000000E-03 e    :
          :  Broyden damping             0.4000000          :
          :  net charge                          0          :
          :  unpaired electrons                  0          :
          ...................................................

 iter      E             dE          RMSdq      gap      omega  full diag
   1    -33.5273374 -0.335273E+02  0.477E-05    3.81       0.0  T
   2    -33.5273374 -0.309797E-11  0.266E-05    3.81     709.3  T
   3    -33.5273374  0.512301E-11  0.186E-05    3.81    1017.6  T

   *** convergence criteria satisfied after 3 iterations ***

         #    Occupation            Energy/Eh            Energy/eV
      -------------------------------------------------------------
         1        2.0000           -0.6526667             -17.7600
       ...           ...                  ...                  ...
        25        2.0000           -0.4501475             -12.2491
        26        2.0000           -0.4475478             -12.1784
        27        2.0000           -0.4432051             -12.0602
        28        2.0000           -0.4354798             -11.8500
        29        2.0000           -0.4326594             -11.7733
        30        2.0000           -0.4073067             -11.0834
        31        2.0000           -0.3937272             -10.7139 (HOMO)
        32                         -0.2537043              -6.9036 (LUMO)
        33                         -0.1938642              -5.2753
        34                         -0.1276084              -3.4724
        35                          0.0627296               1.7070
        36                          0.0730787               1.9886
       ...                                ...                  ...
        61                          1.1701219              31.8406
      -------------------------------------------------------------
                  HL-Gap            0.1400229 Eh            3.8102 eV
             Fermi-level           -0.3237158 Eh           -8.8088 eV

 SCC (total)                   0 d,  0 h,  0 min,  0.094 sec
 SCC setup                      ...        0 min,  0.004 sec (  4.214%)
 Dispersion                     ...        0 min,  0.006 sec (  5.906%)
 classical contributions        ...        0 min,  0.003 sec (  3.566%)
 integral evaluation            ...        0 min,  0.012 sec ( 12.519%)
 iterations                     ...        0 min,  0.038 sec ( 39.927%)
 molecular gradient             ...        0 min,  0.032 sec ( 33.689%)
 printout                       ...        0 min,  0.000 sec (  0.150%)

         :::::::::::::::::::::::::::::::::::::::::::::::::::::
         ::                     SUMMARY                     ::
         :::::::::::::::::::::::::::::::::::::::::::::::::::::
         :: total energy             -32.963154574103 Eh    ::
         :: gradient norm              0.000173877586 Eh/a0 ::
         :: HOMO-LUMO gap              3.810217317773 eV    ::
         ::.................................................::
         :: SCC energy               -33.527160636161 Eh    ::
         :: -> isotropic ES            0.013645448660 Eh    ::
         :: -> anisotropic ES          0.007883323519 Eh    ::
         :: -> anisotropic XC          0.032430897242 Eh    ::
         :: -> dispersion             -0.020960838812 Eh    ::
         :: repulsion energy           0.564006062058 Eh    ::
         :: add. restraining           0.000000000000 Eh    ::
         :: total charge              -0.000000000000 e     ::
         :::::::::::::::::::::::::::::::::::::::::::::::::::::

           -------------------------------------------------
          |                Property Printout                |
           -------------------------------------------------

    * Orbital Energies and Occupations

         #    Occupation            Energy/Eh            Energy/eV
      -------------------------------------------------------------
         1        2.0000           -0.6526667             -17.7600
       ...           ...                  ...                  ...
        19        2.0000           -0.4796756             -13.0526
        20        2.0000           -0.4746521             -12.9159
        21        2.0000           -0.4704806             -12.8024
        22        2.0000           -0.4669938             -12.7075
        23        2.0000           -0.4606995             -12.5363
        24        2.0000           -0.4531649             -12.3312
        25        2.0000           -0.4501475             -12.2491
        26        2.0000           -0.4475478             -12.1784
        27        2.0000           -0.4432051             -12.0602
        28        2.0000           -0.4354798             -11.8500
        29        2.0000           -0.4326594             -11.7733
        30        2.0000           -0.4073067             -11.0834
        31        2.0000           -0.3937272             -10.7139 (HOMO)
        32                         -0.2537043              -6.9036 (LUMO)
        33                         -0.1938642              -5.2753
        34                         -0.1276084              -3.4724
        35                          0.0627296               1.7070
        36                          0.0730787               1.9886
        37                          0.0984478               2.6789
        38                          0.1107825               3.0145
        39                          0.1163041               3.1648
        40                          0.1238141               3.3692
        41                          0.1288183               3.5053
        42                          0.1365895               3.7168
       ...                                ...                  ...
        61                          1.1701219              31.8406
      -------------------------------------------------------------
                  HL-Gap            0.1400229 Eh            3.8102 eV
             Fermi-level           -0.3237158 Eh           -8.8088 eV

     #   Z          covCN         q      C6AA      α(0)
     1   6 C        3.752    -0.103    22.527     6.768
     2   6 C        3.802    -0.046    21.398     6.586
     3   6 C        3.809    -0.064    21.728     6.635
     4   6 C        2.959     0.020    27.559     8.611
     5   6 C        3.759    -0.109    22.637     6.783
     6   6 C        2.950    -0.010    28.273     8.721
     7   6 C        1.918     0.111    28.358     8.600
     8   7 N        0.911    -0.259    26.722     7.476
     9   6 C        3.813    -0.053    21.517     6.602
    10   6 C        3.802    -0.047    21.412     6.588
    11   6 C        3.752    -0.102    22.517     6.767
    12   1 H        0.925     0.037     2.491     2.468
    13   1 H        0.925     0.035     2.514     2.480
    14   1 H        0.925     0.036     2.500     2.473
    15   1 H        0.924     0.031     2.569     2.507
    16   1 H        0.924     0.031     2.567     2.505
    17   1 H        0.924     0.044     2.398     2.422
    18   1 H        0.924     0.042     2.419     2.432
    19   1 H        0.925     0.052     2.290     2.367
    20   1 H        0.924     0.052     2.291     2.367
    21   1 H        0.925     0.050     2.319     2.381
    22   1 H        0.924     0.041     2.438     2.442
    23   1 H        0.925     0.040     2.443     2.444
    24   1 H        0.924     0.028     2.614     2.528
    25   1 H        0.924     0.035     2.516     2.481
    26   1 H        0.925     0.034     2.536     2.490
    27   1 H        0.925     0.037     2.494     2.470
    28   1 H        0.925     0.037     2.490     2.467

 Mol. C6AA /au·bohr⁶  :       6466.722747
 Mol. C8AA /au·bohr⁸  :     143131.214696
 Mol. α(0) /au        :        121.861524


Wiberg/Mayer (AO) data.
largest (>0.10) Wiberg bond orders for each atom

 ---------------------------------------------------------------------------
     #   Z sym  total        # sym  WBO       # sym  WBO       # sym  WBO
 ---------------------------------------------------------------------------
     1   6 C    3.995 --     2 C    1.019    13 H    0.988    14 H    0.988
                            12 H    0.986
     2   6 C    3.991 --     1 C    1.019     3 C    0.983    16 H    0.978
                            15 H    0.978
     3   6 C    3.997 --     4 C    1.017     2 C    0.983    18 H    0.971
                            17 H    0.968
     4   6 C    3.985 --     6 C    1.736     5 C    1.033     3 C    1.017
                             8 N    0.112
     5   6 C    3.995 --     4 C    1.033    21 H    0.979    19 H    0.968
                            20 H    0.964
     6   6 C    3.984 --     4 C    1.736     7 C    1.105     9 C    0.986
     7   6 C    3.945 --     8 N    2.779     6 C    1.105
     8   7 N    2.991 --     7 C    2.779     4 C    0.112
     9   6 C    3.996 --    10 C    0.990     6 C    0.986    22 H    0.971
                            23 H    0.969
    10   6 C    3.996 --    11 C    1.018     9 C    0.990    24 H    0.979
                            25 H    0.978
    11   6 C    3.996 --    10 C    1.018    26 H    0.988    28 H    0.988
                            27 H    0.986
    12   1 H    0.997 --     1 C    0.986
    13   1 H    0.999 --     1 C    0.988
    14   1 H    0.999 --     1 C    0.988
    15   1 H    0.999 --     2 C    0.978
    16   1 H    0.999 --     2 C    0.978
    17   1 H    0.998 --     3 C    0.968
    18   1 H    0.997 --     3 C    0.971
    19   1 H    0.997 --     5 C    0.968
    20   1 H    0.997 --     5 C    0.964
    21   1 H    0.997 --     5 C    0.979
    22   1 H    0.998 --     9 C    0.971
    23   1 H    0.998 --     9 C    0.969
    24   1 H    0.999 --    10 C    0.979
    25   1 H    0.999 --    10 C    0.978
    26   1 H    0.999 --    11 C    0.988
    27   1 H    0.998 --    11 C    0.986
    28   1 H    0.999 --    11 C    0.988
 ---------------------------------------------------------------------------

Topologies differ in total number of bonds
Writing topology from bond orders to xtbtopo.mol

molecular dipole:
                 x           y           z       tot (Debye)
 q only:       -0.762       1.019      -0.461
   full:       -0.989       1.392      -0.600       4.600
molecular quadrupole (traceless):
                xx          xy          yy          xz          yz          zz
 q only:        3.852       7.698      -5.972      -1.829       5.007       2.120
  q+dip:        5.600      10.218      -9.365      -1.455       6.747       3.765
   full:        5.467      11.262     -10.051      -2.619       7.487       4.584

           -------------------------------------------------
          |                Geometry Summary                 |
           -------------------------------------------------

      molecular mass/u    :      151.2490550
   center of mass at/Å    :        0.1974008      -0.4778720       0.2442571
  moments of inertia/u·Å² :        0.4535787E+03   0.6874755E+03   0.1036722E+04
rotational constants/cm⁻¹ :        0.3716584E-01   0.2452106E-01   0.1626051E-01

 * 23 selected distances

     #   Z          #   Z                                           value/Å
     1   6 C        2   6 C                                       1.5229818
     2   6 C        3   6 C                                       1.5354305 (max)
     4   6 C        6   6 C                                       1.3428930
     7   6 C        8   7 N                                       1.1483658
     9   6 C       10   6 C                                       1.5329729
    10   6 C       11   6 C                                       1.5230192
     1   6 C       12   1 H                                       1.0873626
     1   6 C       13   1 H                                       1.0880409
     1   6 C       14   1 H                                       1.0879048
     2   6 C       15   1 H                                       1.0922312
     2   6 C       16   1 H                                       1.0919392
     3   6 C       17   1 H                                       1.0907436
     3   6 C       18   1 H                                       1.0922143
     5   6 C       19   1 H                                       1.0894235
     5   6 C       20   1 H                                       1.0906717
     5   6 C       21   1 H                                       1.0869004 (min)
     9   6 C       22   1 H                                       1.0932760
     9   6 C       23   1 H                                       1.0901026
    10   6 C       24   1 H                                       1.0931293
    10   6 C       25   1 H                                       1.0924040
    11   6 C       26   1 H                                       1.0883652
    11   6 C       27   1 H                                       1.0872884
    11   6 C       28   1 H                                       1.0877708

 * 3 distinct bonds (by element types)

   Z      Z             #   av. dist./Å        max./Å        min./Å
   1 H    6 C          17     1.0899864     1.0932760     1.0869004
   6 C    6 C           5     1.4914595     1.5354305     1.3428930
   6 C    7 N           1     1.1483658     1.1483658     1.1483658


optimized geometry written to: xtbopt.xyz


           -------------------------------------------------
          | TOTAL ENERGY              -32.963154574103 Eh   |
          | GRADIENT NORM               0.000173877586 Eh/α |
          | HOMO-LUMO GAP               3.810217317773 eV   |
           -------------------------------------------------

------------------------------------------------------------------------
 * finished run on 2026/07/09 at 09:00:15.314     
------------------------------------------------------------------------
 total:
 * wall-time:     0 d,  0 h,  0 min,  3.151 sec
 *  cpu-time:     0 d,  0 h,  0 min, 50.207 sec
 * ratio c/w:    15.932 speedup
 SCF:
 * wall-time:     0 d,  0 h,  0 min,  0.290 sec
 *  cpu-time:     0 d,  0 h,  0 min,  4.635 sec
 * ratio c/w:    16.008 speedup
 ANC optimizer:
 * wall-time:     0 d,  0 h,  0 min,  2.795 sec
 *  cpu-time:     0 d,  0 h,  0 min, 44.589 sec
 * ratio c/w:    15.954 speedup

