      -----------------------------------------------------------      
     |                   =====================                   |     
     |                           x T B                           |     
     |                   =====================                   |     
     |                         S. Grimme                         |     
     |          Mulliken Center for Theoretical Chemistry        |     
     |                    University of Bonn                     |     
      -----------------------------------------------------------      

   * xtb version 6.7.1 (edcfbbe) compiled by 'conda@5dfe00f5fb80' on 2026-06-10

   xtb is free software: you can redistribute it and/or modify it under
   the terms of the GNU Lesser General Public License as published by
   the Free Software Foundation, either version 3 of the License, or
   (at your option) any later version.
   
   xtb is distributed in the hope that it will be useful,
   but WITHOUT ANY WARRANTY; without even the implied warranty of
   MERCHANTABILITY or FITNESS FOR A PARTICULAR PURPOSE.  See the
   GNU Lesser General Public License for more details.
   
   Cite this work as:
   * C. Bannwarth, E. Caldeweyher, S. Ehlert, A. Hansen, P. Pracht,
     J. Seibert, S. Spicher, S. Grimme, WIREs Comput. Mol. Sci., 2020, 11,
     e01493. DOI: 10.1002/wcms.1493
   
   for GFN2-xTB:
   * C. Bannwarth, S. Ehlert and S. Grimme., J. Chem. Theory Comput., 2019,
     15, 1652-1671. DOI: 10.1021/acs.jctc.8b01176
   for GFN1-xTB:
   * S. Grimme, C. Bannwarth, P. Shushkov, J. Chem. Theory Comput., 2017,
     13, 1989-2009. DOI: 10.1021/acs.jctc.7b00118
   for GFN0-xTB:
   * P. Pracht, E. Caldeweyher, S. Ehlert, S. Grimme, ChemRxiv, 2019, preprint.
     DOI: 10.26434/chemrxiv.8326202.v1
   for GFN-FF:
   * S. Spicher and S. Grimme, Angew. Chem. Int. Ed., 2020, 59, 15665-15673.
     DOI: 10.1002/anie.202004239
   
   for ALPB and GBSA implicit solvation:
   * S. Ehlert, M. Stahn, S. Spicher, S. Grimme, J. Chem. Theory Comput.,
     2021, 17, 4250-4261. DOI: 10.1021/acs.jctc.1c00471
   
   for ddCOSMO and CPCM-X implicit solvation:
   * M. Stahn, S. Ehlert, S. Grimme, J. Phys. Chem. A,
     2023, XX, XXXX-XXXX. DOI: 10.1021/acs.jpca.3c04382
   
   for DFT-D4:
   * E. Caldeweyher, C. Bannwarth and S. Grimme, J. Chem. Phys., 2017,
     147, 034112. DOI: 10.1063/1.4993215
   * E. Caldeweyher, S. Ehlert, A. Hansen, H. Neugebauer, S. Spicher,
     C. Bannwarth and S. Grimme, J. Chem. Phys., 2019, 150, 154122.
     DOI: 10.1063/1.5090222
   * E. Caldeweyher, J.-M. Mewes, S. Ehlert and S. Grimme, Phys. Chem. Chem. Phys.
     2020, 22, 8499-8512. DOI: 10.1039/D0CP00502A
   
   for sTDA-xTB:
   * S. Grimme and C. Bannwarth, J. Chem. Phys., 2016, 145, 054103.
     DOI: 10.1063/1.4959605
   
   in the mass-spec context:
   * V. Asgeirsson, C. Bauer and S. Grimme, Chem. Sci., 2017, 8, 4879.
     DOI: 10.1039/c7sc00601b
   * J. Koopman and S. Grimme, ACS Omega 2019, 4, 12, 15120-15133.
     DOI: 10.1021/acsomega.9b02011
   
   for metadynamics refer to:
   * S. Grimme, J. Chem. Theory Comput., 2019, 155, 2847-2862
     DOI: 10.1021/acs.jctc.9b00143
   
   for SPH calculations refer to:
   * S. Spicher and S. Grimme, J. Chem. Theory Comput., 2021, 17, 1701-1714
     DOI: 10.1021/acs.jctc.0c01306
   
   for ONIOM refer to:
   * C. Plett, A. Katbashev, S. Ehlert, S. Grimme, M. Bursch,
     Phys. Chem. Chem. Phys., 2023, 25, 17860-17868. DOI: 10.1039/D3CP02178E
   
   for DIPRO refer to:
   * J. Kohn, N. Gildemeister, S. Grimme, D. Fazzi, A. Hansen,
     J. Chem. Phys., 2023, just accepted.
   
   for PTB refer to:
   * S. Grimme, M. Mueller, A. Hansen, J. Chem. Phys., 2023, 158, 124111.
     DOI: 10.1063/5.0137838
   
   with help from (in alphabetical order)
   P. Atkinson, C. Bannwarth, F. Bohle, G. Brandenburg, E. Caldeweyher
   M. Checinski, S. Dohm, S. Ehlert, S. Ehrlich, I. Gerasimov, C. Hölzer
   A. Katbashev, J. Kohn, J. Koopman, C. Lavigne, S. Lehtola, F. März, M. Müller,
   F. Musil, H. Neugebauer, J. Pisarek, C. Plett, P. Pracht, F. Pultar,
   J. Seibert, P. Shushkov, S. Spicher, M. Stahn, M. Steiner, T. Strunk,
   J. Stückrath, T. Rose, and J. Unsleber
   
 * started run on 2026/07/09 at 07:10:58.543     
   ID    Z sym.   atoms
    1    8 O      1, 11
    2    6 C      2-10
    3    1 H      12-31

           -------------------------------------------------
          |                Calculation Setup                |
           -------------------------------------------------

          program call               : /home/ws/xd2484/miniforge3/envs/p3z_dft/bin/xtb xtb_input.xyz --gfn 2 --opt tight --cycles 500 --chrg 0 --uhf 0
          hostname                   : gpu10
          coordinate file            : xtb_input.xyz
          omp threads                :                    16


           -------------------------------------------------
          |                 G F N 2 - x T B                 |
           -------------------------------------------------

        Reference                      10.1021/acs.jctc.8b01176
      * Hamiltonian:
        H0-scaling (s, p, d)           1.850000    2.230000    2.230000
        zeta-weighting                 0.500000
      * Dispersion:
        s8                             2.700000
        a1                             0.520000
        a2                             5.000000
        s9                             5.000000
      * Repulsion:
        kExp                           1.500000    1.000000
        rExp                           1.000000
      * Coulomb:
        alpha                          2.000000
        third order                    shell-resolved
        anisotropic                    true
        a3                             3.000000
        a5                             4.000000
        cn-shift                       1.200000
        cn-exp                         4.000000
        max-rad                        5.000000


          ...................................................
          :                      SETUP                      :
          :.................................................:
          :  # basis functions                  64          :
          :  # atomic orbitals                  64          :
          :  # shells                           42          :
          :  # electrons                        68          :
          :  max. iterations                   250          :
          :  Hamiltonian                  GFN2-xTB          :
          :  restarted?                      false          :
          :  GBSA solvation                  false          :
          :  PC potential                    false          :
          :  electronic temp.          300.0000000     K    :
          :  accuracy                    1.0000000          :
          :  -> integral cutoff          0.2500000E+02      :
          :  -> integral neglect         0.1000000E-07      :
          :  -> SCF convergence          0.1000000E-05 Eh   :
          :  -> wf. convergence          0.1000000E-03 e    :
          :  Broyden damping             0.4000000          :
          :  net charge                          0          :
          :  unpaired electrons                  0          :
          ...................................................

 iter      E             dE          RMSdq      gap      omega  full diag
   1    -37.9667281 -0.379667E+02  0.340E+00   11.82       0.0  T
   2    -38.0381732 -0.714451E-01  0.189E+00   11.40       1.0  T
   3    -38.0394866 -0.131340E-02  0.777E-01   11.55       1.0  T
   4    -38.0398178 -0.331150E-03  0.110E-01   11.66       1.0  T
   5    -38.0398617 -0.439518E-04  0.632E-02   11.66       1.0  T
   6    -38.0398646 -0.288637E-05  0.851E-03   11.66       2.1  T
   7    -38.0398649 -0.290757E-06  0.460E-03   11.66       3.9  T
   8    -38.0398649 -0.272629E-07  0.865E-04   11.66      20.8  T
   9    -38.0398649 -0.259856E-08  0.332E-04   11.66      54.1  T

   *** convergence criteria satisfied after 9 iterations ***

         #    Occupation            Energy/Eh            Energy/eV
      -------------------------------------------------------------
         1        2.0000           -0.6846347             -18.6299
       ...           ...                  ...                  ...
        28        2.0000           -0.4416068             -12.0167
        29        2.0000           -0.4349236             -11.8349
        30        2.0000           -0.4326221             -11.7722
        31        2.0000           -0.4277901             -11.6408
        32        2.0000           -0.4261905             -11.5972
        33        2.0000           -0.4084815             -11.1153
        34        2.0000           -0.4069612             -11.0740 (HOMO)
        35                          0.0216684               0.5896 (LUMO)
        36                          0.0356335               0.9696
        37                          0.0578322               1.5737
        38                          0.0853913               2.3236
        39                          0.0918295               2.4988
       ...                                ...                  ...
        64                          0.3051203               8.3027
      -------------------------------------------------------------
                  HL-Gap            0.4286296 Eh           11.6636 eV
             Fermi-level           -0.1926464 Eh           -5.2422 eV

 SCC (total)                   0 d,  0 h,  0 min,  0.250 sec
 SCC setup                      ...        0 min,  0.006 sec (  2.558%)
 Dispersion                     ...        0 min,  0.013 sec (  5.309%)
 classical contributions        ...        0 min,  0.007 sec (  2.626%)
 integral evaluation            ...        0 min,  0.021 sec (  8.212%)
 iterations                     ...        0 min,  0.161 sec ( 64.118%)
 molecular gradient             ...        0 min,  0.043 sec ( 17.087%)
 printout                       ...        0 min,  0.000 sec (  0.078%)

         :::::::::::::::::::::::::::::::::::::::::::::::::::::
         ::                     SUMMARY                     ::
         :::::::::::::::::::::::::::::::::::::::::::::::::::::
         :: total energy             -37.599413213552 Eh    ::
         :: gradient norm              0.026494872387 Eh/a0 ::
         :: HOMO-LUMO gap             11.663604781971 eV    ::
         ::.................................................::
         :: SCC energy               -38.040001765611 Eh    ::
         :: -> isotropic ES            0.053540134601 Eh    ::
         :: -> anisotropic ES          0.008003589904 Eh    ::
         :: -> anisotropic XC          0.012567133527 Eh    ::
         :: -> dispersion             -0.019119249901 Eh    ::
         :: repulsion energy           0.440588552059 Eh    ::
         :: add. restraining           0.000000000000 Eh    ::
         :: total charge               0.000000000000 e     ::
         :::::::::::::::::::::::::::::::::::::::::::::::::::::

      ----------------------------------------------------------- 
     |                   =====================                   |
     |                        A N C O P T                        |
     |                   =====================                   |
     |               Approximate Normal Coordinate               |
     |                Rational Function Optimizer                |
      ----------------------------------------------------------- 
      ----------------------------------------------------------- 
     |                   =====================                   |
     |                        A N C O P T                        |
     |                   =====================                   |
     |               Approximate Normal Coordinate               |
     |                Rational Function Optimizer                |
      ----------------------------------------------------------- 

          ...................................................
          :                      SETUP                      :
          :.................................................:
          :   optimization level             tight          :
          :   max. optcycles                   500          :
          :   ANC micro-cycles                  20          :
          :   degrees of freedom                87          :
          :.................................................:
          :   RF solver                   davidson          :
          :   write xtbopt.log                true          :
          :   linear?                        false          :
          :   energy convergence         0.1000000E-05 Eh   :
          :   grad. convergence          0.8000000E-03 Eh/α :
          :   maxmium RF displ.          1.0000000          :
          :   Hlow (freq-cutoff)         0.1000000E-01      :
          :   Hmax (freq-cutoff)         5.0000000          :
          :   S6 in model hess.         20.0000000          :
          ...................................................

generating ANC from exact Hessian ...
Using Lindh-Hessian (1995)
 Shifting diagonal of input Hessian by    9.4579534731207039E-003
 Lowest  eigenvalues of input Hessian
    0.000000    0.000000    0.000000    0.000000    0.000000    0.000000
    0.010000    0.010242    0.010714    0.011774    0.012032    0.012790
    0.014410    0.015555    0.015954    0.016907    0.017999    0.021294
 Highest eigenvalues
    1.231769    1.265362    1.285979    1.300423    1.444864    1.449118


........................................................................
.............................. CYCLE    1 ..............................
........................................................................

 iter      E             dE          RMSdq      gap      omega  full diag
   1    -38.0398649 -0.380399E+02  0.651E-05   11.66       0.0  T
   2    -38.0398649 -0.172022E-10  0.361E-05   11.66     497.3  T
   3    -38.0398649 -0.307665E-11  0.145E-05   11.66    1242.1  T
     SCC iter.                  ...        0 min,  0.044 sec
     gradient                   ...        0 min,  0.048 sec
 * total energy  :   -37.5994132 Eh     change       -0.5100631E-09 Eh
   gradient norm :     0.0264970 Eh/α   predicted     0.0000000E+00 (-100.00%)
   displ. norm   :     0.1991787 α      lambda       -0.3174004E-02
   maximum displ.:     0.0932704 α      in ANC's #24, #8, #38, ...

........................................................................
.............................. CYCLE    2 ..............................
........................................................................

 iter      E             dE          RMSdq      gap      omega  full diag
   1    -38.0504836 -0.380505E+02  0.148E-01   11.65       0.0  T
   2    -38.0504931 -0.950780E-05  0.867E-02   11.65       1.0  T
   3    -38.0504946 -0.150689E-05  0.851E-03   11.65       2.1  T
   4    -38.0504951 -0.460638E-06  0.404E-03   11.65       4.4  T
   5    -38.0504951 -0.287286E-07  0.163E-03   11.65      11.0  T
   6    -38.0504951 -0.699347E-08  0.426E-04   11.65      42.2  T
   7    -38.0504951 -0.852808E-09  0.159E-04   11.65     113.3  T
     SCC iter.                  ...        0 min,  0.150 sec
     gradient                   ...        0 min,  0.058 sec
 * total energy  :   -37.6013184 Eh     change       -0.1905229E-02 Eh
   gradient norm :     0.0123462 Eh/α   predicted    -0.1649977E-02 ( -13.40%)
   displ. norm   :     0.0879680 α      lambda       -0.4173854E-03
   maximum displ.:     0.0356672 α      in ANC's #24, #12, #8, ...

........................................................................
.............................. CYCLE    3 ..............................
........................................................................

 iter      E             dE          RMSdq      gap      omega  full diag
   1    -38.0528178 -0.380528E+02  0.427E-02   11.65       0.0  T
   2    -38.0528197 -0.186478E-05  0.250E-02   11.66       1.0  T
   3    -38.0528198 -0.134140E-06  0.479E-03   11.66       3.7  T
   4    -38.0528199 -0.150189E-06  0.147E-03   11.66      12.2  T
   5    -38.0528199 -0.460652E-08  0.628E-04   11.66      28.6  T
   6    -38.0528199 -0.597375E-09  0.162E-04   11.66     111.1  T
     SCC iter.                  ...        0 min,  0.076 sec
     gradient                   ...        0 min,  0.036 sec
 * total energy  :   -37.6015771 Eh     change       -0.2586264E-03 Eh
   gradient norm :     0.0054250 Eh/α   predicted    -0.2103084E-03 ( -18.68%)
   displ. norm   :     0.0547630 α      lambda       -0.9073158E-04
   maximum displ.:     0.0263716 α      in ANC's #12, #8, #11, ...

........................................................................
.............................. CYCLE    4 ..............................
........................................................................

 iter      E             dE          RMSdq      gap      omega  full diag
   1    -38.0529729 -0.380530E+02  0.195E-02   11.66       0.0  T
   2    -38.0529738 -0.903899E-06  0.116E-02   11.66       1.6  T
   3    -38.0529739 -0.393535E-07  0.418E-03   11.66       4.3  T
   4    -38.0529739 -0.674690E-07  0.672E-04   11.66      26.7  T
   5    -38.0529739 -0.944375E-09  0.267E-04   11.66      67.2  T
     SCC iter.                  ...        0 min,  0.064 sec
     gradient                   ...        0 min,  0.035 sec
 * total energy  :   -37.6016370 Eh     change       -0.5989400E-04 Eh
   gradient norm :     0.0017986 Eh/α   predicted    -0.4550505E-04 ( -24.02%)
   displ. norm   :     0.0648510 α      lambda       -0.2813984E-04
   maximum displ.:     0.0309228 α      in ANC's #12, #11, #8, ...

........................................................................
.............................. CYCLE    5 ..............................
........................................................................

 iter      E             dE          RMSdq      gap      omega  full diag
   1    -38.0525709 -0.380526E+02  0.231E-02   11.66       0.0  T
   2    -38.0525715 -0.595852E-06  0.139E-02   11.66       1.3  T
   3    -38.0525715 -0.345297E-08  0.315E-03   11.66       5.7  T
   4    -38.0525715 -0.724561E-07  0.602E-04   11.66      29.8  T
   5    -38.0525715 -0.452552E-09  0.205E-04   11.66      87.8  T
     SCC iter.                  ...        0 min,  0.074 sec
     gradient                   ...        0 min,  0.043 sec
 * total energy  :   -37.6016560 Eh     change       -0.1905877E-04 Eh
   gradient norm :     0.0017543 Eh/α   predicted    -0.1410098E-04 ( -26.01%)
   displ. norm   :     0.0226408 α      lambda       -0.6169093E-05
   maximum displ.:     0.0103319 α      in ANC's #11, #1, #13, ...

........................................................................
.............................. CYCLE    6 ..............................
........................................................................

 iter      E             dE          RMSdq      gap      omega  full diag
   1    -38.0525588 -0.380526E+02  0.661E-03   11.66       0.0  T
   2    -38.0525588 -0.317958E-07  0.393E-03   11.66       4.6  T
   3    -38.0525588  0.774548E-09  0.610E-04   11.66      29.5  T
   4    -38.0525588 -0.380895E-08  0.113E-04   11.66     158.5  T
     SCC iter.                  ...        0 min,  0.060 sec
     gradient                   ...        0 min,  0.040 sec
 * total energy  :   -37.6016634 Eh     change       -0.7341354E-05 Eh
   gradient norm :     0.0007840 Eh/α   predicted    -0.3099664E-05 ( -57.78%)
   displ. norm   :     0.0651800 α      lambda       -0.8992234E-05
   maximum displ.:     0.0299276 α      in ANC's #1, #11, #5, ...

........................................................................
.............................. CYCLE    7 ..............................
........................................................................

 iter      E             dE          RMSdq      gap      omega  full diag
   1    -38.0526081 -0.380526E+02  0.161E-02   11.67       0.0  T
   2    -38.0526082 -0.541129E-07  0.966E-03   11.66       1.9  T
   3    -38.0526082 -0.486794E-08  0.755E-04   11.66      23.8  T
   4    -38.0526082 -0.783701E-08  0.298E-04   11.66      60.2  T
     SCC iter.                  ...        0 min,  0.050 sec
     gradient                   ...        0 min,  0.039 sec
 * total energy  :   -37.6016716 Eh     change       -0.8192907E-05 Eh
   gradient norm :     0.0006143 Eh/α   predicted    -0.4511478E-05 ( -44.93%)
   displ. norm   :     0.0384943 α      lambda       -0.2378200E-05
   maximum displ.:     0.0197964 α      in ANC's #1, #5, #11, ...

........................................................................
.............................. CYCLE    8 ..............................
........................................................................

 iter      E             dE          RMSdq      gap      omega  full diag
   1    -38.0526665 -0.380527E+02  0.954E-03   11.67       0.0  T
   2    -38.0526665 -0.114915E-07  0.572E-03   11.67       3.1  T
   3    -38.0526665 -0.421316E-08  0.332E-04   11.67      54.1  T
   4    -38.0526665 -0.559687E-09  0.192E-04   11.67      93.5  T
     SCC iter.                  ...        0 min,  0.050 sec
     gradient                   ...        0 min,  0.035 sec
 * total energy  :   -37.6016743 Eh     change       -0.2701127E-05 Eh
   gradient norm :     0.0005153 Eh/α   predicted    -0.1201806E-05 ( -55.51%)
   displ. norm   :     0.0509391 α      lambda       -0.2780757E-05
   maximum displ.:     0.0267890 α      in ANC's #1, #5, #2, ...

........................................................................
.............................. CYCLE    9 ..............................
........................................................................

 iter      E             dE          RMSdq      gap      omega  full diag
   1    -38.0527381 -0.380527E+02  0.121E-02   11.66       0.0  T
   2    -38.0527381 -0.147831E-07  0.728E-03   11.66       2.5  T
   3    -38.0527381 -0.666747E-08  0.393E-04   11.66      45.7  T
   4    -38.0527381 -0.648043E-09  0.228E-04   11.66      78.8  T
     SCC iter.                  ...        0 min,  0.050 sec
     gradient                   ...        0 min,  0.035 sec
 * total energy  :   -37.6016773 Eh     change       -0.2997697E-05 Eh
   gradient norm :     0.0003352 Eh/α   predicted    -0.1392624E-05 ( -53.54%)
   displ. norm   :     0.0387664 α      lambda       -0.1730542E-05
   maximum displ.:     0.0211460 α      in ANC's #1, #5, #2, ...

........................................................................
.............................. CYCLE   10 ..............................
........................................................................

 iter      E             dE          RMSdq      gap      omega  full diag
   1    -38.0526843 -0.380527E+02  0.830E-03   11.66       0.0  T
   2    -38.0526843 -0.115962E-07  0.500E-03   11.66       3.6  T
   3    -38.0526843 -0.399154E-08  0.360E-04   11.66      49.9  T
   4    -38.0526843 -0.105251E-08  0.202E-04   11.66      89.0  T
     SCC iter.                  ...        0 min,  0.050 sec
     gradient                   ...        0 min,  0.038 sec
 * total energy  :   -37.6016791 Eh     change       -0.1863160E-05 Eh
   gradient norm :     0.0002596 Eh/α   predicted    -0.8672257E-06 ( -53.45%)
   displ. norm   :     0.0322341 α      lambda       -0.1021797E-05
   maximum displ.:     0.0179898 α      in ANC's #1, #2, #5, ...

........................................................................
.............................. CYCLE   11 ..............................
........................................................................

 iter      E             dE          RMSdq      gap      omega  full diag
   1    -38.0526448 -0.380526E+02  0.690E-03   11.66       0.0  T
   2    -38.0526448 -0.615656E-08  0.415E-03   11.66       4.3  T
   3    -38.0526448 -0.258996E-08  0.257E-04   11.66      69.9  T
   4    -38.0526448 -0.311019E-09  0.147E-04   11.66     121.9  T
     SCC iter.                  ...        0 min,  0.047 sec
     gradient                   ...        0 min,  0.035 sec
 * total energy  :   -37.6016802 Eh     change       -0.1093687E-05 Eh
   gradient norm :     0.0001778 Eh/α   predicted    -0.5124209E-06 ( -53.15%)
   displ. norm   :     0.0248035 α      lambda       -0.6076218E-06
   maximum displ.:     0.0134438 α      in ANC's #1, #2, #6, ...

........................................................................
.............................. CYCLE   12 ..............................
........................................................................

 iter      E             dE          RMSdq      gap      omega  full diag
   1    -38.0526075 -0.380526E+02  0.513E-03   11.66       0.0  T
   2    -38.0526075 -0.310447E-08  0.308E-03   11.66       5.8  T
   3    -38.0526075 -0.146613E-08  0.183E-04   11.66      98.1  T
   4    -38.0526075 -0.101551E-09  0.102E-04   11.66     176.6  T
     SCC iter.                  ...        0 min,  0.059 sec
     gradient                   ...        0 min,  0.044 sec
 * total energy  :   -37.6016809 Eh     change       -0.7114606E-06 Eh
   gradient norm :     0.0001083 Eh/α   predicted    -0.3084676E-06 ( -56.64%)
   displ. norm   :     0.0265094 α      lambda       -0.5730897E-06
   maximum displ.:     0.0141005 α      in ANC's #2, #1, #4, ...

   *** GEOMETRY OPTIMIZATION CONVERGED AFTER 12 ITERATIONS ***

------------------------------------------------------------------------
 total energy gain   :        -0.0022677 Eh       -1.4230 kcal/mol
 total RMSD          :         0.0859627 a0        0.0455 Å
 total power (kW/mol):        -0.4961561 (step)   -3.4964 (real)
------------------------------------------------------------------------

 ANCopt (total)                0 d,  0 h,  0 min,  1.703 sec
 optimizer setup                ...        0 min,  0.001 sec (  0.047%)
 model hessian                  ...        0 min,  0.015 sec (  0.858%)
 ANC generation                 ...        0 min,  0.001 sec (  0.084%)
 coordinate transformation      ...        0 min,  0.000 sec (  0.010%)
 single point calculation       ...        0 min,  1.637 sec ( 96.127%)
 optimization log               ...        0 min,  0.002 sec (  0.105%)
 hessian update                 ...        0 min,  0.044 sec (  2.584%)
 rational function              ...        0 min,  0.001 sec (  0.061%)

================
 final structure:
================
31
 xtb: 6.7.1 (edcfbbe)
O           -5.89837497659595        0.13280506927026        1.54199646759732
C           -4.94078878593236        0.06269709506361        0.51207658819147
C           -3.50502365996450        0.04690063395308        1.03773442902971
C           -2.48334763572735        0.04152966855550       -0.09558883042724
C           -1.05001189758355        0.01447620371318        0.43034144601548
C           -0.02360784482792        0.00963019821306       -0.69991462029401
C            1.40911052631518       -0.02770512299085       -0.17209758710042
C            2.43023868248050       -0.02532819083718       -1.30828797204940
C            3.87261398678777       -0.18678657966664       -0.83046747225423
C            4.38644362992496        1.01586568046277       -0.03671906921401
O            5.76848444243163        0.93358659469665        0.22669377670058
H           -5.76422624768501       -0.61136463656792        2.13962972422611
H           -5.10862310707598        0.95195981759982       -0.09987517989599
H           -5.11592883926190       -0.82495480686293       -0.11483041037931
H           -3.36164191638960       -0.84106825721610        1.66131667827233
H           -3.35313135306903        0.92509821882191        1.66884554176579
H           -2.62571755553870        0.93070535454059       -0.71336974667670
H           -2.65270105966063       -0.83148452543981       -0.73059629787711
H           -0.88313028510232        0.88731167903239        1.06554413789246
H           -0.90899465046201       -0.87538015843387        1.04862805683982
H           -0.19594388949272       -0.85889770651269       -1.34005072643614
H           -0.15826004947340        0.90305334386393       -1.31370600750005
H            1.57181295508731        0.83720029865291        0.47297985750103
H            1.54498969449396       -0.92684887695438        0.43388118723293
H            2.19771043849656       -0.84842385966187       -1.98838747193946
H            2.34052556423753        0.90461941838345       -1.87373200153372
H            4.52417941725789       -0.31740349857463       -1.69780891608361
H            3.95345251436446       -1.08699450552853       -0.21343961702338
H            3.82904766283620        1.11931825993197        0.90473307043461
H            4.25754756019664        1.93190265493728       -0.61802826816725
H            5.94329667893227        0.11397282280605        0.70249923315317

 Bond Distances (Angstroems)
 ---------------------------
O1-C2=1.4081         O1-H12=0.9638        C2-O1=1.4081         C2-C3=1.5290         C2-H13=1.0924        C2-H14=1.1007        
C3-C2=1.5290         C3-C4=1.5259         C3-H15=1.0945        C3-H16=1.0921        C4-C3=1.5259         C4-C5=1.5270         
C4-H17=1.0920        C4-H18=1.0927        C5-C4=1.5270         C5-C6=1.5268         C5-H19=1.0923        C5-H20=1.0927        
C6-C5=1.5268         C6-C7=1.5273         C6-H21=1.0926        C6-H22=1.0923        C7-C6=1.5273         C7-C8=1.5276         
C7-H23=1.0912        C7-H24=1.0928        C8-C7=1.5276         C8-C9=1.5280         C8-H25=1.0927        C8-H26=1.0921        
C9-C8=1.5280         C9-C10=1.5298        C9-H27=1.0926        C9-H28=1.0944        C10-C9=1.5298        C10-O11=1.4093       
C10-H29=1.0990       C10-H30=1.0925       O11-C10=1.4093       O11-H31=0.9637       H12-O1=0.9638        H13-C2=1.0924        
H14-C2=1.1007        H15-C3=1.0945        H16-C3=1.0921        H17-C4=1.0920        H18-C4=1.0927        H19-C5=1.0923        
H20-C5=1.0927        H21-C6=1.0926        H22-C6=1.0923        H23-C7=1.0912        H24-C7=1.0928        H25-C8=1.0927        
H26-C8=1.0921        H27-C9=1.0926        H28-C9=1.0944        H29-C10=1.0990       H30-C10=1.0925       H31-O11=0.9637       
 C  H  Rav=1.0934 sigma=0.0024  Rmin=1.0912  Rmax=1.1007    18
 C  C  Rav=1.5277 sigma=0.0012  Rmin=1.5259  Rmax=1.5298     8
 O  H  Rav=0.9638 sigma=0.0001  Rmin=0.9637  Rmax=0.9638     2
 O  C  Rav=1.4087 sigma=0.0006  Rmin=1.4081  Rmax=1.4093     2

 selected bond angles (degree)
 --------------------
H12-O1-C2=108.69               C3-C2-O1=112.81                H13-C2-O1=105.35               H13-C2-C3=110.20               
H14-C2-O1=110.40               H14-C2-C3=109.69               H14-C2-H13=108.24              C4-C3-C2=111.93                
H15-C3-C2=109.10               H15-C3-C4=109.43               H16-C3-C2=108.72               H16-C3-C4=109.81               
H16-C3-H15=107.75              C5-C4-C3=111.88                H17-C4-C3=109.27               H17-C4-C5=109.37               
H18-C4-C3=109.31               H18-C4-C5=109.36               H18-C4-H17=107.55              C6-C5-C4=112.09                
H19-C5-C4=109.24               H19-C5-C6=109.29               H20-C5-C4=109.30               H20-C5-C6=109.24               
H20-C5-H19=107.58              C7-C6-C5=112.02                H21-C6-C5=109.28               H21-C6-C7=109.33               
H22-C6-C5=109.30               H22-C6-C7=109.26               H22-C6-H21=107.55              C8-C7-C6=111.71                
H23-C7-C6=108.95               H23-C7-C8=109.80               H24-C7-C6=109.17               H24-C7-C8=109.31               
H24-C7-H23=107.81              C9-C8-C7=113.47                H25-C8-C7=108.63               H25-C8-C9=108.41               
H26-C8-C7=109.36               H26-C8-C9=109.23               H26-C8-H25=107.56              C10-C9-C8=113.34               
H27-C9-C8=109.11               H27-C9-C10=107.79              H28-C9-C8=109.45               H28-C9-C10=109.23              
H28-C9-H27=107.77              O11-C10-C9=112.36              H29-C10-C9=110.37              H29-C10-O11=110.05             
H30-C10-C9=110.09              H30-C10-O11=105.31             H30-C10-H29=108.48             

 selected dihedral angles (degree)
 ---------------------------------
C3-C2-O1-H12=303.04           H13-C2-O1-H12=182.78          H14-C2-O1-H12= 66.15          C4-C3-C2-O1=182.87            
C4-C3-C2-H13=300.30           C4-C3-C2-H14= 59.36           H15-C3-C2-O1= 61.61           H15-C3-C2-H13=179.04          
H15-C3-C2-H14=298.11          H16-C3-C2-O1=304.35           H16-C3-C2-H13= 61.78          H16-C3-C2-H14=180.84          
C5-C4-C3-C2=180.46            C5-C4-C3-H15=301.52           C5-C4-C3-H16= 59.61           H17-C4-C3-C2= 59.19           
H17-C4-C3-H15=180.26          H17-C4-C3-H16=298.34          H18-C4-C3-C2=301.74           H18-C4-C3-H15= 62.80          
H18-C4-C3-H16=180.89          C6-C5-C4-C3=180.03            C6-C5-C4-H17=301.24           C6-C5-C4-H18= 58.77           
H19-C5-C4-C3=301.31           H19-C5-C4-H17= 62.52          H19-C5-C4-H18=180.06          H20-C5-C4-C3= 58.76           
H20-C5-C4-H17=179.98          H20-C5-C4-H18=297.51          C7-C6-C5-C4=180.42            C7-C6-C5-H19= 59.16           
C7-C6-C5-H20=301.71           H21-C6-C5-C4=301.73           H21-C6-C5-H19=180.47          H21-C6-C5-H20= 63.02          
H22-C6-C5-C4= 59.18           H22-C6-C5-H19=297.92          H22-C6-C5-H20=180.47          C8-C7-C6-C5=180.28            
C8-C7-C6-H21= 59.00           C8-C7-C6-H22=301.54           H23-C7-C6-C5=301.77           H23-C7-C6-H21=180.49          
H23-C7-C6-H22= 63.03          H24-C7-C6-C5= 59.27           H24-C7-C6-H21=297.99          H24-C7-C6-H22=180.53          
C9-C8-C7-C6=185.11            C9-C8-C7-H23= 64.11           C9-C8-C7-H24=306.04           H25-C8-C7-C6=305.76           
H25-C8-C7-H23=184.77          H25-C8-C7-H24= 66.70          H26-C8-C7-C6= 62.89           H26-C8-C7-H23=301.89          
H26-C8-C7-H24=183.82          C10-C9-C8-C7=292.18           C10-C9-C8-H25=171.41          C10-C9-C8-H26= 54.47          
H27-C9-C8-C7=172.07           H27-C9-C8-H25= 51.30          H27-C9-C8-H26=294.36          H28-C9-C8-C7= 54.37           
H28-C9-C8-H25=293.60          H28-C9-C8-H26=176.67          O11-C10-C9-C8=188.60          O11-C10-C9-H27=309.46         
O11-C10-C9-H28= 66.29         H29-C10-C9-C8= 65.37          H29-C10-C9-H27=186.22         H29-C10-C9-H28=303.05         
H30-C10-C9-C8=305.64          H30-C10-C9-H27= 66.49         H30-C10-C9-H28=183.32         
           -------------------------------------------------
          |                Final Singlepoint                |
           -------------------------------------------------

          ...................................................
          :                      SETUP                      :
          :.................................................:
          :  # basis functions                  64          :
          :  # atomic orbitals                  64          :
          :  # shells                           42          :
          :  # electrons                        68          :
          :  max. iterations                   250          :
          :  Hamiltonian                  GFN2-xTB          :
          :  restarted?                      false          :
          :  GBSA solvation                  false          :
          :  PC potential                    false          :
          :  electronic temp.          300.0000000     K    :
          :  accuracy                    1.0000000          :
          :  -> integral cutoff          0.2500000E+02      :
          :  -> integral neglect         0.1000000E-07      :
          :  -> SCF convergence          0.1000000E-05 Eh   :
          :  -> wf. convergence          0.1000000E-03 e    :
          :  Broyden damping             0.4000000          :
          :  net charge                          0          :
          :  unpaired electrons                  0          :
          ...................................................

 iter      E             dE          RMSdq      gap      omega  full diag
   1    -38.0526075 -0.380526E+02  0.253E-05   11.66       0.0  T
   2    -38.0526075 -0.190425E-11  0.163E-05   11.66    1101.0  T
   3    -38.0526075 -0.653699E-12  0.645E-06   11.66    2786.7  T

   *** convergence criteria satisfied after 3 iterations ***

         #    Occupation            Energy/Eh            Energy/eV
      -------------------------------------------------------------
         1        2.0000           -0.6868455             -18.6900
       ...           ...                  ...                  ...
        28        2.0000           -0.4396638             -11.9639
        29        2.0000           -0.4347813             -11.8310
        30        2.0000           -0.4332920             -11.7905
        31        2.0000           -0.4276494             -11.6369
        32        2.0000           -0.4266352             -11.6093
        33        2.0000           -0.4087191             -11.1218
        34        2.0000           -0.4064715             -11.0607 (HOMO)
        35                          0.0220329               0.5995 (LUMO)
        36                          0.0450939               1.2271
        37                          0.0678642               1.8467
        38                          0.0904551               2.4614
        39                          0.0957891               2.6066
       ...                                ...                  ...
        64                          0.3141501               8.5485
      -------------------------------------------------------------
                  HL-Gap            0.4285044 Eh           11.6602 eV
             Fermi-level           -0.1922193 Eh           -5.2306 eV

 SCC (total)                   0 d,  0 h,  0 min,  0.119 sec
 SCC setup                      ...        0 min,  0.005 sec (  3.799%)
 Dispersion                     ...        0 min,  0.009 sec (  7.520%)
 classical contributions        ...        0 min,  0.004 sec (  3.721%)
 integral evaluation            ...        0 min,  0.014 sec ( 11.657%)
 iterations                     ...        0 min,  0.044 sec ( 37.135%)
 molecular gradient             ...        0 min,  0.043 sec ( 36.019%)
 printout                       ...        0 min,  0.000 sec (  0.123%)

         :::::::::::::::::::::::::::::::::::::::::::::::::::::
         ::                     SUMMARY                     ::
         :::::::::::::::::::::::::::::::::::::::::::::::::::::
         :: total energy             -37.601680924185 Eh    ::
         :: gradient norm              0.000110488796 Eh/a0 ::
         :: HOMO-LUMO gap             11.660197833638 eV    ::
         ::.................................................::
         :: SCC energy               -38.052750926314 Eh    ::
         :: -> isotropic ES            0.052378199038 Eh    ::
         :: -> anisotropic ES          0.007770604803 Eh    ::
         :: -> anisotropic XC          0.012022216407 Eh    ::
         :: -> dispersion             -0.019107662857 Eh    ::
         :: repulsion energy           0.451070002130 Eh    ::
         :: add. restraining           0.000000000000 Eh    ::
         :: total charge              -0.000000000000 e     ::
         :::::::::::::::::::::::::::::::::::::::::::::::::::::

           -------------------------------------------------
          |                Property Printout                |
           -------------------------------------------------

    * Orbital Energies and Occupations

         #    Occupation            Energy/Eh            Energy/eV
      -------------------------------------------------------------
         1        2.0000           -0.6868455             -18.6900
       ...           ...                  ...                  ...
        22        2.0000           -0.4802614             -13.0686
        23        2.0000           -0.4731169             -12.8742
        24        2.0000           -0.4644357             -12.6379
        25        2.0000           -0.4552144             -12.3870
        26        2.0000           -0.4497690             -12.2388
        27        2.0000           -0.4466289             -12.1534
        28        2.0000           -0.4396638             -11.9639
        29        2.0000           -0.4347813             -11.8310
        30        2.0000           -0.4332920             -11.7905
        31        2.0000           -0.4276494             -11.6369
        32        2.0000           -0.4266352             -11.6093
        33        2.0000           -0.4087191             -11.1218
        34        2.0000           -0.4064715             -11.0607 (HOMO)
        35                          0.0220329               0.5995 (LUMO)
        36                          0.0450939               1.2271
        37                          0.0678642               1.8467
        38                          0.0904551               2.4614
        39                          0.0957891               2.6066
        40                          0.1018848               2.7724
        41                          0.1056241               2.8742
        42                          0.1181740               3.2157
        43                          0.1231945               3.3523
        44                          0.1306399               3.5549
        45                          0.1386023               3.7716
       ...                                ...                  ...
        64                          0.3141501               8.5485
      -------------------------------------------------------------
                  HL-Gap            0.4285044 Eh           11.6602 eV
             Fermi-level           -0.1922193 Eh           -5.2306 eV

     #   Z          covCN         q      C6AA      α(0)
     1   8 O        1.655    -0.441    21.668     6.284
     2   6 C        3.675     0.080    19.471     6.323
     3   6 C        3.801    -0.072    21.871     6.659
     4   6 C        3.803    -0.061    21.674     6.628
     5   6 C        3.803    -0.059    21.629     6.621
     6   6 C        3.803    -0.060    21.650     6.624
     7   6 C        3.802    -0.061    21.669     6.627
     8   6 C        3.802    -0.062    21.694     6.631
     9   6 C        3.799    -0.072    21.873     6.659
    10   6 C        3.674     0.080    19.477     6.324
    11   8 O        1.655    -0.443    21.706     6.289
    12   1 H        0.805     0.285     0.767     1.376
    13   1 H        0.924     0.048     2.351     2.398
    14   1 H        0.923     0.015     2.805     2.619
    15   1 H        0.924     0.030     2.590     2.517
    16   1 H        0.924     0.044     2.393     2.419
    17   1 H        0.924     0.034     2.534     2.490
    18   1 H        0.924     0.031     2.573     2.508
    19   1 H        0.924     0.033     2.542     2.493
    20   1 H        0.924     0.031     2.570     2.507
    21   1 H        0.924     0.031     2.572     2.508
    22   1 H        0.924     0.032     2.557     2.501
    23   1 H        0.924     0.032     2.565     2.505
    24   1 H        0.924     0.032     2.565     2.505
    25   1 H        0.924     0.036     2.504     2.475
    26   1 H        0.924     0.034     2.528     2.486
    27   1 H        0.924     0.044     2.390     2.418
    28   1 H        0.924     0.030     2.589     2.516
    29   1 H        0.923     0.017     2.776     2.605
    30   1 H        0.924     0.048     2.346     2.395
    31   1 H        0.805     0.285     0.769     1.377

 Mol. C6AA /au·bohr⁶  :       6565.994073
 Mol. C8AA /au·bohr⁸  :     136829.677285
 Mol. α(0) /au        :        119.287661


Wiberg/Mayer (AO) data.
largest (>0.10) Wiberg bond orders for each atom

 ---------------------------------------------------------------------------
     #   Z sym  total        # sym  WBO       # sym  WBO       # sym  WBO
 ---------------------------------------------------------------------------
     1   8 O    1.960 --     2 C    1.000    12 H    0.904
     2   6 C    3.956 --     1 O    1.000     3 C    0.998    13 H    0.973
                            14 H    0.970
     3   6 C    3.996 --     4 C    1.007     2 C    0.998    16 H    0.977
                            15 H    0.976
     4   6 C    3.997 --     5 C    1.007     3 C    1.007    17 H    0.977
                            18 H    0.977
     5   6 C    3.997 --     6 C    1.007     4 C    1.007    20 H    0.977
                            19 H    0.977
     6   6 C    3.997 --     5 C    1.007     7 C    1.007    22 H    0.977
                            21 H    0.977
     7   6 C    3.997 --     8 C    1.008     6 C    1.007    24 H    0.977
                            23 H    0.976
     8   6 C    3.996 --     7 C    1.008     9 C    1.006    26 H    0.977
                            25 H    0.977
     9   6 C    3.996 --     8 C    1.006    10 C    0.999    28 H    0.976
                            27 H    0.976
    10   6 C    3.955 --     9 C    0.999    11 O    0.998    30 H    0.973
                            29 H    0.970
    11   8 O    1.959 --    10 C    0.998    31 H    0.904
    12   1 H    0.919 --     1 O    0.904
    13   1 H    0.998 --     2 C    0.973
    14   1 H    1.000 --     2 C    0.970
    15   1 H    0.999 --     3 C    0.976
    16   1 H    0.998 --     3 C    0.977
    17   1 H    0.999 --     4 C    0.977
    18   1 H    0.999 --     4 C    0.977
    19   1 H    0.999 --     5 C    0.977
    20   1 H    0.999 --     5 C    0.977
    21   1 H    0.999 --     6 C    0.977
    22   1 H    0.999 --     6 C    0.977
    23   1 H    0.999 --     7 C    0.976
    24   1 H    0.999 --     7 C    0.977
    25   1 H    0.999 --     8 C    0.977
    26   1 H    0.999 --     8 C    0.977
    27   1 H    0.998 --     9 C    0.976
    28   1 H    0.999 --     9 C    0.976
    29   1 H    1.000 --    10 C    0.970
    30   1 H    0.998 --    10 C    0.973
    31   1 H    0.919 --    11 O    0.904
 ---------------------------------------------------------------------------

Topologies differ in total number of bonds
Writing topology from bond orders to xtbtopo.mol

molecular dipole:
                 x           y           z       tot (Debye)
 q only:        0.070      -0.752       0.035
   full:        0.085      -1.111       0.153       2.859
molecular quadrupole (traceless):
                xx          xy          yy          xz          yz          zz
 q only:      -16.702      -2.101       6.802       3.246      -2.879       9.900
  q+dip:      -25.294      -2.144      12.120       5.375      -4.357      13.174
   full:      -23.505      -2.281      10.546       5.093      -4.437      12.959

           -------------------------------------------------
          |                Geometry Summary                 |
           -------------------------------------------------

      molecular mass/u    :      160.2542479
   center of mass at/Å    :       -0.0055854       0.1870858       0.0856130
  moments of inertia/u·Å² :        0.1112501E+03   0.2440852E+04   0.2504253E+04
rotational constants/cm⁻¹ :        0.1515291E+00   0.6906453E-02   0.6731601E-02

 * 30 selected distances

     #   Z          #   Z                                           value/Å
     1   8 O        2   6 C                                       1.4080560
     2   6 C        3   6 C                                       1.5290479
     3   6 C        4   6 C                                       1.5258679
     4   6 C        5   6 C                                       1.5270188
     5   6 C        6   6 C                                       1.5267639
     6   6 C        7   6 C                                       1.5273071
     7   6 C        8   6 C                                       1.5276248
     8   6 C        9   6 C                                       1.5280145
     9   6 C       10   6 C                                       1.5298465 (max)
    10   6 C       11   8 O                                       1.4093237
     1   8 O       12   1 H                                       0.9638206
     2   6 C       13   1 H                                       1.0924476
     2   6 C       14   1 H                                       1.1007327
     3   6 C       15   1 H                                       1.0944871
     3   6 C       16   1 H                                       1.0920640
     4   6 C       17   1 H                                       1.0920422
     4   6 C       18   1 H                                       1.0927347
     5   6 C       19   1 H                                       1.0923250
     5   6 C       20   1 H                                       1.0927071
     6   6 C       21   1 H                                       1.0926184
     6   6 C       22   1 H                                       1.0922803
     7   6 C       23   1 H                                       1.0911730
     7   6 C       24   1 H                                       1.0927640
     8   6 C       25   1 H                                       1.0927449
     8   6 C       26   1 H                                       1.0920523
     9   6 C       27   1 H                                       1.0926480
     9   6 C       28   1 H                                       1.0943641
    10   6 C       29   1 H                                       1.0989654
    10   6 C       30   1 H                                       1.0925468
    11   8 O       31   1 H                                       0.9636997 (min)

 * 4 distinct bonds (by element types)

   Z      Z             #   av. dist./Å        max./Å        min./Å
   1 H    6 C          18     1.0934276     1.1007327     1.0911730
   6 C    6 C           8     1.5276864     1.5298465     1.5258679
   1 H    8 O           2     0.9637601     0.9638206     0.9636997
   6 C    8 O           2     1.4086899     1.4093237     1.4080560


optimized geometry written to: xtbopt.xyz


           -------------------------------------------------
          | TOTAL ENERGY              -37.601680924185 Eh   |
          | GRADIENT NORM               0.000110488796 Eh/α |
          | HOMO-LUMO GAP              11.660197833638 eV   |
           -------------------------------------------------

------------------------------------------------------------------------
 * finished run on 2026/07/09 at 07:11:00.684     
------------------------------------------------------------------------
 total:
 * wall-time:     0 d,  0 h,  0 min,  2.141 sec
 *  cpu-time:     0 d,  0 h,  0 min, 34.123 sec
 * ratio c/w:    15.938 speedup
 SCF:
 * wall-time:     0 d,  0 h,  0 min,  0.251 sec
 *  cpu-time:     0 d,  0 h,  0 min,  4.011 sec
 * ratio c/w:    16.009 speedup
 ANC optimizer:
 * wall-time:     0 d,  0 h,  0 min,  1.828 sec
 *  cpu-time:     0 d,  0 h,  0 min, 29.189 sec
 * ratio c/w:    15.968 speedup

