      -----------------------------------------------------------      
     |                   =====================                   |     
     |                           x T B                           |     
     |                   =====================                   |     
     |                         S. Grimme                         |     
     |          Mulliken Center for Theoretical Chemistry        |     
     |                    University of Bonn                     |     
      -----------------------------------------------------------      

   * xtb version 6.7.1 (edcfbbe) compiled by 'conda@5dfe00f5fb80' on 2026-06-10

   xtb is free software: you can redistribute it and/or modify it under
   the terms of the GNU Lesser General Public License as published by
   the Free Software Foundation, either version 3 of the License, or
   (at your option) any later version.
   
   xtb is distributed in the hope that it will be useful,
   but WITHOUT ANY WARRANTY; without even the implied warranty of
   MERCHANTABILITY or FITNESS FOR A PARTICULAR PURPOSE.  See the
   GNU Lesser General Public License for more details.
   
   Cite this work as:
   * C. Bannwarth, E. Caldeweyher, S. Ehlert, A. Hansen, P. Pracht,
     J. Seibert, S. Spicher, S. Grimme, WIREs Comput. Mol. Sci., 2020, 11,
     e01493. DOI: 10.1002/wcms.1493
   
   for GFN2-xTB:
   * C. Bannwarth, S. Ehlert and S. Grimme., J. Chem. Theory Comput., 2019,
     15, 1652-1671. DOI: 10.1021/acs.jctc.8b01176
   for GFN1-xTB:
   * S. Grimme, C. Bannwarth, P. Shushkov, J. Chem. Theory Comput., 2017,
     13, 1989-2009. DOI: 10.1021/acs.jctc.7b00118
   for GFN0-xTB:
   * P. Pracht, E. Caldeweyher, S. Ehlert, S. Grimme, ChemRxiv, 2019, preprint.
     DOI: 10.26434/chemrxiv.8326202.v1
   for GFN-FF:
   * S. Spicher and S. Grimme, Angew. Chem. Int. Ed., 2020, 59, 15665-15673.
     DOI: 10.1002/anie.202004239
   
   for ALPB and GBSA implicit solvation:
   * S. Ehlert, M. Stahn, S. Spicher, S. Grimme, J. Chem. Theory Comput.,
     2021, 17, 4250-4261. DOI: 10.1021/acs.jctc.1c00471
   
   for ddCOSMO and CPCM-X implicit solvation:
   * M. Stahn, S. Ehlert, S. Grimme, J. Phys. Chem. A,
     2023, XX, XXXX-XXXX. DOI: 10.1021/acs.jpca.3c04382
   
   for DFT-D4:
   * E. Caldeweyher, C. Bannwarth and S. Grimme, J. Chem. Phys., 2017,
     147, 034112. DOI: 10.1063/1.4993215
   * E. Caldeweyher, S. Ehlert, A. Hansen, H. Neugebauer, S. Spicher,
     C. Bannwarth and S. Grimme, J. Chem. Phys., 2019, 150, 154122.
     DOI: 10.1063/1.5090222
   * E. Caldeweyher, J.-M. Mewes, S. Ehlert and S. Grimme, Phys. Chem. Chem. Phys.
     2020, 22, 8499-8512. DOI: 10.1039/D0CP00502A
   
   for sTDA-xTB:
   * S. Grimme and C. Bannwarth, J. Chem. Phys., 2016, 145, 054103.
     DOI: 10.1063/1.4959605
   
   in the mass-spec context:
   * V. Asgeirsson, C. Bauer and S. Grimme, Chem. Sci., 2017, 8, 4879.
     DOI: 10.1039/c7sc00601b
   * J. Koopman and S. Grimme, ACS Omega 2019, 4, 12, 15120-15133.
     DOI: 10.1021/acsomega.9b02011
   
   for metadynamics refer to:
   * S. Grimme, J. Chem. Theory Comput., 2019, 155, 2847-2862
     DOI: 10.1021/acs.jctc.9b00143
   
   for SPH calculations refer to:
   * S. Spicher and S. Grimme, J. Chem. Theory Comput., 2021, 17, 1701-1714
     DOI: 10.1021/acs.jctc.0c01306
   
   for ONIOM refer to:
   * C. Plett, A. Katbashev, S. Ehlert, S. Grimme, M. Bursch,
     Phys. Chem. Chem. Phys., 2023, 25, 17860-17868. DOI: 10.1039/D3CP02178E
   
   for DIPRO refer to:
   * J. Kohn, N. Gildemeister, S. Grimme, D. Fazzi, A. Hansen,
     J. Chem. Phys., 2023, just accepted.
   
   for PTB refer to:
   * S. Grimme, M. Mueller, A. Hansen, J. Chem. Phys., 2023, 158, 124111.
     DOI: 10.1063/5.0137838
   
   with help from (in alphabetical order)
   P. Atkinson, C. Bannwarth, F. Bohle, G. Brandenburg, E. Caldeweyher
   M. Checinski, S. Dohm, S. Ehlert, S. Ehrlich, I. Gerasimov, C. Hölzer
   A. Katbashev, J. Kohn, J. Koopman, C. Lavigne, S. Lehtola, F. März, M. Müller,
   F. Musil, H. Neugebauer, J. Pisarek, C. Plett, P. Pracht, F. Pultar,
   J. Seibert, P. Shushkov, S. Spicher, M. Stahn, M. Steiner, T. Strunk,
   J. Stückrath, T. Rose, and J. Unsleber
   
 * started run on 2026/07/07 at 20:19:44.976     
   ID    Z sym.   atoms
    1    6 C      1-3, 6-11
    2    7 N      4
    3    8 O      5
    4    1 H      12-22

           -------------------------------------------------
          |                Calculation Setup                |
           -------------------------------------------------

          program call               : /home/ws/xd2484/miniforge3/envs/p3z_dft/bin/xtb xtb_input.xyz --gfn 2 --opt tight --cycles 500 --chrg 0 --uhf 0
          hostname                   : gpu10
          coordinate file            : xtb_input.xyz
          omp threads                :                    16


           -------------------------------------------------
          |                 G F N 2 - x T B                 |
           -------------------------------------------------

        Reference                      10.1021/acs.jctc.8b01176
      * Hamiltonian:
        H0-scaling (s, p, d)           1.850000    2.230000    2.230000
        zeta-weighting                 0.500000
      * Dispersion:
        s8                             2.700000
        a1                             0.520000
        a2                             5.000000
        s9                             5.000000
      * Repulsion:
        kExp                           1.500000    1.000000
        rExp                           1.000000
      * Coulomb:
        alpha                          2.000000
        third order                    shell-resolved
        anisotropic                    true
        a3                             3.000000
        a5                             4.000000
        cn-shift                       1.200000
        cn-exp                         4.000000
        max-rad                        5.000000


          ...................................................
          :                      SETUP                      :
          :.................................................:
          :  # basis functions                  55          :
          :  # atomic orbitals                  55          :
          :  # shells                           33          :
          :  # electrons                        58          :
          :  max. iterations                   250          :
          :  Hamiltonian                  GFN2-xTB          :
          :  restarted?                      false          :
          :  GBSA solvation                  false          :
          :  PC potential                    false          :
          :  electronic temp.          300.0000000     K    :
          :  accuracy                    1.0000000          :
          :  -> integral cutoff          0.2500000E+02      :
          :  -> integral neglect         0.1000000E-07      :
          :  -> SCF convergence          0.1000000E-05 Eh   :
          :  -> wf. convergence          0.1000000E-03 e    :
          :  Broyden damping             0.4000000          :
          :  net charge                          0          :
          :  unpaired electrons                  0          :
          ...................................................

 iter      E             dE          RMSdq      gap      omega  full diag
   1    -32.1995173 -0.321995E+02  0.407E+00    4.09       0.0  T
   2    -32.2321382 -0.326209E-01  0.247E+00    4.30       1.0  T
   3    -32.2222897  0.984856E-02  0.123E+00    3.97       1.0  T
   4    -32.2377739 -0.154843E-01  0.537E-01    4.09       1.0  T
   5    -32.2407929 -0.301900E-02  0.982E-02    4.03       1.0  T
   6    -32.2408465 -0.535684E-04  0.557E-02    4.04       1.0  T
   7    -32.2408711 -0.245805E-04  0.208E-02    4.06       1.0  T
   8    -32.2408722 -0.107533E-05  0.735E-03    4.06       2.9  T
   9    -32.2408725 -0.289188E-06  0.313E-03    4.06       6.8  T
  10    -32.2408725 -0.764369E-07  0.137E-03    4.06      15.5  T
  11    -32.2408725 -0.173454E-08  0.507E-04    4.06      42.0  T
  12    -32.2408725 -0.305439E-08  0.185E-04    4.06     115.3  T

   *** convergence criteria satisfied after 12 iterations ***

         #    Occupation            Energy/Eh            Energy/eV
      -------------------------------------------------------------
         1        2.0000           -0.7085439             -19.2805
       ...           ...                  ...                  ...
        23        2.0000           -0.4452798             -12.1167
        24        2.0000           -0.4265262             -11.6064
        25        2.0000           -0.4214289             -11.4677
        26        2.0000           -0.4069129             -11.0727
        27        2.0000           -0.4028304             -10.9616
        28        2.0000           -0.4008845             -10.9086
        29        2.0000           -0.3964611             -10.7883 (HOMO)
        30                         -0.2474047              -6.7322 (LUMO)
        31                         -0.2261343              -6.1534
        32                         -0.2232955              -6.0762
        33                         -0.1017411              -2.7685
        34                         -0.0421674              -1.1474
       ...                                ...                  ...
        55                          0.6292982              17.1241
      -------------------------------------------------------------
                  HL-Gap            0.1490564 Eh            4.0560 eV
             Fermi-level           -0.3219329 Eh           -8.7602 eV

 SCC (total)                   0 d,  0 h,  0 min,  0.217 sec
 SCC setup                      ...        0 min,  0.010 sec (  4.824%)
 Dispersion                     ...        0 min,  0.020 sec (  9.453%)
 classical contributions        ...        0 min,  0.011 sec (  5.024%)
 integral evaluation            ...        0 min,  0.012 sec (  5.419%)
 iterations                     ...        0 min,  0.128 sec ( 59.224%)
 molecular gradient             ...        0 min,  0.035 sec ( 15.969%)
 printout                       ...        0 min,  0.000 sec (  0.071%)

         :::::::::::::::::::::::::::::::::::::::::::::::::::::
         ::                     SUMMARY                     ::
         :::::::::::::::::::::::::::::::::::::::::::::::::::::
         :: total energy             -31.788217080077 Eh    ::
         :: gradient norm              0.071586364143 Eh/a0 ::
         :: HOMO-LUMO gap              4.056031465872 eV    ::
         ::.................................................::
         :: SCC energy               -32.240778343646 Eh    ::
         :: -> isotropic ES            0.023461984344 Eh    ::
         :: -> anisotropic ES         -0.000789211318 Eh    ::
         :: -> anisotropic XC          0.025071017855 Eh    ::
         :: -> dispersion             -0.017990269307 Eh    ::
         :: repulsion energy           0.452561263569 Eh    ::
         :: add. restraining           0.000000000000 Eh    ::
         :: total charge               0.000000000000 e     ::
         :::::::::::::::::::::::::::::::::::::::::::::::::::::

      ----------------------------------------------------------- 
     |                   =====================                   |
     |                        A N C O P T                        |
     |                   =====================                   |
     |               Approximate Normal Coordinate               |
     |                Rational Function Optimizer                |
      ----------------------------------------------------------- 
      ----------------------------------------------------------- 
     |                   =====================                   |
     |                        A N C O P T                        |
     |                   =====================                   |
     |               Approximate Normal Coordinate               |
     |                Rational Function Optimizer                |
      ----------------------------------------------------------- 

          ...................................................
          :                      SETUP                      :
          :.................................................:
          :   optimization level             tight          :
          :   max. optcycles                   500          :
          :   ANC micro-cycles                  20          :
          :   degrees of freedom                60          :
          :.................................................:
          :   RF solver                   davidson          :
          :   write xtbopt.log                true          :
          :   linear?                        false          :
          :   energy convergence         0.1000000E-05 Eh   :
          :   grad. convergence          0.8000000E-03 Eh/α :
          :   maxmium RF displ.          1.0000000          :
          :   Hlow (freq-cutoff)         0.1000000E-01      :
          :   Hmax (freq-cutoff)         5.0000000          :
          :   S6 in model hess.         20.0000000          :
          ...................................................

generating ANC from exact Hessian ...
Using Lindh-Hessian (1995)
 Shifting diagonal of input Hessian by    8.8291928578685293E-003
 Lowest  eigenvalues of input Hessian
    0.000000    0.000000    0.000000    0.000000    0.000000    0.000000
    0.010000    0.010208    0.012217    0.014331    0.017076    0.017871
    0.019463    0.022723    0.028622    0.030800    0.032988    0.035370
 Highest eigenvalues
    1.520174    1.552683    1.825047    1.878921    1.927909    1.941466


........................................................................
.............................. CYCLE    1 ..............................
........................................................................

 iter      E             dE          RMSdq      gap      omega  full diag
   1    -32.2408725 -0.322409E+02  0.797E-05    4.06       0.0  T
   2    -32.2408725 -0.160085E-10  0.494E-05    4.06     431.7  T
   3    -32.2408725  0.218137E-11  0.294E-05    4.06     724.7  T
     SCC iter.                  ...        0 min,  0.036 sec
     gradient                   ...        0 min,  0.036 sec
 * total energy  :   -31.7882171 Eh     change       -0.3233183E-09 Eh
   gradient norm :     0.0715855 Eh/α   predicted     0.0000000E+00 (-100.00%)
   displ. norm   :     0.1995598 α      lambda       -0.7581390E-02
   maximum displ.:     0.0960676 α      in ANC's #14, #13, #38, ...

........................................................................
.............................. CYCLE    2 ..............................
........................................................................

 iter      E             dE          RMSdq      gap      omega  full diag
   1    -32.2750826 -0.322751E+02  0.179E-01    4.21       0.0  T
   2    -32.2750943 -0.117007E-04  0.109E-01    4.20       1.0  T
   3    -32.2750546  0.396383E-04  0.478E-02    4.21       1.0  T
   4    -32.2751022 -0.475642E-04  0.604E-03    4.20       3.5  T
   5    -32.2751024 -0.182508E-06  0.249E-03    4.20       8.6  T
   6    -32.2751024 -0.329415E-08  0.103E-03    4.20      20.6  T
   7    -32.2751024 -0.136662E-07  0.315E-04    4.20      67.6  T
   8    -32.2751024 -0.776780E-09  0.132E-04    4.20     161.5  T
     SCC iter.                  ...        0 min,  0.099 sec
     gradient                   ...        0 min,  0.032 sec
 * total energy  :   -31.7930157 Eh     change       -0.4798624E-02 Eh
   gradient norm :     0.0196034 Eh/α   predicted    -0.3942170E-02 ( -17.85%)
   displ. norm   :     0.1507972 α      lambda       -0.1092820E-02
   maximum displ.:     0.0865527 α      in ANC's #14, #4, #13, ...

........................................................................
.............................. CYCLE    3 ..............................
........................................................................

 iter      E             dE          RMSdq      gap      omega  full diag
   1    -32.2868333 -0.322868E+02  0.787E-02    4.21       0.0  T
   2    -32.2868355 -0.214254E-05  0.462E-02    4.20       1.0  T
   3    -32.2868341  0.135050E-05  0.971E-03    4.20       2.2  T
   4    -32.2868361 -0.198457E-05  0.298E-03    4.20       7.1  T
   5    -32.2868362 -0.701765E-07  0.136E-03    4.20      15.6  T
   6    -32.2868362 -0.282580E-08  0.546E-04    4.20      39.1  T
   7    -32.2868362 -0.381358E-08  0.166E-04    4.20     128.1  T
     SCC iter.                  ...        0 min,  0.110 sec
     gradient                   ...        0 min,  0.039 sec
 * total energy  :   -31.7936420 Eh     change       -0.6262456E-03 Eh
   gradient norm :     0.0063511 Eh/α   predicted    -0.5595379E-03 ( -10.65%)
   displ. norm   :     0.1041494 α      lambda       -0.2469295E-03
   maximum displ.:     0.0491790 α      in ANC's #11, #1, #14, ...

........................................................................
.............................. CYCLE    4 ..............................
........................................................................

 iter      E             dE          RMSdq      gap      omega  full diag
   1    -32.2878373 -0.322878E+02  0.628E-02    4.18       0.0  T
   2    -32.2878398 -0.248358E-05  0.359E-02    4.19       1.0  T
   3    -32.2878363  0.352068E-05  0.178E-02    4.18       1.2  T
   4    -32.2878414 -0.508569E-05  0.214E-03    4.18      10.0  T
   5    -32.2878414 -0.141776E-07  0.116E-03    4.18      18.3  T
   6    -32.2878414 -0.985833E-08  0.558E-04    4.18      38.2  T
   7    -32.2878414 -0.258830E-08  0.185E-04    4.18     115.4  T
     SCC iter.                  ...        0 min,  0.099 sec
     gradient                   ...        0 min,  0.041 sec
 * total energy  :   -31.7937988 Eh     change       -0.1568516E-03 Eh
   gradient norm :     0.0051038 Eh/α   predicted    -0.1248055E-03 ( -20.43%)
   displ. norm   :     0.1237572 α      lambda       -0.1622713E-03
   maximum displ.:     0.0595272 α      in ANC's #1, #3, #11, ...

........................................................................
.............................. CYCLE    5 ..............................
........................................................................

 iter      E             dE          RMSdq      gap      omega  full diag
   1    -32.2866849 -0.322867E+02  0.535E-02    4.16       0.0  T
   2    -32.2866889 -0.396496E-05  0.328E-02    4.17       1.0  T
   3    -32.2866878  0.110100E-05  0.193E-02    4.16       1.1  T
   4    -32.2866920 -0.424260E-05  0.267E-03    4.16       8.0  T
   5    -32.2866920 -0.245587E-07  0.141E-03    4.16      15.1  T
   6    -32.2866921 -0.171026E-07  0.726E-04    4.16      29.4  T
   7    -32.2866921 -0.354292E-08  0.239E-04    4.16      89.1  T
     SCC iter.                  ...        0 min,  0.141 sec
     gradient                   ...        0 min,  0.052 sec
 * total energy  :   -31.7938937 Eh     change       -0.9490920E-04 Eh
   gradient norm :     0.0026606 Eh/α   predicted    -0.8238340E-04 ( -13.20%)
   displ. norm   :     0.0715941 α      lambda       -0.4374953E-04
   maximum displ.:     0.0400429 α      in ANC's #3, #1, #2, ...

........................................................................
.............................. CYCLE    6 ..............................
........................................................................

 iter      E             dE          RMSdq      gap      omega  full diag
   1    -32.2858621 -0.322859E+02  0.376E-02    4.16       0.0  T
   2    -32.2858629 -0.807961E-06  0.217E-02    4.16       1.0  T
   3    -32.2858613  0.152495E-05  0.115E-02    4.16       1.9  T
   4    -32.2858635 -0.219757E-05  0.126E-03    4.16      16.9  T
   5    -32.2858635 -0.332110E-08  0.649E-04    4.16      32.8  T
   6    -32.2858635 -0.369934E-08  0.284E-04    4.16      75.1  T
     SCC iter.                  ...        0 min,  0.094 sec
     gradient                   ...        0 min,  0.054 sec
 * total energy  :   -31.7939270 Eh     change       -0.3329733E-04 Eh
   gradient norm :     0.0017372 Eh/α   predicted    -0.2198724E-04 ( -33.97%)
   displ. norm   :     0.1678439 α      lambda       -0.4804471E-04
   maximum displ.:     0.1028810 α      in ANC's #3, #1, #2, ...

........................................................................
.............................. CYCLE    7 ..............................
........................................................................

 iter      E             dE          RMSdq      gap      omega  full diag
   1    -32.2849351 -0.322849E+02  0.893E-02    4.15       0.0  T
   2    -32.2849371 -0.197213E-05  0.509E-02    4.16       1.0  T
   3    -32.2849343  0.281649E-05  0.143E-02    4.15       1.5  T
   4    -32.2849382 -0.387264E-05  0.265E-03    4.15       8.0  T
   5    -32.2849382 -0.115516E-08  0.983E-04    4.15      21.7  T
   6    -32.2849382 -0.145366E-07  0.304E-04    4.15      70.0  T
     SCC iter.                  ...        0 min,  0.103 sec
     gradient                   ...        0 min,  0.047 sec
 * total energy  :   -31.7939713 Eh     change       -0.4428116E-04 Eh
   gradient norm :     0.0033247 Eh/α   predicted    -0.2432432E-04 ( -45.07%)
   displ. norm   :     0.0719793 α      lambda       -0.2810982E-04
   maximum displ.:     0.0407019 α      in ANC's #3, #2, #1, ...

........................................................................
.............................. CYCLE    8 ..............................
........................................................................

 iter      E             dE          RMSdq      gap      omega  full diag
   1    -32.2852687 -0.322853E+02  0.425E-02    4.15       0.0  T
   2    -32.2852691 -0.422506E-06  0.243E-02    4.15       1.0  T
   3    -32.2852688  0.266119E-06  0.474E-03    4.15       4.5  T
   4    -32.2852693 -0.453354E-06  0.124E-03    4.15      17.2  T
   5    -32.2852693 -0.275273E-08  0.281E-04    4.15      76.0  T
   6    -32.2852693 -0.209411E-09  0.115E-04    4.15     185.4  T
     SCC iter.                  ...        0 min,  0.100 sec
     gradient                   ...        0 min,  0.028 sec
 * total energy  :   -31.7939971 Eh     change       -0.2577084E-04 Eh
   gradient norm :     0.0028148 Eh/α   predicted    -0.1412789E-04 ( -45.18%)
   displ. norm   :     0.2299112 α      lambda       -0.8723011E-04
   maximum displ.:     0.1305329 α      in ANC's #2, #3, #1, ...

........................................................................
.............................. CYCLE    9 ..............................
........................................................................

 iter      E             dE          RMSdq      gap      omega  full diag
   1    -32.2856182 -0.322856E+02  0.141E-01    4.15       0.0  T
   2    -32.2856230 -0.484289E-05  0.806E-02    4.15       1.0  T
   3    -32.2856196  0.339285E-05  0.167E-02    4.15       1.3  T
   4    -32.2856253 -0.561310E-05  0.415E-03    4.15       5.1  T
   5    -32.2856253 -0.287489E-07  0.858E-04    4.15      24.8  T
   6    -32.2856253 -0.242449E-08  0.362E-04    4.15      58.8  T
     SCC iter.                  ...        0 min,  0.227 sec
     gradient                   ...        0 min,  0.052 sec
 * total energy  :   -31.7940633 Eh     change       -0.6628754E-04 Eh
   gradient norm :     0.0025071 Eh/α   predicted    -0.4592402E-04 ( -30.72%)
   displ. norm   :     0.2346885 α      lambda       -0.6007689E-04
   maximum displ.:     0.1426844 α      in ANC's #2, #1, #3, ...

........................................................................
.............................. CYCLE   10 ..............................
........................................................................

 iter      E             dE          RMSdq      gap      omega  full diag
   1    -32.2855306 -0.322855E+02  0.137E-01    4.14       0.0  T
   2    -32.2855349 -0.430143E-05  0.780E-02    4.14       1.0  T
   3    -32.2855339  0.102783E-05  0.120E-02    4.14       1.8  T
   4    -32.2855366 -0.278822E-05  0.394E-03    4.14       5.4  T
   5    -32.2855367 -0.433471E-07  0.835E-04    4.14      25.5  T
   6    -32.2855367 -0.217173E-08  0.300E-04    4.14      71.2  T
     SCC iter.                  ...        0 min,  0.140 sec
     gradient                   ...        0 min,  0.063 sec
 * total energy  :   -31.7941050 Eh     change       -0.4169702E-04 Eh
   gradient norm :     0.0037276 Eh/α   predicted    -0.3169836E-04 ( -23.98%)
   displ. norm   :     0.1344987 α      lambda       -0.4139924E-04
   maximum displ.:     0.0927591 α      in ANC's #2, #1, #3, ...

........................................................................
.............................. CYCLE   11 ..............................
........................................................................

 iter      E             dE          RMSdq      gap      omega  full diag
   1    -32.2864903 -0.322865E+02  0.711E-02    4.14       0.0  T
   2    -32.2864914 -0.110977E-05  0.405E-02    4.13       1.0  T
   3    -32.2864911  0.327322E-06  0.637E-03    4.14       3.3  T
   4    -32.2864919 -0.770654E-06  0.202E-03    4.14      10.6  T
   5    -32.2864919 -0.144247E-07  0.559E-04    4.14      38.1  T
   6    -32.2864919 -0.506759E-09  0.170E-04    4.14     125.6  T
     SCC iter.                  ...        0 min,  0.097 sec
     gradient                   ...        0 min,  0.044 sec
 * total energy  :   -31.7941353 Eh     change       -0.3020870E-04 Eh
   gradient norm :     0.0018527 Eh/α   predicted    -0.2107876E-04 ( -30.22%)
   displ. norm   :     0.2368800 α      lambda       -0.3129687E-04
   maximum displ.:     0.1640999 α      in ANC's #2, #1, #3, ...

........................................................................
.............................. CYCLE   12 ..............................
........................................................................

 iter      E             dE          RMSdq      gap      omega  full diag
   1    -32.2859438 -0.322859E+02  0.137E-01    4.13       0.0  T
   2    -32.2859478 -0.394186E-05  0.780E-02    4.13       1.0  T
   3    -32.2859489 -0.112357E-05  0.606E-03    4.13       3.5  T
   4    -32.2859491 -0.246068E-06  0.344E-03    4.13       6.2  T
   5    -32.2859492 -0.961386E-07  0.832E-04    4.13      25.6  T
   6    -32.2859492 -0.361150E-08  0.345E-04    4.13      61.8  T
     SCC iter.                  ...        0 min,  0.088 sec
     gradient                   ...        0 min,  0.033 sec
 * total energy  :   -31.7941640 Eh     change       -0.2872254E-04 Eh
   gradient norm :     0.0025650 Eh/α   predicted    -0.1604339E-04 ( -44.14%)
   displ. norm   :     0.0590036 α      lambda       -0.1814418E-04
   maximum displ.:     0.0487490 α      in ANC's #2, #1, #4, ...

........................................................................
.............................. CYCLE   13 ..............................
........................................................................

 iter      E             dE          RMSdq      gap      omega  full diag
   1    -32.2866577 -0.322867E+02  0.257E-02    4.13       0.0  T
   2    -32.2866578 -0.862354E-07  0.150E-02    4.13       1.4  T
   3    -32.2866578 -0.799039E-08  0.118E-03    4.13      18.0  T
   4    -32.2866578 -0.134664E-07  0.640E-04    4.13      33.3  T
   5    -32.2866578 -0.394444E-08  0.237E-04    4.13      90.0  T
     SCC iter.                  ...        0 min,  0.061 sec
     gradient                   ...        0 min,  0.033 sec
 * total energy  :   -31.7941756 Eh     change       -0.1160676E-04 Eh
   gradient norm :     0.0010692 Eh/α   predicted    -0.9104829E-05 ( -21.56%)
   displ. norm   :     0.1067972 α      lambda       -0.1051443E-04
   maximum displ.:     0.0834554 α      in ANC's #2, #1, #6, ...

........................................................................
.............................. CYCLE   14 ..............................
........................................................................

 iter      E             dE          RMSdq      gap      omega  full diag
   1    -32.2865292 -0.322865E+02  0.531E-02    4.13       0.0  T
   2    -32.2865296 -0.397527E-06  0.306E-02    4.13       1.0  T
   3    -32.2865297 -0.740841E-07  0.251E-03    4.13       8.5  T
   4    -32.2865298 -0.708343E-07  0.130E-03    4.13      16.5  T
   5    -32.2865298 -0.112394E-07  0.264E-04    4.13      80.8  T
   6    -32.2865298 -0.566160E-09  0.100E-04    4.13     213.0  T
     SCC iter.                  ...        0 min,  0.125 sec
     gradient                   ...        0 min,  0.041 sec
 * total energy  :   -31.7941883 Eh     change       -0.1272116E-04 Eh
   gradient norm :     0.0012154 Eh/α   predicted    -0.5288616E-05 ( -58.43%)
   displ. norm   :     0.0812271 α      lambda       -0.9566790E-05
   maximum displ.:     0.0649385 α      in ANC's #2, #1, #5, ...

........................................................................
.............................. CYCLE   15 ..............................
........................................................................

 iter      E             dE          RMSdq      gap      omega  full diag
   1    -32.2865449 -0.322865E+02  0.396E-02    4.13       0.0  T
   2    -32.2865451 -0.180523E-06  0.229E-02    4.13       1.0  T
   3    -32.2865451  0.518370E-08  0.215E-03    4.13       9.9  T
   4    -32.2865452 -0.792154E-07  0.893E-04    4.13      23.9  T
   5    -32.2865452 -0.255083E-08  0.194E-04    4.13     109.8  T
     SCC iter.                  ...        0 min,  0.136 sec
     gradient                   ...        0 min,  0.044 sec
 * total energy  :   -31.7942003 Eh     change       -0.1203398E-04 Eh
   gradient norm :     0.0008904 Eh/α   predicted    -0.4798481E-05 ( -60.13%)
   displ. norm   :     0.0866105 α      lambda       -0.9416578E-05
   maximum displ.:     0.0689352 α      in ANC's #2, #5, #1, ...

........................................................................
.............................. CYCLE   16 ..............................
........................................................................

 iter      E             dE          RMSdq      gap      omega  full diag
   1    -32.2865868 -0.322866E+02  0.365E-02    4.12       0.0  T
   2    -32.2865869 -0.718553E-07  0.213E-02    4.12       1.0  T
   3    -32.2865869 -0.292825E-08  0.127E-03    4.12      16.8  T
   4    -32.2865869 -0.269016E-07  0.574E-04    4.12      37.1  T
   5    -32.2865869 -0.129574E-08  0.176E-04    4.12     121.4  T
     SCC iter.                  ...        0 min,  0.080 sec
     gradient                   ...        0 min,  0.050 sec
 * total energy  :   -31.7942118 Eh     change       -0.1147803E-04 Eh
   gradient norm :     0.0008474 Eh/α   predicted    -0.4724741E-05 ( -58.84%)
   displ. norm   :     0.0759294 α      lambda       -0.6986176E-05
   maximum displ.:     0.0610922 α      in ANC's #2, #5, #4, ...

........................................................................
.............................. CYCLE   17 ..............................
........................................................................

 iter      E             dE          RMSdq      gap      omega  full diag
   1    -32.2865943 -0.322866E+02  0.313E-02    4.12       0.0  T
   2    -32.2865943 -0.392765E-07  0.184E-02    4.12       1.2  T
   3    -32.2865943  0.219951E-07  0.138E-03    4.12      15.4  T
   4    -32.2865943 -0.414665E-07  0.433E-04    4.12      49.3  T
   5    -32.2865943 -0.878373E-10  0.173E-04    4.12     123.2  T
     SCC iter.                  ...        0 min,  0.080 sec
     gradient                   ...        0 min,  0.029 sec
 * total energy  :   -31.7942203 Eh     change       -0.8449355E-05 Eh
   gradient norm :     0.0006999 Eh/α   predicted    -0.3503027E-05 ( -58.54%)
   displ. norm   :     0.0626290 α      lambda       -0.5813483E-05
   maximum displ.:     0.0495716 α      in ANC's #2, #5, #1, ...

........................................................................
.............................. CYCLE   18 ..............................
........................................................................

 iter      E             dE          RMSdq      gap      omega  full diag
   1    -32.2866704 -0.322867E+02  0.263E-02    4.12       0.0  T
   2    -32.2866705 -0.414765E-07  0.155E-02    4.12       1.4  T
   3    -32.2866704  0.133307E-06  0.284E-03    4.12       7.5  T
   4    -32.2866705 -0.158329E-06  0.352E-04    4.12      60.6  T
   5    -32.2866705 -0.520046E-10  0.182E-04    4.12     117.2  T
     SCC iter.                  ...        0 min,  0.167 sec
     gradient                   ...        0 min,  0.044 sec
 * total energy  :   -31.7942273 Eh     change       -0.6988855E-05 Eh
   gradient norm :     0.0008413 Eh/α   predicted    -0.2912422E-05 ( -58.33%)
   displ. norm   :     0.0643415 α      lambda       -0.6110027E-05
   maximum displ.:     0.0480460 α      in ANC's #2, #5, #1, ...

........................................................................
.............................. CYCLE   19 ..............................
........................................................................

 iter      E             dE          RMSdq      gap      omega  full diag
   1    -32.2866776 -0.322867E+02  0.288E-02    4.12       0.0  T
   2    -32.2866776 -0.407436E-07  0.168E-02    4.12       1.3  T
   3    -32.2866776  0.645652E-08  0.117E-03    4.12      18.2  T
   4    -32.2866777 -0.242604E-07  0.460E-04    4.12      46.3  T
   5    -32.2866777 -0.414950E-09  0.163E-04    4.12     130.5  T
     SCC iter.                  ...        0 min,  0.204 sec
     gradient                   ...        0 min,  0.047 sec
 * total energy  :   -31.7942354 Eh     change       -0.8143920E-05 Eh
   gradient norm :     0.0005918 Eh/α   predicted    -0.3061541E-05 ( -62.41%)
   displ. norm   :     0.0735049 α      lambda       -0.7510699E-05
   maximum displ.:     0.0545609 α      in ANC's #2, #1, #5, ...

........................................................................
.............................. CYCLE   20 ..............................
........................................................................

 iter      E             dE          RMSdq      gap      omega  full diag
   1    -32.2865931 -0.322866E+02  0.348E-02    4.12       0.0  T
   2    -32.2865931 -0.684747E-07  0.203E-02    4.12       1.0  T
   3    -32.2865931  0.971896E-08  0.157E-03    4.12      13.6  T
   4    -32.2865932 -0.405630E-07  0.582E-04    4.12      36.6  T
   5    -32.2865932 -0.401407E-09  0.147E-04    4.12     145.5  T
     SCC iter.                  ...        0 min,  0.138 sec
     gradient                   ...        0 min,  0.057 sec
 * total energy  :   -31.7942456 Eh     change       -0.1020517E-04 Eh
   gradient norm :     0.0005609 Eh/α   predicted    -0.3768805E-05 ( -63.07%)
   displ. norm   :     0.0962249 α      lambda       -0.9759498E-05
   maximum displ.:     0.0689865 α      in ANC's #2, #1, #5, ...
 * RMSD in coord.:     0.3760431 α      energy gain  -0.6028523E-02 Eh

generating ANC from exact Hessian ...
Using Lindh-Hessian (1995)
 Shifting diagonal of input Hessian by    8.7566018284767656E-003
 Lowest  eigenvalues of input Hessian
    0.000000    0.000000    0.000000    0.000000    0.000000    0.000000
    0.010000    0.010303    0.012769    0.014699    0.017453    0.018832
    0.019863    0.024168    0.031361    0.033803    0.034575    0.035755
 Highest eigenvalues
    1.582788    1.607099    1.897909    2.002395    2.023567    2.073450


........................................................................
.............................. CYCLE   21 ..............................
........................................................................

 iter      E             dE          RMSdq      gap      omega  full diag
   1    -32.2865330 -0.322865E+02  0.459E-02    4.12       0.0  T
   2    -32.2865331 -0.110219E-06  0.268E-02    4.12       1.0  T
   3    -32.2865331 -0.271674E-07  0.130E-03    4.12      16.4  T
   4    -32.2865331 -0.171419E-07  0.687E-04    4.12      31.0  T
   5    -32.2865331 -0.256371E-08  0.162E-04    4.12     131.4  T
     SCC iter.                  ...        0 min,  0.103 sec
     gradient                   ...        0 min,  0.055 sec
 * total energy  :   -31.7942594 Eh     change       -0.1382066E-04 Eh
   gradient norm :     0.0006512 Eh/α   predicted     0.0000000E+00 (-100.00%)
   displ. norm   :     0.0289678 α      lambda       -0.4815338E-06
   maximum displ.:     0.0244116 α      in ANC's #2, #1, #5, ...

........................................................................
.............................. CYCLE   22 ..............................
........................................................................

 iter      E             dE          RMSdq      gap      omega  full diag
   1    -32.2867256 -0.322867E+02  0.133E-02    4.13       0.0  T
   2    -32.2867256 -0.193610E-07  0.775E-03    4.13       2.8  T
   3    -32.2867256  0.101872E-07  0.898E-04    4.13      23.7  T
   4    -32.2867256 -0.156667E-07  0.293E-04    4.13      72.7  T
     SCC iter.                  ...        0 min,  0.061 sec
     gradient                   ...        0 min,  0.045 sec
 * total energy  :   -31.7942660 Eh     change       -0.6536976E-05 Eh
   gradient norm :     0.0002890 Eh/α   predicted    -0.2476531E-05 ( -62.12%)
   displ. norm   :     0.0562209 α      lambda       -0.7728901E-05
   maximum displ.:     0.0436381 α      in ANC's #2, #1, #5, ...

........................................................................
.............................. CYCLE   23 ..............................
........................................................................

 iter      E             dE          RMSdq      gap      omega  full diag
   1    -32.2867534 -0.322868E+02  0.246E-02    4.13       0.0  T
   2    -32.2867535 -0.314548E-07  0.144E-02    4.13       1.5  T
   3    -32.2867535 -0.521395E-08  0.686E-04    4.13      31.1  T
   4    -32.2867535 -0.621322E-08  0.355E-04    4.13      60.0  T
     SCC iter.                  ...        0 min,  0.067 sec
     gradient                   ...        0 min,  0.051 sec
 * total energy  :   -31.7942759 Eh     change       -0.9938605E-05 Eh
   gradient norm :     0.0005701 Eh/α   predicted    -0.3870617E-05 ( -61.05%)
   displ. norm   :     0.0742099 α      lambda       -0.8316499E-05
   maximum displ.:     0.0569503 α      in ANC's #2, #1, #5, ...

........................................................................
.............................. CYCLE   24 ..............................
........................................................................

 iter      E             dE          RMSdq      gap      omega  full diag
   1    -32.2866558 -0.322867E+02  0.317E-02    4.13       0.0  T
   2    -32.2866558 -0.416547E-07  0.186E-02    4.13       1.1  T
   3    -32.2866558 -0.273165E-08  0.939E-04    4.13      22.7  T
   4    -32.2866558 -0.151456E-07  0.414E-04    4.13      51.5  T
     SCC iter.                  ...        0 min,  0.072 sec
     gradient                   ...        0 min,  0.055 sec
 * total energy  :   -31.7942866 Eh     change       -0.1067339E-04 Eh
   gradient norm :     0.0006266 Eh/α   predicted    -0.4178555E-05 ( -60.85%)
   displ. norm   :     0.0782483 α      lambda       -0.7828869E-05
   maximum displ.:     0.0600701 α      in ANC's #2, #1, #5, ...

........................................................................
.............................. CYCLE   25 ..............................
........................................................................

 iter      E             dE          RMSdq      gap      omega  full diag
   1    -32.2866674 -0.322867E+02  0.355E-02    4.13       0.0  T
   2    -32.2866674 -0.640150E-07  0.207E-02    4.13       1.0  T
   3    -32.2866674  0.203374E-07  0.168E-03    4.13      12.7  T
   4    -32.2866675 -0.499655E-07  0.543E-04    4.13      39.3  T
   5    -32.2866675 -0.190688E-09  0.192E-04    4.13     111.3  T
     SCC iter.                  ...        0 min,  0.075 sec
     gradient                   ...        0 min,  0.054 sec
 * total energy  :   -31.7942968 Eh     change       -0.1021881E-04 Eh
   gradient norm :     0.0004980 Eh/α   predicted    -0.3929921E-05 ( -61.54%)
   displ. norm   :     0.0805189 α      lambda       -0.7586434E-05
   maximum displ.:     0.0620809 α      in ANC's #2, #1, #6, ...

........................................................................
.............................. CYCLE   26 ..............................
........................................................................

 iter      E             dE          RMSdq      gap      omega  full diag
   1    -32.2866775 -0.322867E+02  0.370E-02    4.13       0.0  T
   2    -32.2866776 -0.731102E-07  0.216E-02    4.13       1.0  T
   3    -32.2866776  0.356398E-08  0.153E-03    4.13      13.9  T
   4    -32.2866776 -0.358066E-07  0.594E-04    4.13      35.9  T
   5    -32.2866776 -0.481926E-09  0.193E-04    4.13     110.5  T
     SCC iter.                  ...        0 min,  0.087 sec
     gradient                   ...        0 min,  0.041 sec
 * total energy  :   -31.7943068 Eh     change       -0.1000920E-04 Eh
   gradient norm :     0.0002979 Eh/α   predicted    -0.3804621E-05 ( -61.99%)
   displ. norm   :     0.0787320 α      lambda       -0.7151788E-05
   maximum displ.:     0.0613253 α      in ANC's #2, #1, #6, ...

........................................................................
.............................. CYCLE   27 ..............................
........................................................................

 iter      E             dE          RMSdq      gap      omega  full diag
   1    -32.2866424 -0.322866E+02  0.392E-02    4.13       0.0  T
   2    -32.2866425 -0.111953E-06  0.228E-02    4.13       1.0  T
   3    -32.2866425  0.103984E-07  0.197E-03    4.13      10.8  T
   4    -32.2866426 -0.583036E-07  0.710E-04    4.13      30.0  T
   5    -32.2866426 -0.485961E-09  0.196E-04    4.13     108.9  T
     SCC iter.                  ...        0 min,  0.070 sec
     gradient                   ...        0 min,  0.038 sec
 * total energy  :   -31.7943163 Eh     change       -0.9498598E-05 Eh
   gradient norm :     0.0003409 Eh/α   predicted    -0.3589681E-05 ( -62.21%)
   displ. norm   :     0.0770805 α      lambda       -0.6808918E-05
   maximum displ.:     0.0602298 α      in ANC's #2, #1, #6, ...

........................................................................
.............................. CYCLE   28 ..............................
........................................................................

 iter      E             dE          RMSdq      gap      omega  full diag
   1    -32.2866726 -0.322867E+02  0.377E-02    4.13       0.0  T
   2    -32.2866727 -0.995915E-07  0.219E-02    4.13       1.0  T
   3    -32.2866728 -0.547560E-08  0.157E-03    4.13      13.6  T
   4    -32.2866728 -0.346467E-07  0.670E-04    4.14      31.8  T
   5    -32.2866728 -0.129657E-08  0.205E-04    4.13     104.0  T
     SCC iter.                  ...        0 min,  0.109 sec
     gradient                   ...        0 min,  0.039 sec
 * total energy  :   -31.7943258 Eh     change       -0.9533022E-05 Eh
   gradient norm :     0.0004400 Eh/α   predicted    -0.3413683E-05 ( -64.19%)
   displ. norm   :     0.0886352 α      lambda       -0.8196274E-05
   maximum displ.:     0.0686729 α      in ANC's #2, #1, #5, ...

........................................................................
.............................. CYCLE   29 ..............................
........................................................................

 iter      E             dE          RMSdq      gap      omega  full diag
   1    -32.2866817 -0.322867E+02  0.422E-02    4.14       0.0  T
   2    -32.2866818 -0.119456E-06  0.245E-02    4.14       1.0  T
   3    -32.2866818  0.115541E-07  0.198E-03    4.14      10.8  T
   4    -32.2866819 -0.620748E-07  0.746E-04    4.14      28.6  T
   5    -32.2866819 -0.107676E-08  0.232E-04    4.14      92.0  T
     SCC iter.                  ...        0 min,  0.079 sec
     gradient                   ...        0 min,  0.041 sec
 * total energy  :   -31.7943377 Eh     change       -0.1181862E-04 Eh
   gradient norm :     0.0005464 Eh/α   predicted    -0.4116593E-05 ( -65.17%)
   displ. norm   :     0.1190172 α      lambda       -0.1171424E-04
   maximum displ.:     0.0905731 α      in ANC's #2, #1, #5, ...

........................................................................
.............................. CYCLE   30 ..............................
........................................................................

 iter      E             dE          RMSdq      gap      omega  full diag
   1    -32.2866245 -0.322866E+02  0.542E-02    4.14       0.0  T
   2    -32.2866247 -0.182586E-06  0.315E-02    4.14       1.0  T
   3    -32.2866246  0.312527E-07  0.253E-03    4.14       8.4  T
   4    -32.2866247 -0.106926E-06  0.923E-04    4.14      23.1  T
   5    -32.2866247 -0.209374E-08  0.338E-04    4.14      63.0  T
     SCC iter.                  ...        0 min,  0.084 sec
     gradient                   ...        0 min,  0.041 sec
 * total energy  :   -31.7943544 Eh     change       -0.1678304E-04 Eh
   gradient norm :     0.0005513 Eh/α   predicted    -0.5895191E-05 ( -64.87%)
   displ. norm   :     0.1720774 α      lambda       -0.1694275E-04
   maximum displ.:     0.1300535 α      in ANC's #2, #1, #5, ...

........................................................................
.............................. CYCLE   31 ..............................
........................................................................

 iter      E             dE          RMSdq      gap      omega  full diag
   1    -32.2865004 -0.322865E+02  0.754E-02    4.14       0.0  T
   2    -32.2865007 -0.328614E-06  0.439E-02    4.14       1.0  T
   3    -32.2865006  0.103453E-06  0.366E-03    4.14       5.8  T
   4    -32.2865008 -0.242202E-06  0.126E-03    4.14      17.0  T
   5    -32.2865009 -0.406735E-08  0.499E-04    4.14      42.7  T
   6    -32.2865009 -0.941590E-09  0.147E-04    4.14     145.2  T
     SCC iter.                  ...        0 min,  0.066 sec
     gradient                   ...        0 min,  0.039 sec
 * total energy  :   -31.7943778 Eh     change       -0.2336788E-04 Eh
   gradient norm :     0.0005426 Eh/α   predicted    -0.8584638E-05 ( -63.26%)
   displ. norm   :     0.1995426 α      lambda       -0.1793286E-04
   maximum displ.:     0.1522886 α      in ANC's #2, #1, #5, ...

........................................................................
.............................. CYCLE   32 ..............................
........................................................................

 iter      E             dE          RMSdq      gap      omega  full diag
   1    -32.2863265 -0.322863E+02  0.858E-02    4.15       0.0  T
   2    -32.2863269 -0.379062E-06  0.500E-02    4.15       1.0  T
   3    -32.2863268  0.684517E-07  0.363E-03    4.15       5.9  T
   4    -32.2863270 -0.222821E-06  0.134E-03    4.15      15.9  T
   5    -32.2863270 -0.572531E-08  0.553E-04    4.15      38.6  T
   6    -32.2863270 -0.990035E-09  0.160E-04    4.15     133.5  T
     SCC iter.                  ...        0 min,  0.083 sec
     gradient                   ...        0 min,  0.041 sec
 * total energy  :   -31.7944011 Eh     change       -0.2331098E-04 Eh
   gradient norm :     0.0007259 Eh/α   predicted    -0.9125251E-05 ( -60.85%)
   displ. norm   :     0.1566053 α      lambda       -0.1243795E-04
   maximum displ.:     0.1231217 α      in ANC's #2, #1, #5, ...

........................................................................
.............................. CYCLE   33 ..............................
........................................................................

 iter      E             dE          RMSdq      gap      omega  full diag
   1    -32.2864918 -0.322865E+02  0.661E-02    4.15       0.0  T
   2    -32.2864920 -0.201210E-06  0.386E-02    4.15       1.0  T
   3    -32.2864920  0.363724E-07  0.264E-03    4.15       8.1  T
   4    -32.2864921 -0.125613E-06  0.101E-03    4.15      21.2  T
   5    -32.2864921 -0.279811E-08  0.369E-04    4.15      57.8  T
   6    -32.2864921 -0.552340E-09  0.111E-04    4.15     191.8  T
     SCC iter.                  ...        0 min,  0.075 sec
     gradient                   ...        0 min,  0.034 sec
 * total energy  :   -31.7944170 Eh     change       -0.1586860E-04 Eh
   gradient norm :     0.0006231 Eh/α   predicted    -0.6287660E-05 ( -60.38%)
   displ. norm   :     0.0974732 α      lambda       -0.7351966E-05
   maximum displ.:     0.0812736 α      in ANC's #2, #1, #5, ...

........................................................................
.............................. CYCLE   34 ..............................
........................................................................

 iter      E             dE          RMSdq      gap      omega  full diag
   1    -32.2867717 -0.322868E+02  0.421E-02    4.15       0.0  T
   2    -32.2867717 -0.688370E-07  0.246E-02    4.15       1.0  T
   3    -32.2867717  0.586448E-08  0.152E-03    4.15      14.0  T
   4    -32.2867718 -0.380542E-07  0.556E-04    4.15      38.4  T
   5    -32.2867718 -0.381888E-09  0.174E-04    4.15     122.3  T
     SCC iter.                  ...        0 min,  0.058 sec
     gradient                   ...        0 min,  0.033 sec
 * total energy  :   -31.7944266 Eh     change       -0.9636839E-05 Eh
   gradient norm :     0.0003633 Eh/α   predicted    -0.3693011E-05 ( -61.68%)
   displ. norm   :     0.0567457 α      lambda       -0.4462779E-05
   maximum displ.:     0.0515808 α      in ANC's #2, #1, #5, ...

........................................................................
.............................. CYCLE   35 ..............................
........................................................................

 iter      E             dE          RMSdq      gap      omega  full diag
   1    -32.2869116 -0.322869E+02  0.250E-02    4.16       0.0  T
   2    -32.2869117 -0.254389E-07  0.146E-02    4.16       1.5  T
   3    -32.2869117  0.979838E-11  0.854E-04    4.16      25.0  T
   4    -32.2869117 -0.117494E-07  0.321E-04    4.16      66.4  T
     SCC iter.                  ...        0 min,  0.045 sec
     gradient                   ...        0 min,  0.030 sec
 * total energy  :   -31.7944329 Eh     change       -0.6311038E-05 Eh
   gradient norm :     0.0002919 Eh/α   predicted    -0.2235957E-05 ( -64.57%)
   displ. norm   :     0.0325338 α      lambda       -0.3204837E-05
   maximum displ.:     0.0318765 α      in ANC's #2, #1, #7, ...

........................................................................
.............................. CYCLE   36 ..............................
........................................................................

 iter      E             dE          RMSdq      gap      omega  full diag
   1    -32.2869581 -0.322870E+02  0.149E-02    4.16       0.0  T
   2    -32.2869581 -0.108867E-07  0.870E-03    4.16       2.5  T
   3    -32.2869581 -0.194234E-08  0.463E-04    4.16      46.1  T
   4    -32.2869581 -0.273473E-08  0.199E-04    4.16     107.3  T
     SCC iter.                  ...        0 min,  0.039 sec
     gradient                   ...        0 min,  0.028 sec
 * total energy  :   -31.7944376 Eh     change       -0.4661554E-05 Eh
   gradient norm :     0.0003090 Eh/α   predicted    -0.1604414E-05 ( -65.58%)
   displ. norm   :     0.0309892 α      lambda       -0.3403195E-05
   maximum displ.:     0.0285764 α      in ANC's #2, #3, #5, ...

........................................................................
.............................. CYCLE   37 ..............................
........................................................................

 iter      E             dE          RMSdq      gap      omega  full diag
   1    -32.2869550 -0.322870E+02  0.142E-02    4.16       0.0  T
   2    -32.2869550 -0.179549E-07  0.827E-03    4.16       2.6  T
   3    -32.2869550  0.161712E-09  0.619E-04    4.16      34.4  T
   4    -32.2869550 -0.730881E-08  0.276E-04    4.16      77.2  T
     SCC iter.                  ...        0 min,  0.047 sec
     gradient                   ...        0 min,  0.030 sec
 * total energy  :   -31.7944425 Eh     change       -0.4881160E-05 Eh
   gradient norm :     0.0002857 Eh/α   predicted    -0.1706747E-05 ( -65.03%)
   displ. norm   :     0.0413467 α      lambda       -0.4200597E-05
   maximum displ.:     0.0348363 α      in ANC's #2, #3, #5, ...

........................................................................
.............................. CYCLE   38 ..............................
........................................................................

 iter      E             dE          RMSdq      gap      omega  full diag
   1    -32.2869133 -0.322869E+02  0.195E-02    4.16       0.0  T
   2    -32.2869133 -0.479808E-07  0.113E-02    4.16       1.9  T
   3    -32.2869133  0.962481E-08  0.123E-03    4.16      17.4  T
   4    -32.2869133 -0.292559E-07  0.455E-04    4.16      46.9  T
   5    -32.2869133 -0.785349E-09  0.101E-04    4.16     211.0  T
     SCC iter.                  ...        0 min,  0.058 sec
     gradient                   ...        0 min,  0.034 sec
 * total energy  :   -31.7944483 Eh     change       -0.5870843E-05 Eh
   gradient norm :     0.0001838 Eh/α   predicted    -0.2103766E-05 ( -64.17%)
   displ. norm   :     0.0531827 α      lambda       -0.4643643E-05
   maximum displ.:     0.0427880 α      in ANC's #2, #3, #1, ...

........................................................................
.............................. CYCLE   39 ..............................
........................................................................

 iter      E             dE          RMSdq      gap      omega  full diag
   1    -32.2868951 -0.322869E+02  0.261E-02    4.16       0.0  T
   2    -32.2868952 -0.100118E-06  0.150E-02    4.16       1.4  T
   3    -32.2868952 -0.764213E-08  0.140E-03    4.16      15.2  T
   4    -32.2868953 -0.310516E-07  0.644E-04    4.16      33.1  T
   5    -32.2868953 -0.196361E-08  0.134E-04    4.16     158.5  T
     SCC iter.                  ...        0 min,  0.057 sec
     gradient                   ...        0 min,  0.037 sec
 * total energy  :   -31.7944546 Eh     change       -0.6242227E-05 Eh
   gradient norm :     0.0002020 Eh/α   predicted    -0.2325787E-05 ( -62.74%)
   displ. norm   :     0.0572905 α      lambda       -0.4214428E-05
   maximum displ.:     0.0458899 α      in ANC's #2, #3, #1, ...

........................................................................
.............................. CYCLE   40 ..............................
........................................................................

 iter      E             dE          RMSdq      gap      omega  full diag
   1    -32.2868462 -0.322868E+02  0.302E-02    4.15       0.0  T
   2    -32.2868464 -0.145907E-06  0.173E-02    4.15       1.2  T
   3    -32.2868464 -0.448793E-09  0.178E-03    4.16      12.0  T
   4    -32.2868465 -0.565632E-07  0.773E-04    4.15      27.6  T
   5    -32.2868465 -0.240897E-08  0.190E-04    4.15     112.3  T
     SCC iter.                  ...        0 min,  0.063 sec
     gradient                   ...        0 min,  0.037 sec
 * total energy  :   -31.7944601 Eh     change       -0.5529003E-05 Eh
   gradient norm :     0.0002535 Eh/α   predicted    -0.2111064E-05 ( -61.82%)
   displ. norm   :     0.0556434 α      lambda       -0.3527783E-05
   maximum displ.:     0.0447116 α      in ANC's #2, #1, #3, ...

........................................................................
.............................. CYCLE   41 ..............................
........................................................................

 iter      E             dE          RMSdq      gap      omega  full diag
   1    -32.2868340 -0.322868E+02  0.301E-02    4.15       0.0  T
   2    -32.2868342 -0.150226E-06  0.173E-02    4.15       1.2  T
   3    -32.2868342 -0.405598E-07  0.131E-03    4.15      16.3  T
   4    -32.2868342 -0.132220E-07  0.734E-04    4.15      29.1  T
   5    -32.2868343 -0.417939E-08  0.155E-04    4.15     137.5  T
     SCC iter.                  ...        0 min,  0.067 sec
     gradient                   ...        0 min,  0.040 sec
 * total energy  :   -31.7944648 Eh     change       -0.4681765E-05 Eh
   gradient norm :     0.0002512 Eh/α   predicted    -0.1771441E-05 ( -62.16%)
   displ. norm   :     0.0543930 α      lambda       -0.3151466E-05
   maximum displ.:     0.0440198 α      in ANC's #2, #1, #3, ...

........................................................................
.............................. CYCLE   42 ..............................
........................................................................

 iter      E             dE          RMSdq      gap      omega  full diag
   1    -32.2868644 -0.322869E+02  0.304E-02    4.15       0.0  T
   2    -32.2868646 -0.156522E-06  0.174E-02    4.15       1.2  T
   3    -32.2868646 -0.387634E-07  0.138E-03    4.15      15.5  T
   4    -32.2868647 -0.177942E-07  0.742E-04    4.15      28.7  T
   5    -32.2868647 -0.379741E-08  0.163E-04    4.15     130.8  T
     SCC iter.                  ...        0 min,  0.107 sec
     gradient                   ...        0 min,  0.059 sec
 * total energy  :   -31.7944691 Eh     change       -0.4274887E-05 Eh
   gradient norm :     0.0002170 Eh/α   predicted    -0.1580861E-05 ( -63.02%)
   displ. norm   :     0.0585972 α      lambda       -0.3221947E-05
   maximum displ.:     0.0475684 α      in ANC's #2, #1, #6, ...
 * RMSD in coord.:     0.3225900 α      energy gain  -0.2234677E-03 Eh

generating ANC from exact Hessian ...
Using Lindh-Hessian (1995)
 Shifting diagonal of input Hessian by    8.7599860654292185E-003
 Lowest  eigenvalues of input Hessian
    0.000000    0.000000    0.000000    0.000000    0.000000    0.000000
    0.010000    0.010364    0.012826    0.014542    0.017429    0.018887
    0.019573    0.024216    0.031545    0.034086    0.034926    0.035830
 Highest eigenvalues
    1.584559    1.607915    1.898691    2.003283    2.024180    2.073710


........................................................................
.............................. CYCLE   43 ..............................
........................................................................

 iter      E             dE          RMSdq      gap      omega  full diag
   1    -32.2868424 -0.322868E+02  0.325E-02    4.15       0.0  T
   2    -32.2868426 -0.172489E-06  0.187E-02    4.15       1.1  T
   3    -32.2868426 -0.449681E-07  0.143E-03    4.15      14.9  T
   4    -32.2868426 -0.164568E-07  0.803E-04    4.15      26.6  T
   5    -32.2868426 -0.525832E-08  0.167E-04    4.15     127.5  T
     SCC iter.                  ...        0 min,  0.151 sec
     gradient                   ...        0 min,  0.051 sec
 * total energy  :   -31.7944734 Eh     change       -0.4328625E-05 Eh
   gradient norm :     0.0002362 Eh/α   predicted     0.0000000E+00 (-100.00%)
   displ. norm   :     0.0118114 α      lambda       -0.6536685E-07
   maximum displ.:     0.0104515 α      in ANC's #2, #5, #6, ...

........................................................................
.............................. CYCLE   44 ..............................
........................................................................

 iter      E             dE          RMSdq      gap      omega  full diag
   1    -32.2869441 -0.322869E+02  0.495E-03    4.15       0.0  T
   2    -32.2869441 -0.231607E-08  0.290E-03    4.15       7.4  T
   3    -32.2869441  0.866201E-09  0.290E-04    4.15      73.5  T
   4    -32.2869441 -0.150366E-08  0.915E-05    4.15     233.1  T
     SCC iter.                  ...        0 min,  0.072 sec
     gradient                   ...        0 min,  0.040 sec
 * total energy  :   -31.7944745 Eh     change       -0.1109859E-05 Eh
   gradient norm :     0.0001252 Eh/α   predicted    -0.4137154E-06 ( -62.72%)
   displ. norm   :     0.0245776 α      lambda       -0.1480573E-05
   maximum displ.:     0.0191238 α      in ANC's #2, #5, #1, ...

........................................................................
.............................. CYCLE   45 ..............................
........................................................................

 iter      E             dE          RMSdq      gap      omega  full diag
   1    -32.2870073 -0.322870E+02  0.936E-03    4.15       0.0  T
   2    -32.2870073 -0.362049E-08  0.550E-03    4.15       3.9  T
   3    -32.2870073  0.756685E-09  0.354E-04    4.15      60.2  T
   4    -32.2870073 -0.242829E-08  0.127E-04    4.15     167.7  T
     SCC iter.                  ...        0 min,  0.062 sec
     gradient                   ...        0 min,  0.045 sec
 * total energy  :   -31.7944766 Eh     change       -0.2046012E-05 Eh
   gradient norm :     0.0002881 Eh/α   predicted    -0.7409698E-06 ( -63.78%)
   displ. norm   :     0.0463353 α      lambda       -0.2483941E-05
   maximum displ.:     0.0345419 α      in ANC's #2, #5, #1, ...

........................................................................
.............................. CYCLE   46 ..............................
........................................................................

 iter      E             dE          RMSdq      gap      omega  full diag
   1    -32.2869466 -0.322869E+02  0.172E-02    4.16       0.0  T
   2    -32.2869467 -0.111649E-07  0.101E-02    4.16       2.1  T
   3    -32.2869467 -0.135873E-08  0.494E-04    4.16      43.2  T
   4    -32.2869467 -0.325628E-08  0.234E-04    4.16      91.1  T
     SCC iter.                  ...        0 min,  0.119 sec
     gradient                   ...        0 min,  0.051 sec
 * total energy  :   -31.7944798 Eh     change       -0.3233357E-05 Eh
   gradient norm :     0.0002211 Eh/α   predicted    -0.1249980E-05 ( -61.34%)
   displ. norm   :     0.0541326 α      lambda       -0.2285263E-05
   maximum displ.:     0.0409759 α      in ANC's #2, #5, #1, ...

........................................................................
.............................. CYCLE   47 ..............................
........................................................................

 iter      E             dE          RMSdq      gap      omega  full diag
   1    -32.2868932 -0.322869E+02  0.207E-02    4.16       0.0  T
   2    -32.2868932 -0.140378E-07  0.121E-02    4.16       1.8  T
   3    -32.2868932 -0.152241E-08  0.580E-04    4.16      36.8  T
   4    -32.2868932 -0.451391E-08  0.258E-04    4.16      82.5  T
     SCC iter.                  ...        0 min,  0.061 sec
     gradient                   ...        0 min,  0.047 sec
 * total energy  :   -31.7944825 Eh     change       -0.2748557E-05 Eh
   gradient norm :     0.0001276 Eh/α   predicted    -0.1145942E-05 ( -58.31%)
   displ. norm   :     0.0363958 α      lambda       -0.1156449E-05
   maximum displ.:     0.0291537 α      in ANC's #2, #5, #1, ...

........................................................................
.............................. CYCLE   48 ..............................
........................................................................

 iter      E             dE          RMSdq      gap      omega  full diag
   1    -32.2868747 -0.322869E+02  0.146E-02    4.16       0.0  T
   2    -32.2868747 -0.731279E-08  0.856E-03    4.16       2.5  T
   3    -32.2868747  0.290386E-08  0.615E-04    4.16      34.7  T
   4    -32.2868747 -0.654581E-08  0.181E-04    4.16     117.5  T
     SCC iter.                  ...        0 min,  0.054 sec
     gradient                   ...        0 min,  0.039 sec
 * total energy  :   -31.7944840 Eh     change       -0.1511186E-05 Eh
   gradient norm :     0.0001286 Eh/α   predicted    -0.5851587E-06 ( -61.28%)
   displ. norm   :     0.0363958 α      lambda        0.0000000E+00
   maximum displ.:     0.0291537 α      in ANC's #2, #5, #1, ...

........................................................................
.............................. CYCLE   49 ..............................
........................................................................

 iter      E             dE          RMSdq      gap      omega  full diag
   1    -32.2868311 -0.322868E+02  0.146E-02    4.16       0.0  T
   2    -32.2868311 -0.750804E-08  0.856E-03    4.16       2.5  T
   3    -32.2868311  0.127025E-08  0.540E-04    4.16      39.5  T
   4    -32.2868311 -0.470808E-08  0.183E-04    4.16     116.7  T
     SCC iter.                  ...        0 min,  0.059 sec
     gradient                   ...        0 min,  0.047 sec
 * total energy  :   -31.7944851 Eh     change       -0.1014883E-05 Eh
   gradient norm :     0.0002466 Eh/α   predicted     0.4045238E-08 (-100.40%)
   displ. norm   :     0.0151485 α      lambda       -0.6475593E-06
   maximum displ.:     0.0129775 α      in ANC's #2, #1, #5, ...

........................................................................
.............................. CYCLE   50 ..............................
........................................................................

 iter      E             dE          RMSdq      gap      omega  full diag
   1    -32.2868963 -0.322869E+02  0.676E-03    4.16       0.0  T
   2    -32.2868963 -0.172138E-08  0.396E-03    4.16       5.4  T
   3    -32.2868963  0.172934E-08  0.375E-04    4.16      56.8  T
   4    -32.2868963 -0.262364E-08  0.761E-05    4.16     280.1  T
     SCC iter.                  ...        0 min,  0.067 sec
     gradient                   ...        0 min,  0.043 sec
 * total energy  :   -31.7944860 Eh     change       -0.8895099E-06 Eh
   gradient norm :     0.0001444 Eh/α   predicted    -0.3262417E-06 ( -63.32%)
   displ. norm   :     0.0190931 α      lambda       -0.9969921E-06
   maximum displ.:     0.0141524 α      in ANC's #2, #1, #5, ...

   *** GEOMETRY OPTIMIZATION CONVERGED AFTER 50 ITERATIONS ***

------------------------------------------------------------------------
 total energy gain   :        -0.0062689 Eh       -3.9338 kcal/mol
 total RMSD          :         0.6370034 a0        0.3371 Å
 total power (kW/mol):        -0.3291785 (step)   -1.9305 (real)
------------------------------------------------------------------------

 ANCopt (total)                0 d,  0 h,  0 min,  8.526 sec
 optimizer setup                ...        0 min,  0.001 sec (  0.009%)
 model hessian                  ...        0 min,  0.022 sec (  0.261%)
 ANC generation                 ...        0 min,  0.002 sec (  0.028%)
 coordinate transformation      ...        0 min,  0.000 sec (  0.005%)
 single point calculation       ...        0 min,  8.273 sec ( 97.040%)
 optimization log               ...        0 min,  0.005 sec (  0.056%)
 hessian update                 ...        0 min,  0.211 sec (  2.469%)
 rational function              ...        0 min,  0.004 sec (  0.046%)

================
 final structure:
================
22
 xtb: 6.7.1 (edcfbbe)
C            1.24491321177069       -2.00945280395006       -0.07082861874613
C            1.05650518358589       -0.56301116279761        0.39733764516853
C            1.87398316169666        0.36666410403638       -0.44038833751771
N            2.72705498185911        1.10975420596243        0.11303137637682
O            3.43608070129301        1.95882660295533       -0.73609295715728
C           -0.39123654583330       -0.12952591222173        0.32480757186218
C           -1.02254189101790        0.37450562437373        1.45409786791309
C           -2.34389581365284        0.78257433170678        1.40329866913251
C           -3.05245177302759        0.69520617483373        0.21779172707003
C           -2.43037531094217        0.19950743536920       -0.91506580020641
C           -1.10939173926788       -0.20784151878058       -0.86229545591825
H            2.28521334742704       -2.30501506777530        0.04411102267852
H            0.96862959202694       -2.12290242842156       -1.11595994329735
H            0.62389042867201       -2.67451589926385        0.52480249958782
H            1.40282602862743       -0.47321757628116        1.43111011773128
H            1.69232259572410        0.38023320393402       -1.51529025176831
H            4.03101002490901        2.44353789493363       -0.14736282293006
H           -0.47366623138207        0.44822235601648        2.38209768153017
H           -2.82036047296852        1.17070654107159        2.29172274041158
H           -4.08356648328748        1.01359375597118        0.17574090279533
H           -2.97570180792002        0.13099082752776       -1.84516706551891
H           -0.63924118829066       -0.58884068920003       -1.75680564596332

 Bond Distances (Angstroems)
 ---------------------------
C1-C2=1.5320         C1-H12=1.0876        C1-H13=1.0870        C1-H14=1.0875        C2-C1=1.5320         C2-C3=1.4948         
C2-C6=1.5130         C2-H15=1.0939        C3-C2=1.4948         C3-N4=1.2594         C3-H16=1.0902        N4-C3=1.2594         
N4-O5=1.3945         O5-N4=1.3945         O5-H17=0.9672        C6-C2=1.5130         C6-C7=1.3885         C6-C11=1.3896        
C7-C6=1.3885         C7-C8=1.3839         C7-H18=1.0807        C8-C7=1.3839         C8-C9=1.3839         C8-H19=1.0803        
C9-C8=1.3839         C9-C10=1.3842        C9-H20=1.0800        C10-C9=1.3842        C10-C11=1.3834       C10-H21=1.0804       
C11-C6=1.3896        C11-C10=1.3834       C11-H22=1.0800       H12-C1=1.0876        H13-C1=1.0870        H14-C1=1.0875        
H15-C2=1.0939        H16-C3=1.0902        H17-O5=0.9672        H18-C7=1.0807        H19-C8=1.0803        H20-C9=1.0800        
H21-C10=1.0804       H22-C11=1.0800       
 C  H  Rav=1.0847 sigma=0.0049  Rmin=1.0800  Rmax=1.0939    10
 C  C  Rav=1.4281 sigma=0.0608  Rmin=1.3834  Rmax=1.5320     9
 N  C  Rav=1.2594 sigma=0.0000  Rmin=1.2594  Rmax=1.2594     1
 O  H  Rav=0.9672 sigma=0.0000  Rmin=0.9672  Rmax=0.9672     1
 O  N  Rav=1.3945 sigma=0.0000  Rmin=1.3945  Rmax=1.3945     1

 selected bond angles (degree)
 --------------------
H12-C1-C2=110.00               H13-C1-C2=111.17               H13-C1-H12=108.44              H14-C1-C2=109.86               
H14-C1-H12=108.79              H14-C1-H13=108.52              C3-C2-C1=110.41                C6-C2-C1=111.93                
C6-C2-C3=108.56                H15-C2-C1=109.11               H15-C2-C3=107.78               H15-C2-C6=108.95               
N4-C3-C2=119.41                H16-C3-C2=117.98               H16-C3-N4=122.60               O5-N4-C3=115.85                
H17-O5-N4=104.31               C7-C6-C2=120.01                C11-C6-C2=121.29               C11-C6-C7=118.70               
C8-C7-C6=120.75                H18-C7-C6=119.49               H18-C7-C8=119.76               C9-C8-C7=120.11                
H19-C8-C7=119.80               H19-C8-C9=120.09               C10-C9-C8=119.58               H20-C9-C8=120.24               
H20-C9-C10=120.18              C11-C10-C9=120.22              H21-C10-C9=120.03              H21-C10-C11=119.75             

 selected dihedral angles (degree)
 ---------------------------------
C3-C2-C1-H12= 61.95           C3-C2-C1-H13=301.82           C3-C2-C1-H14=181.69           C6-C2-C1-H12=183.01           
C6-C2-C1-H13= 62.88           C6-C2-C1-H14=302.74           H15-C2-C1-H12=303.67          H15-C2-C1-H13=183.54          
H15-C2-C1-H14= 63.41          N4-C3-C2-C1=237.65            N4-C3-C2-C6=114.61            N4-C3-C2-H15=356.74           
H16-C3-C2-C1= 58.48           H16-C3-C2-C6=295.44           H16-C3-C2-H15=177.57          O5-N4-C3-C2=180.76            
O5-N4-C3-H16=359.89           H17-O5-N4-C3=179.90           C7-C6-C2-C1=124.97            C7-C6-C2-C3=247.09            
C7-C6-C2-H15=  4.21           C11-C6-C2-C1=304.12           C11-C6-C2-C3= 66.25           C11-C6-C2-H15=183.37          
C8-C7-C6-C2=179.63            C8-C7-C6-C11=  0.46           H18-C7-C6-C2=359.65           H18-C7-C6-C11=180.47          
C9-C8-C7-C6=359.82            C9-C8-C7-H18=179.80           H19-C8-C7-C6=179.89           H19-C8-C7-H18=359.88          
C10-C9-C8-C7=359.90           C10-C9-C8-H19=179.83          H20-C9-C8-C7=180.03           H20-C9-C8-H19=359.96          
C11-C10-C9-C8=  0.09          C11-C10-C9-H20=179.96         H21-C10-C9-C8=180.19          H21-C10-C9-H20=  0.06         
           -------------------------------------------------
          |                Final Singlepoint                |
           -------------------------------------------------

          ...................................................
          :                      SETUP                      :
          :.................................................:
          :  # basis functions                  55          :
          :  # atomic orbitals                  55          :
          :  # shells                           33          :
          :  # electrons                        58          :
          :  max. iterations                   250          :
          :  Hamiltonian                  GFN2-xTB          :
          :  restarted?                      false          :
          :  GBSA solvation                  false          :
          :  PC potential                    false          :
          :  electronic temp.          300.0000000     K    :
          :  accuracy                    1.0000000          :
          :  -> integral cutoff          0.2500000E+02      :
          :  -> integral neglect         0.1000000E-07      :
          :  -> SCF convergence          0.1000000E-05 Eh   :
          :  -> wf. convergence          0.1000000E-03 e    :
          :  Broyden damping             0.4000000          :
          :  net charge                          0          :
          :  unpaired electrons                  0          :
          ...................................................

 iter      E             dE          RMSdq      gap      omega  full diag
   1    -32.2868963 -0.322869E+02  0.348E-05    4.16       0.0  T
   2    -32.2868963 -0.494538E-11  0.214E-05    4.16     996.1  T
   3    -32.2868963 -0.368772E-11  0.131E-05    4.16    1628.8  T

   *** convergence criteria satisfied after 3 iterations ***

         #    Occupation            Energy/Eh            Energy/eV
      -------------------------------------------------------------
         1        2.0000           -0.7072727             -19.2459
       ...           ...                  ...                  ...
        23        2.0000           -0.4459234             -12.1342
        24        2.0000           -0.4285817             -11.6623
        25        2.0000           -0.4213316             -11.4650
        26        2.0000           -0.4079218             -11.1001
        27        2.0000           -0.4050751             -11.0227
        28        2.0000           -0.3991551             -10.8616
        29        2.0000           -0.3896693             -10.6034 (HOMO)
        30                         -0.2368929              -6.4462 (LUMO)
        31                         -0.2234832              -6.0813
        32                         -0.2176090              -5.9214
        33                         -0.0946316              -2.5751
        34                         -0.0411693              -1.1203
       ...                                ...                  ...
        55                          0.6639691              18.0675
      -------------------------------------------------------------
                  HL-Gap            0.1527764 Eh            4.1573 eV
             Fermi-level           -0.3132811 Eh           -8.5248 eV

 SCC (total)                   0 d,  0 h,  0 min,  0.202 sec
 SCC setup                      ...        0 min,  0.002 sec (  1.189%)
 Dispersion                     ...        0 min,  0.010 sec (  5.070%)
 classical contributions        ...        0 min,  0.005 sec (  2.506%)
 integral evaluation            ...        0 min,  0.014 sec (  6.942%)
 iterations                     ...        0 min,  0.118 sec ( 58.387%)
 molecular gradient             ...        0 min,  0.052 sec ( 25.824%)
 printout                       ...        0 min,  0.000 sec (  0.062%)

         :::::::::::::::::::::::::::::::::::::::::::::::::::::
         ::                     SUMMARY                     ::
         :::::::::::::::::::::::::::::::::::::::::::::::::::::
         :: total energy             -31.794485952948 Eh    ::
         :: gradient norm              0.000144488635 Eh/a0 ::
         :: HOMO-LUMO gap              4.157258120749 eV    ::
         ::.................................................::
         :: SCC energy               -32.286785048922 Eh    ::
         :: -> isotropic ES            0.023589362295 Eh    ::
         :: -> anisotropic ES         -0.001227194622 Eh    ::
         :: -> anisotropic XC          0.023975979888 Eh    ::
         :: -> dispersion             -0.018215199113 Eh    ::
         :: repulsion energy           0.492299095974 Eh    ::
         :: add. restraining           0.000000000000 Eh    ::
         :: total charge              -0.000000000000 e     ::
         :::::::::::::::::::::::::::::::::::::::::::::::::::::

           -------------------------------------------------
          |                Property Printout                |
           -------------------------------------------------

    * Orbital Energies and Occupations

         #    Occupation            Energy/Eh            Energy/eV
      -------------------------------------------------------------
         1        2.0000           -0.7072727             -19.2459
       ...           ...                  ...                  ...
        17        2.0000           -0.4950872             -13.4720
        18        2.0000           -0.4883768             -13.2894
        19        2.0000           -0.4825879             -13.1319
        20        2.0000           -0.4772936             -12.9878
        21        2.0000           -0.4671545             -12.7119
        22        2.0000           -0.4570172             -12.4361
        23        2.0000           -0.4459234             -12.1342
        24        2.0000           -0.4285817             -11.6623
        25        2.0000           -0.4213316             -11.4650
        26        2.0000           -0.4079218             -11.1001
        27        2.0000           -0.4050751             -11.0227
        28        2.0000           -0.3991551             -10.8616
        29        2.0000           -0.3896693             -10.6034 (HOMO)
        30                         -0.2368929              -6.4462 (LUMO)
        31                         -0.2234832              -6.0813
        32                         -0.2176090              -5.9214
        33                         -0.0946316              -2.5751
        34                         -0.0411693              -1.1203
        35                          0.0857467               2.3333
        36                          0.1174663               3.1964
        37                          0.1192656               3.2454
        38                          0.1270662               3.4576
        39                          0.1374647               3.7406
        40                          0.1523978               4.1470
       ...                                ...                  ...
        55                          0.6639691              18.0675
      -------------------------------------------------------------
                  HL-Gap            0.1527764 Eh            4.1573 eV
             Fermi-level           -0.3132811 Eh           -8.5248 eV

     #   Z          covCN         q      C6AA      α(0)
     1   6 C        3.757    -0.101    22.473     6.759
     2   6 C        3.866    -0.024    20.960     6.510
     3   6 C        2.834     0.067    26.481     8.433
     4   7 N        1.833    -0.118    24.340     7.311
     5   8 O        1.726    -0.356    19.987     6.036
     6   6 C        2.978     0.013    27.715     8.636
     7   6 C        2.925    -0.037    28.915     8.818
     8   6 C        2.919    -0.029    28.727     8.789
     9   6 C        2.920    -0.032    28.792     8.799
    10   6 C        2.919    -0.030    28.752     8.793
    11   6 C        2.924    -0.034    28.852     8.809
    12   1 H        0.925     0.042     2.422     2.433
    13   1 H        0.925     0.043     2.409     2.427
    14   1 H        0.925     0.043     2.412     2.429
    15   1 H        0.924     0.055     2.258     2.350
    16   1 H        0.924     0.028     2.610     2.526
    17   1 H        0.805     0.310     0.693     1.307
    18   1 H        0.926     0.032     2.553     2.499
    19   1 H        0.926     0.032     2.560     2.502
    20   1 H        0.926     0.031     2.573     2.509
    21   1 H        0.926     0.031     2.570     2.507
    22   1 H        0.926     0.032     2.552     2.498

 Mol. C6AA /au·bohr⁶  :       5250.768918
 Mol. C8AA /au·bohr⁸  :     123118.612259
 Mol. α(0) /au        :        113.680146


Wiberg/Mayer (AO) data.
largest (>0.10) Wiberg bond orders for each atom

 ---------------------------------------------------------------------------
     #   Z sym  total        # sym  WBO       # sym  WBO       # sym  WBO
 ---------------------------------------------------------------------------
     1   6 C    3.995 --    12 H    0.986    14 H    0.985    13 H    0.984
                             2 C    0.983
     2   6 C    3.993 --     3 C    0.999     1 C    0.983     6 C    0.977
                            15 H    0.963
     3   6 C    3.973 --     4 N    1.871     2 C    0.999    16 H    0.947
     4   7 N    2.990 --     3 C    1.871     5 O    1.027
     5   8 O    2.061 --     4 N    1.027    17 H    0.895
     6   6 C    3.987 --     7 C    1.414    11 C    1.411     2 C    0.977
                             9 C    0.109
     7   6 C    3.992 --     8 C    1.443     6 C    1.414    18 H    0.968
                            10 C    0.111
     8   6 C    3.992 --     7 C    1.443     9 C    1.440    19 H    0.971
                            11 C    0.111
     9   6 C    3.991 --     8 C    1.440    10 C    1.437    20 H    0.971
                             6 C    0.109
    10   6 C    3.992 --    11 C    1.447     9 C    1.437    21 H    0.971
                             7 C    0.111
    11   6 C    3.992 --    10 C    1.447     6 C    1.411    22 H    0.967
                             8 C    0.111
    12   1 H    0.998 --     1 C    0.986
    13   1 H    0.998 --     1 C    0.984
    14   1 H    0.997 --     1 C    0.985
    15   1 H    0.997 --     2 C    0.963
    16   1 H    0.999 --     3 C    0.947
    17   1 H    0.904 --     5 O    0.895
    18   1 H    0.999 --     7 C    0.968
    19   1 H    0.998 --     8 C    0.971
    20   1 H    0.998 --     9 C    0.971
    21   1 H    0.999 --    10 C    0.971
    22   1 H    0.999 --    11 C    0.967
 ---------------------------------------------------------------------------

Topologies differ in total number of bonds
Writing topology from bond orders to xtbtopo.mol

molecular dipole:
                 x           y           z       tot (Debye)
 q only:       -0.126      -0.265       0.348
   full:       -0.158      -0.260       0.176       0.893
molecular quadrupole (traceless):
                xx          xy          yy          xz          yz          zz
 q only:        0.877       0.606       0.339       3.454       2.380      -1.215
  q+dip:        1.910      -0.597      -3.075       3.920       4.179       1.165
   full:        1.225       0.159      -0.476       3.106       3.084      -0.749

           -------------------------------------------------
          |                Geometry Summary                 |
           -------------------------------------------------

      molecular mass/u    :      149.1900795
   center of mass at/Å    :        0.1275122       0.2572867       0.0563049
  moments of inertia/u·Å² :        0.2565674E+03   0.8160691E+03   0.8800883E+03
rotational constants/cm⁻¹ :        0.6570449E-01   0.2065711E-01   0.1915448E-01

 * 19 selected distances

     #   Z          #   Z                                           value/Å
     1   6 C        2   6 C                                       1.5319501 (max)
     3   6 C        4   7 N                                       1.2594396
     6   6 C        7   6 C                                       1.3884852
     7   6 C        8   6 C                                       1.3838631
     8   6 C        9   6 C                                       1.3838756
     9   6 C       10   6 C                                       1.3842192
     6   6 C       11   6 C                                       1.3896381
    10   6 C       11   6 C                                       1.3833712
     1   6 C       12   1 H                                       1.0875628
     1   6 C       13   1 H                                       1.0869697
     1   6 C       14   1 H                                       1.0875453
     2   6 C       15   1 H                                       1.0939318
     3   6 C       16   1 H                                       1.0902289
     5   8 O       17   1 H                                       0.9672069 (min)
     7   6 C       18   1 H                                       1.0806861
     8   6 C       19   1 H                                       1.0802605
     9   6 C       20   1 H                                       1.0799707
    10   6 C       21   1 H                                       1.0803537
    11   6 C       22   1 H                                       1.0799771

 * 4 distinct bonds (by element types)

   Z      Z             #   av. dist./Å        max./Å        min./Å
   1 H    6 C          10     1.0847487     1.0939318     1.0799707
   6 C    6 C           7     1.4064861     1.5319501     1.3833712
   6 C    7 N           1     1.2594396     1.2594396     1.2594396
   1 H    8 O           1     0.9672069     0.9672069     0.9672069


optimized geometry written to: xtbopt.xyz


           -------------------------------------------------
          | TOTAL ENERGY              -31.794485952948 Eh   |
          | GRADIENT NORM               0.000144488635 Eh/α |
          | HOMO-LUMO GAP               4.157258120749 eV   |
           -------------------------------------------------

------------------------------------------------------------------------
 * finished run on 2026/07/07 at 20:19:54.028     
------------------------------------------------------------------------
 total:
 * wall-time:     0 d,  0 h,  0 min,  9.052 sec
 *  cpu-time:     0 d,  0 h,  2 min, 23.663 sec
 * ratio c/w:    15.871 speedup
 SCF:
 * wall-time:     0 d,  0 h,  0 min,  0.217 sec
 *  cpu-time:     0 d,  0 h,  0 min,  3.400 sec
 * ratio c/w:    15.694 speedup
 ANC optimizer:
 * wall-time:     0 d,  0 h,  0 min,  8.735 sec
 *  cpu-time:     0 d,  0 h,  2 min, 18.688 sec
 * ratio c/w:    15.878 speedup

