      -----------------------------------------------------------      
     |                   =====================                   |     
     |                           x T B                           |     
     |                   =====================                   |     
     |                         S. Grimme                         |     
     |          Mulliken Center for Theoretical Chemistry        |     
     |                    University of Bonn                     |     
      -----------------------------------------------------------      

   * xtb version 6.7.1 (edcfbbe) compiled by 'conda@5dfe00f5fb80' on 2026-06-10

   xtb is free software: you can redistribute it and/or modify it under
   the terms of the GNU Lesser General Public License as published by
   the Free Software Foundation, either version 3 of the License, or
   (at your option) any later version.
   
   xtb is distributed in the hope that it will be useful,
   but WITHOUT ANY WARRANTY; without even the implied warranty of
   MERCHANTABILITY or FITNESS FOR A PARTICULAR PURPOSE.  See the
   GNU Lesser General Public License for more details.
   
   Cite this work as:
   * C. Bannwarth, E. Caldeweyher, S. Ehlert, A. Hansen, P. Pracht,
     J. Seibert, S. Spicher, S. Grimme, WIREs Comput. Mol. Sci., 2020, 11,
     e01493. DOI: 10.1002/wcms.1493
   
   for GFN2-xTB:
   * C. Bannwarth, S. Ehlert and S. Grimme., J. Chem. Theory Comput., 2019,
     15, 1652-1671. DOI: 10.1021/acs.jctc.8b01176
   for GFN1-xTB:
   * S. Grimme, C. Bannwarth, P. Shushkov, J. Chem. Theory Comput., 2017,
     13, 1989-2009. DOI: 10.1021/acs.jctc.7b00118
   for GFN0-xTB:
   * P. Pracht, E. Caldeweyher, S. Ehlert, S. Grimme, ChemRxiv, 2019, preprint.
     DOI: 10.26434/chemrxiv.8326202.v1
   for GFN-FF:
   * S. Spicher and S. Grimme, Angew. Chem. Int. Ed., 2020, 59, 15665-15673.
     DOI: 10.1002/anie.202004239
   
   for ALPB and GBSA implicit solvation:
   * S. Ehlert, M. Stahn, S. Spicher, S. Grimme, J. Chem. Theory Comput.,
     2021, 17, 4250-4261. DOI: 10.1021/acs.jctc.1c00471
   
   for ddCOSMO and CPCM-X implicit solvation:
   * M. Stahn, S. Ehlert, S. Grimme, J. Phys. Chem. A,
     2023, XX, XXXX-XXXX. DOI: 10.1021/acs.jpca.3c04382
   
   for DFT-D4:
   * E. Caldeweyher, C. Bannwarth and S. Grimme, J. Chem. Phys., 2017,
     147, 034112. DOI: 10.1063/1.4993215
   * E. Caldeweyher, S. Ehlert, A. Hansen, H. Neugebauer, S. Spicher,
     C. Bannwarth and S. Grimme, J. Chem. Phys., 2019, 150, 154122.
     DOI: 10.1063/1.5090222
   * E. Caldeweyher, J.-M. Mewes, S. Ehlert and S. Grimme, Phys. Chem. Chem. Phys.
     2020, 22, 8499-8512. DOI: 10.1039/D0CP00502A
   
   for sTDA-xTB:
   * S. Grimme and C. Bannwarth, J. Chem. Phys., 2016, 145, 054103.
     DOI: 10.1063/1.4959605
   
   in the mass-spec context:
   * V. Asgeirsson, C. Bauer and S. Grimme, Chem. Sci., 2017, 8, 4879.
     DOI: 10.1039/c7sc00601b
   * J. Koopman and S. Grimme, ACS Omega 2019, 4, 12, 15120-15133.
     DOI: 10.1021/acsomega.9b02011
   
   for metadynamics refer to:
   * S. Grimme, J. Chem. Theory Comput., 2019, 155, 2847-2862
     DOI: 10.1021/acs.jctc.9b00143
   
   for SPH calculations refer to:
   * S. Spicher and S. Grimme, J. Chem. Theory Comput., 2021, 17, 1701-1714
     DOI: 10.1021/acs.jctc.0c01306
   
   for ONIOM refer to:
   * C. Plett, A. Katbashev, S. Ehlert, S. Grimme, M. Bursch,
     Phys. Chem. Chem. Phys., 2023, 25, 17860-17868. DOI: 10.1039/D3CP02178E
   
   for DIPRO refer to:
   * J. Kohn, N. Gildemeister, S. Grimme, D. Fazzi, A. Hansen,
     J. Chem. Phys., 2023, just accepted.
   
   for PTB refer to:
   * S. Grimme, M. Mueller, A. Hansen, J. Chem. Phys., 2023, 158, 124111.
     DOI: 10.1063/5.0137838
   
   with help from (in alphabetical order)
   P. Atkinson, C. Bannwarth, F. Bohle, G. Brandenburg, E. Caldeweyher
   M. Checinski, S. Dohm, S. Ehlert, S. Ehrlich, I. Gerasimov, C. Hölzer
   A. Katbashev, J. Kohn, J. Koopman, C. Lavigne, S. Lehtola, F. März, M. Müller,
   F. Musil, H. Neugebauer, J. Pisarek, C. Plett, P. Pracht, F. Pultar,
   J. Seibert, P. Shushkov, S. Spicher, M. Stahn, M. Steiner, T. Strunk,
   J. Stückrath, T. Rose, and J. Unsleber
   
 * started run on 2026/07/07 at 11:53:39.105     
   ID    Z sym.   atoms
    1    6 C      1-8, 11, 13-19
    2    8 O      9, 10, 12
    3    1 H      20-49

           -------------------------------------------------
          |                Calculation Setup                |
           -------------------------------------------------

          program call               : /home/ws/xd2484/miniforge3/envs/p3z_dft/bin/xtb xtb_input.xyz --gfn 2 --opt tight --cycles 500 --chrg 0 --uhf 0
          hostname                   : gpu10
          coordinate file            : xtb_input.xyz
          omp threads                :                    16


           -------------------------------------------------
          |                 G F N 2 - x T B                 |
           -------------------------------------------------

        Reference                      10.1021/acs.jctc.8b01176
      * Hamiltonian:
        H0-scaling (s, p, d)           1.850000    2.230000    2.230000
        zeta-weighting                 0.500000
      * Dispersion:
        s8                             2.700000
        a1                             0.520000
        a2                             5.000000
        s9                             5.000000
      * Repulsion:
        kExp                           1.500000    1.000000
        rExp                           1.000000
      * Coulomb:
        alpha                          2.000000
        third order                    shell-resolved
        anisotropic                    true
        a3                             3.000000
        a5                             4.000000
        cn-shift                       1.200000
        cn-exp                         4.000000
        max-rad                        5.000000


          ...................................................
          :                      SETUP                      :
          :.................................................:
          :  # basis functions                 106          :
          :  # atomic orbitals                 106          :
          :  # shells                           68          :
          :  # electrons                       112          :
          :  max. iterations                   250          :
          :  Hamiltonian                  GFN2-xTB          :
          :  restarted?                      false          :
          :  GBSA solvation                  false          :
          :  PC potential                    false          :
          :  electronic temp.          300.0000000     K    :
          :  accuracy                    1.0000000          :
          :  -> integral cutoff          0.2500000E+02      :
          :  -> integral neglect         0.1000000E-07      :
          :  -> SCF convergence          0.1000000E-05 Eh   :
          :  -> wf. convergence          0.1000000E-03 e    :
          :  Broyden damping             0.4000000          :
          :  net charge                          0          :
          :  unpaired electrons                  0          :
          ...................................................

 iter      E             dE          RMSdq      gap      omega  full diag
   1    -62.3841225 -0.623841E+02  0.339E+00    4.34       0.0  T
   2    -62.5369467 -0.152824E+00  0.181E+00    3.19       1.0  T
   3    -62.5498710 -0.129243E-01  0.111E+00    3.71       1.0  T
   4    -62.5576354 -0.776440E-02  0.227E-01    3.39       1.0  T
   5    -62.5584580 -0.822579E-03  0.732E-02    3.46       1.0  T
   6    -62.5584808 -0.227637E-04  0.186E-02    3.46       1.0  T
   7    -62.5584823 -0.154252E-05  0.709E-03    3.46       2.0  T
   8    -62.5584826 -0.273702E-06  0.148E-03    3.46       9.7  T
   9    -62.5584826 -0.166397E-07  0.613E-04    3.46      23.3  T
  10    -62.5584826 -0.177926E-08  0.296E-04    3.46      48.2  T

   *** convergence criteria satisfied after 10 iterations ***

         #    Occupation            Energy/Eh            Energy/eV
      -------------------------------------------------------------
         1        2.0000           -0.7771971             -21.1486
       ...           ...                  ...                  ...
        50        2.0000           -0.4322725             -11.7627
        51        2.0000           -0.4280724             -11.6484
        52        2.0000           -0.4258555             -11.5881
        53        2.0000           -0.4222395             -11.4897
        54        2.0000           -0.4196661             -11.4197
        55        2.0000           -0.4182888             -11.3822
        56        2.0000           -0.4091357             -11.1331 (HOMO)
        57                         -0.2820371              -7.6746 (LUMO)
        58                         -0.2292912              -6.2393
        59                          0.0089732               0.2442
        60                          0.0519646               1.4140
        61                          0.0597721               1.6265
       ...                                ...                  ...
       106                          0.6359562              17.3052
      -------------------------------------------------------------
                  HL-Gap            0.1270986 Eh            3.4585 eV
             Fermi-level           -0.3455864 Eh           -9.4039 eV

 SCC (total)                   0 d,  0 h,  0 min,  0.310 sec
 SCC setup                      ...        0 min,  0.005 sec (  1.735%)
 Dispersion                     ...        0 min,  0.013 sec (  4.160%)
 classical contributions        ...        0 min,  0.006 sec (  1.920%)
 integral evaluation            ...        0 min,  0.020 sec (  6.476%)
 iterations                     ...        0 min,  0.201 sec ( 64.734%)
 molecular gradient             ...        0 min,  0.065 sec ( 20.881%)
 printout                       ...        0 min,  0.000 sec (  0.084%)

         :::::::::::::::::::::::::::::::::::::::::::::::::::::
         ::                     SUMMARY                     ::
         :::::::::::::::::::::::::::::::::::::::::::::::::::::
         :: total energy             -61.794731509517 Eh    ::
         :: gradient norm              0.099333240868 Eh/a0 ::
         :: HOMO-LUMO gap              3.458528118608 eV    ::
         ::.................................................::
         :: SCC energy               -62.558626841281 Eh    ::
         :: -> isotropic ES            0.071826261577 Eh    ::
         :: -> anisotropic ES          0.013445890943 Eh    ::
         :: -> anisotropic XC          0.024816815826 Eh    ::
         :: -> dispersion             -0.035388553561 Eh    ::
         :: repulsion energy           0.763895331765 Eh    ::
         :: add. restraining           0.000000000000 Eh    ::
         :: total charge              -0.000000000000 e     ::
         :::::::::::::::::::::::::::::::::::::::::::::::::::::

      ----------------------------------------------------------- 
     |                   =====================                   |
     |                        A N C O P T                        |
     |                   =====================                   |
     |               Approximate Normal Coordinate               |
     |                Rational Function Optimizer                |
      ----------------------------------------------------------- 
      ----------------------------------------------------------- 
     |                   =====================                   |
     |                        A N C O P T                        |
     |                   =====================                   |
     |               Approximate Normal Coordinate               |
     |                Rational Function Optimizer                |
      ----------------------------------------------------------- 

          ...................................................
          :                      SETUP                      :
          :.................................................:
          :   optimization level             tight          :
          :   max. optcycles                   500          :
          :   ANC micro-cycles                  20          :
          :   degrees of freedom               141          :
          :.................................................:
          :   RF solver                   davidson          :
          :   write xtbopt.log                true          :
          :   linear?                        false          :
          :   energy convergence         0.1000000E-05 Eh   :
          :   grad. convergence          0.8000000E-03 Eh/α :
          :   maxmium RF displ.          1.0000000          :
          :   Hlow (freq-cutoff)         0.1000000E-01      :
          :   Hmax (freq-cutoff)         5.0000000          :
          :   S6 in model hess.         20.0000000          :
          ...................................................

generating ANC from exact Hessian ...
Using Lindh-Hessian (1995)
 Shifting diagonal of input Hessian by    9.9297520866604670E-003
 Lowest  eigenvalues of input Hessian
    0.000000    0.000000    0.000000    0.000000    0.000000    0.010000
    0.000000    0.010196    0.010291    0.010671    0.010854    0.011173
    0.011375    0.011936    0.012410    0.012811    0.013333    0.014429
 Highest eigenvalues
    1.288977    1.293685    1.419432    1.747882    2.301303    2.309653


........................................................................
.............................. CYCLE    1 ..............................
........................................................................

 iter      E             dE          RMSdq      gap      omega  full diag
   1    -62.5584826 -0.625585E+02  0.921E-05    3.46       0.0  T
   2    -62.5584826 -0.549676E-10  0.538E-05    3.46     265.7  T
   3    -62.5584826 -0.772360E-11  0.334E-05    3.46     427.5  T
     SCC iter.                  ...        0 min,  0.048 sec
     gradient                   ...        0 min,  0.048 sec
 * total energy  :   -61.7947315 Eh     change       -0.9149232E-09 Eh
   gradient norm :     0.0993384 Eh/α   predicted     0.0000000E+00 (-100.00%)
   displ. norm   :     0.1692878 α      lambda       -0.9461859E-02
   maximum displ.:     0.0540658 α      in ANC's #32, #103, #63, ...

........................................................................
.............................. CYCLE    2 ..............................
........................................................................

 iter      E             dE          RMSdq      gap      omega  full diag
   1    -62.5930318 -0.625930E+02  0.148E-01    3.73       0.0  T
   2    -62.5933416 -0.309795E-03  0.874E-02    3.70       1.0  T
   3    -62.5933469 -0.527696E-05  0.444E-02    3.71       1.0  T
   4    -62.5933480 -0.108416E-05  0.636E-03    3.70       2.2  T
   5    -62.5933486 -0.632441E-06  0.213E-03    3.70       6.7  T
   6    -62.5933486 -0.446273E-08  0.119E-03    3.70      12.0  T
   7    -62.5933487 -0.143773E-07  0.178E-04    3.70      80.5  T
   8    -62.5933487 -0.236838E-09  0.870E-05    3.70     164.3  T
     SCC iter.                  ...        0 min,  0.110 sec
     gradient                   ...        0 min,  0.036 sec
 * total energy  :   -61.8007372 Eh     change       -0.6005724E-02 Eh
   gradient norm :     0.0297808 Eh/α   predicted    -0.4867159E-02 ( -18.96%)
   displ. norm   :     0.1261080 α      lambda       -0.1624066E-02
   maximum displ.:     0.0510630 α      in ANC's #12, #32, #25, ...

........................................................................
.............................. CYCLE    3 ..............................
........................................................................

 iter      E             dE          RMSdq      gap      omega  full diag
   1    -62.6031556 -0.626032E+02  0.719E-02    3.80       0.0  T
   2    -62.6032552 -0.995179E-04  0.427E-02    3.80       1.0  T
   3    -62.6032583 -0.310425E-05  0.234E-02    3.80       1.0  T
   4    -62.6032580  0.215732E-06  0.831E-03    3.80       1.7  T
   5    -62.6032591 -0.109201E-05  0.139E-03    3.80      10.3  T
   6    -62.6032591 -0.161340E-07  0.567E-04    3.80      25.2  T
   7    -62.6032591 -0.147289E-08  0.160E-04    3.80      89.3  T
     SCC iter.                  ...        0 min,  0.078 sec
     gradient                   ...        0 min,  0.026 sec
 * total energy  :   -61.8016996 Eh     change       -0.9623164E-03 Eh
   gradient norm :     0.0126083 Eh/α   predicted    -0.8299196E-03 ( -13.76%)
   displ. norm   :     0.0940036 α      lambda       -0.2803700E-03
   maximum displ.:     0.0469987 α      in ANC's #12, #15, #5, ...

........................................................................
.............................. CYCLE    4 ..............................
........................................................................

 iter      E             dE          RMSdq      gap      omega  full diag
   1    -62.6026677 -0.626027E+02  0.265E-02    3.80       0.0  T
   2    -62.6026776 -0.987680E-05  0.164E-02    3.81       1.0  T
   3    -62.6026782 -0.654069E-06  0.864E-03    3.80       1.7  T
   4    -62.6026785 -0.212748E-06  0.290E-03    3.81       4.9  T
   5    -62.6026786 -0.956136E-07  0.667E-04    3.81      21.4  T
   6    -62.6026786 -0.373216E-08  0.148E-04    3.81      96.7  T
     SCC iter.                  ...        0 min,  0.161 sec
     gradient                   ...        0 min,  0.031 sec
 * total energy  :   -61.8018879 Eh     change       -0.1883375E-03 Eh
   gradient norm :     0.0048431 Eh/α   predicted    -0.1414309E-03 ( -24.91%)
   displ. norm   :     0.1149430 α      lambda       -0.1327687E-03
   maximum displ.:     0.0570209 α      in ANC's #12, #15, #5, ...

........................................................................
.............................. CYCLE    5 ..............................
........................................................................

 iter      E             dE          RMSdq      gap      omega  full diag
   1    -62.6013119 -0.626013E+02  0.208E-02    3.81       0.0  T
   2    -62.6013150 -0.309755E-05  0.125E-02    3.81       1.1  T
   3    -62.6013150 -0.426362E-07  0.550E-03    3.81       2.6  T
   4    -62.6013153 -0.230119E-06  0.140E-03    3.81      10.2  T
   5    -62.6013153 -0.334997E-07  0.440E-04    3.81      32.5  T
   6    -62.6013153 -0.131384E-08  0.125E-04    3.81     114.1  T
     SCC iter.                  ...        0 min,  0.062 sec
     gradient                   ...        0 min,  0.022 sec
 * total energy  :   -61.8019748 Eh     change       -0.8688567E-04 Eh
   gradient norm :     0.0028877 Eh/α   predicted    -0.6728705E-04 ( -22.56%)
   displ. norm   :     0.1185131 α      lambda       -0.7504720E-04
   maximum displ.:     0.0494723 α      in ANC's #12, #15, #5, ...

........................................................................
.............................. CYCLE    6 ..............................
........................................................................

 iter      E             dE          RMSdq      gap      omega  full diag
   1    -62.6006074 -0.626006E+02  0.203E-02    3.81       0.0  T
   2    -62.6006078 -0.391755E-06  0.120E-02    3.81       1.2  T
   3    -62.6006079 -0.273921E-07  0.127E-03    3.81      11.3  T
   4    -62.6006079 -0.137414E-07  0.451E-04    3.81      31.7  T
   5    -62.6006079 -0.289488E-08  0.236E-04    3.81      60.6  T
     SCC iter.                  ...        0 min,  0.067 sec
     gradient                   ...        0 min,  0.032 sec
 * total energy  :   -61.8020275 Eh     change       -0.5276485E-04 Eh
   gradient norm :     0.0044556 Eh/α   predicted    -0.3807505E-04 ( -27.84%)
   displ. norm   :     0.1445292 α      lambda       -0.6794716E-04
   maximum displ.:     0.0602114 α      in ANC's #5, #15, #12, ...

........................................................................
.............................. CYCLE    7 ..............................
........................................................................

 iter      E             dE          RMSdq      gap      omega  full diag
   1    -62.6006148 -0.626006E+02  0.237E-02    3.82       0.0  T
   2    -62.6006151 -0.338011E-06  0.140E-02    3.81       1.0  T
   3    -62.6006150  0.102745E-06  0.246E-03    3.82       5.8  T
   4    -62.6006152 -0.201382E-06  0.653E-04    3.81      21.9  T
   5    -62.6006152 -0.214120E-08  0.249E-04    3.81      57.3  T
     SCC iter.                  ...        0 min,  0.057 sec
     gradient                   ...        0 min,  0.028 sec
 * total energy  :   -61.8020754 Eh     change       -0.4786292E-04 Eh
   gradient norm :     0.0040926 Eh/α   predicted    -0.3468723E-04 ( -27.53%)
   displ. norm   :     0.1247480 α      lambda       -0.4907609E-04
   maximum displ.:     0.0562812 α      in ANC's #5, #3, #15, ...

........................................................................
.............................. CYCLE    8 ..............................
........................................................................

 iter      E             dE          RMSdq      gap      omega  full diag
   1    -62.6013010 -0.626013E+02  0.235E-02    3.82       0.0  T
   2    -62.6013019 -0.912400E-06  0.140E-02    3.81       1.0  T
   3    -62.6013017  0.234234E-06  0.394E-03    3.82       3.6  T
   4    -62.6013021 -0.408271E-06  0.758E-04    3.82      18.8  T
   5    -62.6013021 -0.499960E-08  0.350E-04    3.82      40.9  T
     SCC iter.                  ...        0 min,  0.062 sec
     gradient                   ...        0 min,  0.034 sec
 * total energy  :   -61.8021110 Eh     change       -0.3561543E-04 Eh
   gradient norm :     0.0023521 Eh/α   predicted    -0.2492131E-04 ( -30.03%)
   displ. norm   :     0.1164947 α      lambda       -0.3788275E-04
   maximum displ.:     0.0550947 α      in ANC's #5, #3, #4, ...

........................................................................
.............................. CYCLE    9 ..............................
........................................................................

 iter      E             dE          RMSdq      gap      omega  full diag
   1    -62.6020997 -0.626021E+02  0.252E-02    3.82       0.0  T
   2    -62.6021006 -0.823465E-06  0.148E-02    3.82       1.0  T
   3    -62.6021004  0.200435E-06  0.365E-03    3.82       3.9  T
   4    -62.6021007 -0.355259E-06  0.745E-04    3.82      19.2  T
   5    -62.6021007 -0.578230E-08  0.377E-04    3.82      37.9  T
     SCC iter.                  ...        0 min,  0.125 sec
     gradient                   ...        0 min,  0.042 sec
 * total energy  :   -61.8021391 Eh     change       -0.2808236E-04 Eh
   gradient norm :     0.0017326 Eh/α   predicted    -0.1919980E-04 ( -31.63%)
   displ. norm   :     0.1881454 α      lambda       -0.3373204E-04
   maximum displ.:     0.0892564 α      in ANC's #5, #3, #4, ...

........................................................................
.............................. CYCLE   10 ..............................
........................................................................

 iter      E             dE          RMSdq      gap      omega  full diag
   1    -62.6027400 -0.626027E+02  0.465E-02    3.82       0.0  T
   2    -62.6027414 -0.140587E-05  0.273E-02    3.82       1.0  T
   3    -62.6027411  0.310118E-06  0.463E-03    3.82       3.1  T
   4    -62.6027417 -0.645645E-06  0.119E-03    3.82      12.0  T
   5    -62.6027417 -0.122115E-07  0.636E-04    3.82      22.5  T
   6    -62.6027417 -0.138647E-08  0.141E-04    3.82     101.2  T
     SCC iter.                  ...        0 min,  0.096 sec
     gradient                   ...        0 min,  0.050 sec
 * total energy  :   -61.8021722 Eh     change       -0.3305646E-04 Eh
   gradient norm :     0.0031078 Eh/α   predicted    -0.1713446E-04 ( -48.17%)
   displ. norm   :     0.0931863 α      lambda       -0.2730807E-04
   maximum displ.:     0.0433097 α      in ANC's #3, #5, #22, ...

........................................................................
.............................. CYCLE   11 ..............................
........................................................................

 iter      E             dE          RMSdq      gap      omega  full diag
   1    -62.6028143 -0.626028E+02  0.253E-02    3.82       0.0  T
   2    -62.6028145 -0.194797E-06  0.149E-02    3.82       1.0  T
   3    -62.6028145 -0.273866E-07  0.133E-03    3.82      10.8  T
   4    -62.6028145 -0.432819E-07  0.605E-04    3.82      23.6  T
   5    -62.6028145 -0.263123E-08  0.252E-04    3.82      56.7  T
     SCC iter.                  ...        0 min,  0.144 sec
     gradient                   ...        0 min,  0.037 sec
 * total energy  :   -61.8021961 Eh     change       -0.2397651E-04 Eh
   gradient norm :     0.0026704 Eh/α   predicted    -0.1377382E-04 ( -42.55%)
   displ. norm   :     0.2934647 α      lambda       -0.7906638E-04
   maximum displ.:     0.1325639 α      in ANC's #3, #5, #13, ...

........................................................................
.............................. CYCLE   12 ..............................
........................................................................

 iter      E             dE          RMSdq      gap      omega  full diag
   1    -62.6016322 -0.626016E+02  0.824E-02    3.83       0.0  T
   2    -62.6016342 -0.203978E-05  0.485E-02    3.83       1.0  T
   3    -62.6016347 -0.474217E-06  0.359E-03    3.83       4.0  T
   4    -62.6016349 -0.233547E-06  0.185E-03    3.83       7.7  T
   5    -62.6016349 -0.137294E-07  0.754E-04    3.83      18.9  T
   6    -62.6016349 -0.751545E-08  0.322E-04    3.83      44.3  T
     SCC iter.                  ...        0 min,  0.068 sec
     gradient                   ...        0 min,  0.029 sec
 * total energy  :   -61.8022439 Eh     change       -0.4776026E-04 Eh
   gradient norm :     0.0050748 Eh/α   predicted    -0.4294101E-04 ( -10.09%)
   displ. norm   :     0.1079236 α      lambda       -0.4440694E-04
   maximum displ.:     0.0414996 α      in ANC's #13, #3, #9, ...

........................................................................
.............................. CYCLE   13 ..............................
........................................................................

 iter      E             dE          RMSdq      gap      omega  full diag
   1    -62.6021685 -0.626022E+02  0.276E-02    3.84       0.0  T
   2    -62.6021695 -0.964559E-06  0.164E-02    3.84       1.0  T
   3    -62.6021694  0.590634E-07  0.275E-03    3.84       5.2  T
   4    -62.6021696 -0.165440E-06  0.702E-04    3.84      20.3  T
   5    -62.6021696 -0.876983E-08  0.371E-04    3.84      38.5  T
     SCC iter.                  ...        0 min,  0.047 sec
     gradient                   ...        0 min,  0.038 sec
 * total energy  :   -61.8022704 Eh     change       -0.2648597E-04 Eh
   gradient norm :     0.0037009 Eh/α   predicted    -0.2246518E-04 ( -15.18%)
   displ. norm   :     0.1723524 α      lambda       -0.3807866E-04
   maximum displ.:     0.0739824 α      in ANC's #3, #5, #13, ...

........................................................................
.............................. CYCLE   14 ..............................
........................................................................

 iter      E             dE          RMSdq      gap      omega  full diag
   1    -62.6015338 -0.626015E+02  0.459E-02    3.85       0.0  T
   2    -62.6015344 -0.570744E-06  0.270E-02    3.85       1.0  T
   3    -62.6015345 -0.114304E-06  0.195E-03    3.85       7.3  T
   4    -62.6015346 -0.757704E-07  0.957E-04    3.85      14.9  T
   5    -62.6015346 -0.608250E-08  0.440E-04    3.85      32.5  T
     SCC iter.                  ...        0 min,  0.063 sec
     gradient                   ...        0 min,  0.036 sec
 * total energy  :   -61.8023000 Eh     change       -0.2959222E-04 Eh
   gradient norm :     0.0035798 Eh/α   predicted    -0.1960705E-04 ( -33.74%)
   displ. norm   :     0.1920076 α      lambda       -0.6072069E-04
   maximum displ.:     0.0833153 α      in ANC's #13, #3, #9, ...

........................................................................
.............................. CYCLE   15 ..............................
........................................................................

 iter      E             dE          RMSdq      gap      omega  full diag
   1    -62.6017540 -0.626018E+02  0.479E-02    3.86       0.0  T
   2    -62.6017553 -0.123567E-05  0.280E-02    3.86       1.0  T
   3    -62.6017551  0.150961E-06  0.364E-03    3.86       3.9  T
   4    -62.6017555 -0.408042E-06  0.112E-03    3.86      12.8  T
   5    -62.6017555 -0.166433E-07  0.493E-04    3.86      28.9  T
   6    -62.6017555 -0.939345E-09  0.202E-04    3.86      70.9  T
     SCC iter.                  ...        0 min,  0.073 sec
     gradient                   ...        0 min,  0.028 sec
 * total energy  :   -61.8023359 Eh     change       -0.3594185E-04 Eh
   gradient norm :     0.0024808 Eh/α   predicted    -0.3148344E-04 ( -12.40%)
   displ. norm   :     0.1173052 α      lambda       -0.1851173E-04
   maximum displ.:     0.0530961 α      in ANC's #13, #3, #5, ...

........................................................................
.............................. CYCLE   16 ..............................
........................................................................

 iter      E             dE          RMSdq      gap      omega  full diag
   1    -62.6015111 -0.626015E+02  0.307E-02    3.86       0.0  T
   2    -62.6015115 -0.408867E-06  0.180E-02    3.86       1.0  T
   3    -62.6015115  0.127721E-07  0.190E-03    3.86       7.5  T
   4    -62.6015116 -0.993178E-07  0.656E-04    3.86      21.8  T
   5    -62.6015116 -0.457220E-08  0.353E-04    3.86      40.4  T
     SCC iter.                  ...        0 min,  0.052 sec
     gradient                   ...        0 min,  0.028 sec
 * total energy  :   -61.8023488 Eh     change       -0.1285646E-04 Eh
   gradient norm :     0.0026114 Eh/α   predicted    -0.9387567E-05 ( -26.98%)
   displ. norm   :     0.0872590 α      lambda       -0.2976528E-04
   maximum displ.:     0.0492389 α      in ANC's #13, #6, #2, ...

........................................................................
.............................. CYCLE   17 ..............................
........................................................................

 iter      E             dE          RMSdq      gap      omega  full diag
   1    -62.6030731 -0.626031E+02  0.201E-02    3.87       0.0  T
   2    -62.6030738 -0.715508E-06  0.119E-02    3.87       1.2  T
   3    -62.6030736  0.175331E-06  0.346E-03    3.87       4.1  T
   4    -62.6030739 -0.305607E-06  0.573E-04    3.87      24.9  T
   5    -62.6030739 -0.279791E-08  0.302E-04    3.87      47.3  T
     SCC iter.                  ...        0 min,  0.051 sec
     gradient                   ...        0 min,  0.027 sec
 * total energy  :   -61.8023619 Eh     change       -0.1311065E-04 Eh
   gradient norm :     0.0025727 Eh/α   predicted    -0.1499902E-04 (  14.40%)
   displ. norm   :     0.0733213 α      lambda       -0.1356492E-04
   maximum displ.:     0.0372727 α      in ANC's #13, #3, #2, ...

........................................................................
.............................. CYCLE   18 ..............................
........................................................................

 iter      E             dE          RMSdq      gap      omega  full diag
   1    -62.6025984 -0.626026E+02  0.215E-02    3.87       0.0  T
   2    -62.6025988 -0.385511E-06  0.125E-02    3.87       1.1  T
   3    -62.6025988  0.296506E-07  0.192E-03    3.87       7.5  T
   4    -62.6025988 -0.872464E-07  0.517E-04    3.87      27.6  T
   5    -62.6025988 -0.314492E-08  0.273E-04    3.87      52.3  T
     SCC iter.                  ...        0 min,  0.051 sec
     gradient                   ...        0 min,  0.027 sec
 * total energy  :   -61.8023708 Eh     change       -0.8928088E-05 Eh
   gradient norm :     0.0018763 Eh/α   predicted    -0.6822221E-05 ( -23.59%)
   displ. norm   :     0.0666749 α      lambda       -0.1037290E-04
   maximum displ.:     0.0317626 α      in ANC's #13, #6, #2, ...

........................................................................
.............................. CYCLE   19 ..............................
........................................................................

 iter      E             dE          RMSdq      gap      omega  full diag
   1    -62.6024024 -0.626024E+02  0.145E-02    3.87       0.0  T
   2    -62.6024027 -0.346290E-06  0.846E-03    3.87       1.7  T
   3    -62.6024027  0.590264E-07  0.226E-03    3.87       6.3  T
   4    -62.6024028 -0.114852E-06  0.476E-04    3.87      30.0  T
   5    -62.6024028 -0.351596E-08  0.190E-04    3.87      75.1  T
     SCC iter.                  ...        0 min,  0.052 sec
     gradient                   ...        0 min,  0.027 sec
 * total energy  :   -61.8023808 Eh     change       -0.1000228E-04 Eh
   gradient norm :     0.0018750 Eh/α   predicted    -0.5198350E-05 ( -48.03%)
   displ. norm   :     0.0731750 α      lambda       -0.7611390E-05
   maximum displ.:     0.0376589 α      in ANC's #6, #13, #2, ...

........................................................................
.............................. CYCLE   20 ..............................
........................................................................

 iter      E             dE          RMSdq      gap      omega  full diag
   1    -62.6024817 -0.626025E+02  0.141E-02    3.88       0.0  T
   2    -62.6024818 -0.106576E-06  0.830E-03    3.88       1.7  T
   3    -62.6024818  0.478008E-07  0.147E-03    3.88       9.7  T
   4    -62.6024819 -0.770175E-07  0.307E-04    3.88      46.5  T
   5    -62.6024819 -0.654651E-09  0.143E-04    3.88      99.9  T
     SCC iter.                  ...        0 min,  0.052 sec
     gradient                   ...        0 min,  0.021 sec
 * total energy  :   -61.8023893 Eh     change       -0.8460394E-05 Eh
   gradient norm :     0.0012643 Eh/α   predicted    -0.3815740E-05 ( -54.90%)
   displ. norm   :     0.1019100 α      lambda       -0.7153586E-05
   maximum displ.:     0.0497842 α      in ANC's #6, #2, #13, ...
 * RMSD in coord.:     0.2582888 α      energy gain  -0.7657762E-02 Eh

generating ANC from exact Hessian ...
Using Lindh-Hessian (1995)
 Shifting diagonal of input Hessian by    9.9280933707936222E-003
 Lowest  eigenvalues of input Hessian
    0.000000    0.000000    0.000000    0.000000    0.000000    0.010000
    0.000000    0.010185    0.010297    0.010690    0.010885    0.011170
    0.011394    0.011946    0.012450    0.012797    0.013494    0.014489
 Highest eigenvalues
    1.303383    1.307828    1.432361    1.810086    2.376309    2.395985


........................................................................
.............................. CYCLE   21 ..............................
........................................................................

 iter      E             dE          RMSdq      gap      omega  full diag
   1    -62.6022557 -0.626023E+02  0.237E-02    3.88       0.0  T
   2    -62.6022559 -0.199760E-06  0.140E-02    3.88       1.0  T
   3    -62.6022559  0.199520E-07  0.148E-03    3.88       9.6  T
   4    -62.6022559 -0.714674E-07  0.494E-04    3.88      28.9  T
   5    -62.6022559 -0.220611E-08  0.233E-04    3.88      61.4  T
     SCC iter.                  ...        0 min,  0.041 sec
     gradient                   ...        0 min,  0.033 sec
 * total energy  :   -61.8023964 Eh     change       -0.7165878E-05 Eh
   gradient norm :     0.0014562 Eh/α   predicted     0.0000000E+00 (-100.00%)
   displ. norm   :     0.0167638 α      lambda       -0.6453649E-06
   maximum displ.:     0.0068062 α      in ANC's #4, #2, #7, ...

........................................................................
.............................. CYCLE   22 ..............................
........................................................................

 iter      E             dE          RMSdq      gap      omega  full diag
   1    -62.6025867 -0.626026E+02  0.628E-03    3.88       0.0  T
   2    -62.6025868 -0.103637E-06  0.378E-03    3.88       3.8  T
   3    -62.6025868  0.402422E-08  0.885E-04    3.88      16.1  T
   4    -62.6025868 -0.118230E-07  0.208E-04    3.88      68.6  T
     SCC iter.                  ...        0 min,  0.133 sec
     gradient                   ...        0 min,  0.058 sec
 * total energy  :   -61.8024000 Eh     change       -0.3562792E-05 Eh
   gradient norm :     0.0004115 Eh/α   predicted    -0.1633213E-05 ( -54.16%)
   displ. norm   :     0.0429207 α      lambda       -0.4461383E-05
   maximum displ.:     0.0191505 α      in ANC's #4, #2, #7, ...

........................................................................
.............................. CYCLE   23 ..............................
........................................................................

 iter      E             dE          RMSdq      gap      omega  full diag
   1    -62.6026476 -0.626026E+02  0.139E-02    3.89       0.0  T
   2    -62.6026477 -0.131739E-06  0.820E-03    3.89       1.7  T
   3    -62.6026477  0.196333E-07  0.125E-03    3.88      11.4  T
   4    -62.6026477 -0.509248E-07  0.393E-04    3.89      36.3  T
   5    -62.6026478 -0.127371E-08  0.204E-04    3.89      70.1  T
     SCC iter.                  ...        0 min,  0.084 sec
     gradient                   ...        0 min,  0.052 sec
 * total energy  :   -61.8024050 Eh     change       -0.4967686E-05 Eh
   gradient norm :     0.0011291 Eh/α   predicted    -0.2234253E-05 ( -55.02%)
   displ. norm   :     0.0668731 α      lambda       -0.4802566E-05
   maximum displ.:     0.0311675 α      in ANC's #2, #4, #7, ...

........................................................................
.............................. CYCLE   24 ..............................
........................................................................

 iter      E             dE          RMSdq      gap      omega  full diag
   1    -62.6024864 -0.626025E+02  0.221E-02    3.89       0.0  T
   2    -62.6024866 -0.133065E-06  0.130E-02    3.89       1.1  T
   3    -62.6024866 -0.393327E-07  0.101E-03    3.89      14.1  T
   4    -62.6024866 -0.186242E-07  0.556E-04    3.89      25.7  T
   5    -62.6024866 -0.171261E-08  0.211E-04    3.89      67.6  T
     SCC iter.                  ...        0 min,  0.083 sec
     gradient                   ...        0 min,  0.047 sec
 * total energy  :   -61.8024104 Eh     change       -0.5477981E-05 Eh
   gradient norm :     0.0011974 Eh/α   predicted    -0.2412414E-05 ( -55.96%)
   displ. norm   :     0.0968011 α      lambda       -0.5832777E-05
   maximum displ.:     0.0475434 α      in ANC's #2, #4, #7, ...

........................................................................
.............................. CYCLE   25 ..............................
........................................................................

 iter      E             dE          RMSdq      gap      omega  full diag
   1    -62.6022652 -0.626023E+02  0.308E-02    3.89       0.0  T
   2    -62.6022655 -0.275310E-06  0.180E-02    3.89       1.0  T
   3    -62.6022656 -0.774238E-07  0.148E-03    3.89       9.6  T
   4    -62.6022656 -0.441032E-07  0.799E-04    3.89      17.9  T
   5    -62.6022656 -0.327881E-08  0.301E-04    3.89      47.5  T
     SCC iter.                  ...        0 min,  0.073 sec
     gradient                   ...        0 min,  0.047 sec
 * total energy  :   -61.8024165 Eh     change       -0.6096013E-05 Eh
   gradient norm :     0.0008803 Eh/α   predicted    -0.2961616E-05 ( -51.42%)
   displ. norm   :     0.0929064 α      lambda        0.8453277E-06
   maximum displ.:     0.0455773 α      in ANC's #2, #4, #7, ...

........................................................................
.............................. CYCLE   26 ..............................
........................................................................

 iter      E             dE          RMSdq      gap      omega  full diag
   1    -62.6018415 -0.626018E+02  0.296E-02    3.88       0.0  T
   2    -62.6018417 -0.263420E-06  0.173E-02    3.88       1.0  T
   3    -62.6018418 -0.825181E-07  0.134E-03    3.88      10.6  T
   4    -62.6018419 -0.286596E-07  0.752E-04    3.88      19.0  T
   5    -62.6018419 -0.275072E-08  0.303E-04    3.88      47.2  T
     SCC iter.                  ...        0 min,  0.082 sec
     gradient                   ...        0 min,  0.038 sec
 * total energy  :   -61.8024161 Eh     change        0.4372593E-06 Eh
   gradient norm :     0.0017112 Eh/α   predicted     0.4213967E-06 (  -3.63%)
   displ. norm   :     0.0166261 α      lambda       -0.6249465E-05
   maximum displ.:     0.0066866 α      in ANC's #12, #18, #22, ...

........................................................................
.............................. CYCLE   27 ..............................
........................................................................

 iter      E             dE          RMSdq      gap      omega  full diag
   1    -62.6022015 -0.626022E+02  0.529E-03    3.89       0.0  T
   2    -62.6022016 -0.871188E-07  0.322E-03    3.89       4.4  T
   3    -62.6022016  0.123876E-07  0.140E-03    3.89      10.2  T
   4    -62.6022016 -0.350565E-07  0.139E-04    3.89     102.7  T
   5    -62.6022016 -0.620659E-10  0.786E-05    3.89     181.7  T
     SCC iter.                  ...        0 min,  0.063 sec
     gradient                   ...        0 min,  0.034 sec
 * total energy  :   -61.8024220 Eh     change       -0.5860709E-05 Eh
   gradient norm :     0.0007303 Eh/α   predicted    -0.3130560E-05 ( -46.58%)
   displ. norm   :     0.0342246 α      lambda       -0.4044534E-05
   maximum displ.:     0.0178338 α      in ANC's #2, #4, #12, ...

........................................................................
.............................. CYCLE   28 ..............................
........................................................................

 iter      E             dE          RMSdq      gap      omega  full diag
   1    -62.6025240 -0.626025E+02  0.719E-03    3.89       0.0  T
   2    -62.6025240 -0.837451E-07  0.428E-03    3.89       3.3  T
   3    -62.6025240  0.326007E-07  0.142E-03    3.89      10.0  T
   4    -62.6025241 -0.541148E-07  0.177E-04    3.89      80.9  T
   5    -62.6025241 -0.116692E-09  0.100E-04    3.89     142.5  T
     SCC iter.                  ...        0 min,  0.067 sec
     gradient                   ...        0 min,  0.035 sec
 * total energy  :   -61.8024262 Eh     change       -0.4224908E-05 Eh
   gradient norm :     0.0004474 Eh/α   predicted    -0.2027199E-05 ( -52.02%)
   displ. norm   :     0.0746192 α      lambda       -0.3638082E-05
   maximum displ.:     0.0420073 α      in ANC's #2, #4, #7, ...

........................................................................
.............................. CYCLE   29 ..............................
........................................................................

 iter      E             dE          RMSdq      gap      omega  full diag
   1    -62.6025316 -0.626025E+02  0.196E-02    3.89       0.0  T
   2    -62.6025318 -0.120513E-06  0.115E-02    3.89       1.2  T
   3    -62.6025318  0.461270E-08  0.128E-03    3.89      11.2  T
   4    -62.6025318 -0.520351E-07  0.479E-04    3.89      29.8  T
   5    -62.6025318 -0.107751E-08  0.206E-04    3.89      69.2  T
     SCC iter.                  ...        0 min,  0.080 sec
     gradient                   ...        0 min,  0.038 sec
 * total energy  :   -61.8024304 Eh     change       -0.4244936E-05 Eh
   gradient norm :     0.0005554 Eh/α   predicted    -0.1825236E-05 ( -57.00%)
   displ. norm   :     0.0800641 α      lambda       -0.3150020E-05
   maximum displ.:     0.0463077 α      in ANC's #2, #4, #7, ...

........................................................................
.............................. CYCLE   30 ..............................
........................................................................

 iter      E             dE          RMSdq      gap      omega  full diag
   1    -62.6024089 -0.626024E+02  0.208E-02    3.89       0.0  T
   2    -62.6024090 -0.902085E-07  0.122E-02    3.89       1.2  T
   3    -62.6024090 -0.335239E-07  0.800E-04    3.89      17.9  T
   4    -62.6024090 -0.875382E-08  0.459E-04    3.89      31.1  T
     SCC iter.                  ...        0 min,  0.061 sec
     gradient                   ...        0 min,  0.035 sec
 * total energy  :   -61.8024342 Eh     change       -0.3736823E-05 Eh
   gradient norm :     0.0005672 Eh/α   predicted    -0.1580534E-05 ( -57.70%)
   displ. norm   :     0.0688272 α      lambda       -0.2357719E-05
   maximum displ.:     0.0415023 α      in ANC's #2, #4, #7, ...

........................................................................
.............................. CYCLE   31 ..............................
........................................................................

 iter      E             dE          RMSdq      gap      omega  full diag
   1    -62.6023411 -0.626023E+02  0.171E-02    3.89       0.0  T
   2    -62.6023411 -0.496965E-07  0.101E-02    3.89       1.4  T
   3    -62.6023412 -0.238440E-07  0.569E-04    3.89      25.1  T
   4    -62.6023412 -0.202234E-08  0.330E-04    3.89      43.2  T
     SCC iter.                  ...        0 min,  0.058 sec
     gradient                   ...        0 min,  0.042 sec
 * total energy  :   -61.8024371 Eh     change       -0.2896079E-05 Eh
   gradient norm :     0.0004917 Eh/α   predicted    -0.1182265E-05 ( -59.18%)
   displ. norm   :     0.0675280 α      lambda       -0.2148964E-05
   maximum displ.:     0.0424492 α      in ANC's #2, #4, #7, ...

........................................................................
.............................. CYCLE   32 ..............................
........................................................................

 iter      E             dE          RMSdq      gap      omega  full diag
   1    -62.6022772 -0.626023E+02  0.162E-02    3.89       0.0  T
   2    -62.6022772 -0.411888E-07  0.955E-03    3.89       1.5  T
   3    -62.6022772 -0.186698E-07  0.513E-04    3.89      27.9  T
   4    -62.6022772 -0.175698E-08  0.295E-04    3.89      48.4  T
     SCC iter.                  ...        0 min,  0.111 sec
     gradient                   ...        0 min,  0.035 sec
 * total energy  :   -61.8024397 Eh     change       -0.2642912E-05 Eh
   gradient norm :     0.0004822 Eh/α   predicted    -0.1086871E-05 ( -58.88%)
   displ. norm   :     0.0621180 α      lambda       -0.1973539E-05
   maximum displ.:     0.0410465 α      in ANC's #2, #4, #7, ...

........................................................................
.............................. CYCLE   33 ..............................
........................................................................

 iter      E             dE          RMSdq      gap      omega  full diag
   1    -62.6023377 -0.626023E+02  0.135E-02    3.89       0.0  T
   2    -62.6023377 -0.331805E-07  0.794E-03    3.89       1.8  T
   3    -62.6023377 -0.539901E-08  0.560E-04    3.89      25.5  T
   4    -62.6023377 -0.767513E-08  0.260E-04    3.89      55.0  T
     SCC iter.                  ...        0 min,  0.056 sec
     gradient                   ...        0 min,  0.028 sec
 * total energy  :   -61.8024421 Eh     change       -0.2419083E-05 Eh
   gradient norm :     0.0003045 Eh/α   predicted    -0.9922566E-06 ( -58.98%)
   displ. norm   :     0.0677864 α      lambda       -0.1914394E-05
   maximum displ.:     0.0460585 α      in ANC's #2, #4, #7, ...

........................................................................
.............................. CYCLE   34 ..............................
........................................................................

 iter      E             dE          RMSdq      gap      omega  full diag
   1    -62.6023257 -0.626023E+02  0.144E-02    3.89       0.0  T
   2    -62.6023257 -0.345696E-07  0.850E-03    3.89       1.7  T
   3    -62.6023257 -0.658318E-09  0.693E-04    3.89      20.6  T
   4    -62.6023257 -0.148839E-07  0.278E-04    3.89      51.4  T
     SCC iter.                  ...        0 min,  0.045 sec
     gradient                   ...        0 min,  0.028 sec
 * total energy  :   -61.8024445 Eh     change       -0.2416226E-05 Eh
   gradient norm :     0.0003308 Eh/α   predicted    -0.9596418E-06 ( -60.28%)
   displ. norm   :     0.0549212 α      lambda       -0.1701604E-05
   maximum displ.:     0.0389921 α      in ANC's #2, #4, #6, ...

........................................................................
.............................. CYCLE   35 ..............................
........................................................................

 iter      E             dE          RMSdq      gap      omega  full diag
   1    -62.6024119 -0.626024E+02  0.101E-02    3.90       0.0  T
   2    -62.6024119 -0.276055E-07  0.593E-03    3.90       2.4  T
   3    -62.6024119  0.122016E-07  0.768E-04    3.90      18.6  T
   4    -62.6024119 -0.217635E-07  0.190E-04    3.90      75.4  T
     SCC iter.                  ...        0 min,  0.060 sec
     gradient                   ...        0 min,  0.038 sec
 * total energy  :   -61.8024467 Eh     change       -0.2179541E-05 Eh
   gradient norm :     0.0004760 Eh/α   predicted    -0.8557330E-06 ( -60.74%)
   displ. norm   :     0.0578531 α      lambda       -0.1760515E-05
   maximum displ.:     0.0410498 α      in ANC's #2, #4, #5, ...

........................................................................
.............................. CYCLE   36 ..............................
........................................................................

 iter      E             dE          RMSdq      gap      omega  full diag
   1    -62.6023606 -0.626024E+02  0.107E-02    3.90       0.0  T
   2    -62.6023606 -0.470388E-07  0.629E-03    3.90       2.3  T
   3    -62.6023606  0.124898E-07  0.824E-04    3.90      17.3  T
   4    -62.6023607 -0.228377E-07  0.209E-04    3.90      68.4  T
     SCC iter.                  ...        0 min,  0.042 sec
     gradient                   ...        0 min,  0.022 sec
 * total energy  :   -61.8024490 Eh     change       -0.2238561E-05 Eh
   gradient norm :     0.0002200 Eh/α   predicted    -0.8850236E-06 ( -60.46%)
   displ. norm   :     0.0529075 α      lambda       -0.1649740E-05
   maximum displ.:     0.0374610 α      in ANC's #2, #4, #5, ...

........................................................................
.............................. CYCLE   37 ..............................
........................................................................

 iter      E             dE          RMSdq      gap      omega  full diag
   1    -62.6024414 -0.626024E+02  0.782E-03    3.90       0.0  T
   2    -62.6024414 -0.227719E-07  0.463E-03    3.90       3.1  T
   3    -62.6024414  0.115682E-07  0.706E-04    3.90      20.2  T
   4    -62.6024414 -0.180716E-07  0.147E-04    3.90      97.2  T
     SCC iter.                  ...        0 min,  0.047 sec
     gradient                   ...        0 min,  0.028 sec
 * total energy  :   -61.8024511 Eh     change       -0.2097540E-05 Eh
   gradient norm :     0.0003934 Eh/α   predicted    -0.8307402E-06 ( -60.39%)
   displ. norm   :     0.0555174 α      lambda       -0.1710581E-05
   maximum displ.:     0.0387598 α      in ANC's #2, #4, #5, ...

........................................................................
.............................. CYCLE   38 ..............................
........................................................................

 iter      E             dE          RMSdq      gap      omega  full diag
   1    -62.6023780 -0.626024E+02  0.828E-03    3.90       0.0  T
   2    -62.6023780 -0.245164E-07  0.489E-03    3.90       2.9  T
   3    -62.6023780  0.465052E-08  0.532E-04    3.90      26.9  T
   4    -62.6023780 -0.926399E-08  0.149E-04    3.90      96.0  T
     SCC iter.                  ...        0 min,  0.062 sec
     gradient                   ...        0 min,  0.024 sec
 * total energy  :   -61.8024534 Eh     change       -0.2330762E-05 Eh
   gradient norm :     0.0002536 Eh/α   predicted    -0.8577883E-06 ( -63.20%)
   displ. norm   :     0.0655689 α      lambda       -0.2218159E-05
   maximum displ.:     0.0441600 α      in ANC's #2, #5, #4, ...

........................................................................
.............................. CYCLE   39 ..............................
........................................................................

 iter      E             dE          RMSdq      gap      omega  full diag
   1    -62.6023571 -0.626024E+02  0.858E-03    3.90       0.0  T
   2    -62.6023571 -0.134183E-07  0.509E-03    3.90       2.8  T
   3    -62.6023571  0.166494E-08  0.402E-04    3.90      35.5  T
   4    -62.6023571 -0.535010E-08  0.137E-04    3.90     104.1  T
     SCC iter.                  ...        0 min,  0.054 sec
     gradient                   ...        0 min,  0.034 sec
 * total energy  :   -61.8024565 Eh     change       -0.3121850E-05 Eh
   gradient norm :     0.0003042 Eh/α   predicted    -0.1114051E-05 ( -64.31%)
   displ. norm   :     0.1102505 α      lambda       -0.3881526E-05
   maximum displ.:     0.0727272 α      in ANC's #2, #5, #4, ...

........................................................................
.............................. CYCLE   40 ..............................
........................................................................

 iter      E             dE          RMSdq      gap      omega  full diag
   1    -62.6022480 -0.626022E+02  0.140E-02    3.90       0.0  T
   2    -62.6022480 -0.230745E-07  0.832E-03    3.90       1.7  T
   3    -62.6022480 -0.165217E-08  0.476E-04    3.90      30.0  T
   4    -62.6022480 -0.600731E-08  0.205E-04    3.90      69.6  T
     SCC iter.                  ...        0 min,  0.052 sec
     gradient                   ...        0 min,  0.035 sec
 * total energy  :   -61.8024618 Eh     change       -0.5328581E-05 Eh
   gradient norm :     0.0004071 Eh/α   predicted    -0.1955307E-05 ( -63.31%)
   displ. norm   :     0.1958747 α      lambda       -0.6392253E-05
   maximum displ.:     0.1282008 α      in ANC's #2, #5, #4, ...

........................................................................
.............................. CYCLE   41 ..............................
........................................................................

 iter      E             dE          RMSdq      gap      omega  full diag
   1    -62.6019403 -0.626019E+02  0.246E-02    3.90       0.0  T
   2    -62.6019404 -0.626054E-07  0.146E-02    3.90       1.0  T
   3    -62.6019404 -0.122725E-07  0.689E-04    3.90      20.7  T
   4    -62.6019404 -0.896517E-08  0.345E-04    3.90      41.4  T
     SCC iter.                  ...        0 min,  0.056 sec
     gradient                   ...        0 min,  0.033 sec
 * total energy  :   -61.8024699 Eh     change       -0.8028455E-05 Eh
   gradient norm :     0.0006503 Eh/α   predicted    -0.3252425E-05 ( -59.49%)
   displ. norm   :     0.2596531 α      lambda       -0.7016557E-05
   maximum displ.:     0.1711901 α      in ANC's #2, #5, #4, ...

........................................................................
.............................. CYCLE   42 ..............................
........................................................................

 iter      E             dE          RMSdq      gap      omega  full diag
   1    -62.6015248 -0.626015E+02  0.325E-02    3.90       0.0  T
   2    -62.6015249 -0.110192E-06  0.193E-02    3.90       1.0  T
   3    -62.6015249 -0.218335E-07  0.905E-04    3.90      15.8  T
   4    -62.6015249 -0.149626E-07  0.455E-04    3.90      31.4  T
     SCC iter.                  ...        0 min,  0.050 sec
     gradient                   ...        0 min,  0.026 sec
 * total energy  :   -61.8024774 Eh     change       -0.7538128E-05 Eh
   gradient norm :     0.0010677 Eh/α   predicted    -0.3614066E-05 ( -52.06%)
   displ. norm   :     0.1901199 α      lambda       -0.5275087E-05
   maximum displ.:     0.1284008 α      in ANC's #2, #5, #4, ...
 * RMSD in coord.:     0.1615162 α      energy gain  -0.8813818E-04 Eh

generating ANC from exact Hessian ...
Using Lindh-Hessian (1995)
 Shifting diagonal of input Hessian by    9.9269974658684080E-003
 Lowest  eigenvalues of input Hessian
    0.000000    0.000000    0.000000    0.000000    0.000000    0.010000
    0.000000    0.010182    0.010294    0.010695    0.010887    0.011154
    0.011398    0.011938    0.012448    0.012781    0.013477    0.014428
 Highest eigenvalues
    1.302376    1.307699    1.433097    1.809284    2.373351    2.392865


........................................................................
.............................. CYCLE   43 ..............................
........................................................................

 iter      E             dE          RMSdq      gap      omega  full diag
   1    -62.6017297 -0.626017E+02  0.237E-02    3.91       0.0  T
   2    -62.6017297 -0.458210E-07  0.141E-02    3.91       1.0  T
   3    -62.6017298 -0.134248E-07  0.625E-04    3.91      22.8  T
   4    -62.6017298 -0.615736E-08  0.331E-04    3.91      43.1  T
     SCC iter.                  ...        0 min,  0.041 sec
     gradient                   ...        0 min,  0.023 sec
 * total energy  :   -61.8024835 Eh     change       -0.6096568E-05 Eh
   gradient norm :     0.0008556 Eh/α   predicted     0.0000000E+00 (-100.00%)
   displ. norm   :     0.0155737 α      lambda       -0.7166796E-06
   maximum displ.:     0.0086057 α      in ANC's #9, #2, #16, ...

........................................................................
.............................. CYCLE   44 ..............................
........................................................................

 iter      E             dE          RMSdq      gap      omega  full diag
   1    -62.6025969 -0.626026E+02  0.358E-03    3.91       0.0  T
   2    -62.6025969 -0.306702E-07  0.206E-03    3.91       6.9  T
   3    -62.6025969  0.319750E-08  0.595E-04    3.91      24.0  T
   4    -62.6025969 -0.650549E-08  0.120E-04    3.91     119.5  T
     SCC iter.                  ...        0 min,  0.130 sec
     gradient                   ...        0 min,  0.040 sec
 * total energy  :   -61.8024863 Eh     change       -0.2747180E-05 Eh
   gradient norm :     0.0003413 Eh/α   predicted    -0.1399730E-05 ( -49.05%)
   displ. norm   :     0.0309252 α      lambda       -0.2604990E-05
   maximum displ.:     0.0175209 α      in ANC's #9, #2, #4, ...

........................................................................
.............................. CYCLE   45 ..............................
........................................................................

 iter      E             dE          RMSdq      gap      omega  full diag
   1    -62.6030047 -0.626030E+02  0.533E-03    3.91       0.0  T
   2    -62.6030047 -0.128755E-07  0.314E-03    3.91       4.5  T
   3    -62.6030047 -0.471687E-09  0.317E-04    3.91      45.0  T
   4    -62.6030047 -0.245111E-08  0.128E-04    3.91     111.5  T
     SCC iter.                  ...        0 min,  0.055 sec
     gradient                   ...        0 min,  0.036 sec
 * total energy  :   -61.8024892 Eh     change       -0.2923755E-05 Eh
   gradient norm :     0.0006312 Eh/α   predicted    -0.1310489E-05 ( -55.18%)
   displ. norm   :     0.0622904 α      lambda       -0.3894046E-05
   maximum displ.:     0.0335551 α      in ANC's #9, #2, #4, ...

........................................................................
.............................. CYCLE   46 ..............................
........................................................................

 iter      E             dE          RMSdq      gap      omega  full diag
   1    -62.6029286 -0.626029E+02  0.108E-02    3.90       0.0  T
   2    -62.6029286 -0.291455E-07  0.636E-03    3.90       2.2  T
   3    -62.6029286 -0.886166E-08  0.441E-04    3.90      32.4  T
   4    -62.6029286 -0.278470E-08  0.247E-04    3.90      57.9  T
     SCC iter.                  ...        0 min,  0.057 sec
     gradient                   ...        0 min,  0.034 sec
 * total energy  :   -61.8024929 Eh     change       -0.3682339E-05 Eh
   gradient norm :     0.0007277 Eh/α   predicted    -0.1956187E-05 ( -46.88%)
   displ. norm   :     0.0491935 α      lambda       -0.2358879E-05
   maximum displ.:     0.0239313 α      in ANC's #9, #2, #4, ...

........................................................................
.............................. CYCLE   47 ..............................
........................................................................

 iter      E             dE          RMSdq      gap      omega  full diag
   1    -62.6026387 -0.626026E+02  0.920E-03    3.90       0.0  T
   2    -62.6026387 -0.344535E-07  0.544E-03    3.90       2.6  T
   3    -62.6026387  0.702147E-08  0.724E-04    3.90      19.7  T
   4    -62.6026387 -0.174102E-07  0.222E-04    3.90      64.2  T
     SCC iter.                  ...        0 min,  0.058 sec
     gradient                   ...        0 min,  0.041 sec
 * total energy  :   -61.8024950 Eh     change       -0.2142120E-05 Eh
   gradient norm :     0.0003828 Eh/α   predicted    -0.1181185E-05 ( -44.86%)
   displ. norm   :     0.0290014 α      lambda       -0.1253372E-05
   maximum displ.:     0.0153324 α      in ANC's #2, #4, #6, ...

........................................................................
.............................. CYCLE   48 ..............................
........................................................................

 iter      E             dE          RMSdq      gap      omega  full diag
   1    -62.6024199 -0.626024E+02  0.541E-03    3.90       0.0  T
   2    -62.6024199 -0.183598E-07  0.319E-03    3.90       4.5  T
   3    -62.6024199  0.451706E-08  0.529E-04    3.90      27.0  T
   4    -62.6024199 -0.907995E-08  0.137E-04    3.90     104.3  T
     SCC iter.                  ...        0 min,  0.083 sec
     gradient                   ...        0 min,  0.053 sec
 * total energy  :   -61.8024965 Eh     change       -0.1474968E-05 Eh
   gradient norm :     0.0002350 Eh/α   predicted    -0.6330680E-06 ( -57.08%)
   displ. norm   :     0.0448402 α      lambda       -0.1930559E-05
   maximum displ.:     0.0243457 α      in ANC's #2, #4, #6, ...

........................................................................
.............................. CYCLE   49 ..............................
........................................................................

 iter      E             dE          RMSdq      gap      omega  full diag
   1    -62.6021465 -0.626021E+02  0.834E-03    3.90       0.0  T
   2    -62.6021465 -0.389654E-07  0.492E-03    3.90       2.9  T
   3    -62.6021465  0.123080E-07  0.807E-04    3.90      17.7  T
   4    -62.6021465 -0.219000E-07  0.191E-04    3.90      74.8  T
     SCC iter.                  ...        0 min,  0.136 sec
     gradient                   ...        0 min,  0.036 sec
 * total energy  :   -61.8024987 Eh     change       -0.2219105E-05 Eh
   gradient norm :     0.0005290 Eh/α   predicted    -0.9671131E-06 ( -56.42%)
   displ. norm   :     0.0573131 α      lambda       -0.1973289E-05
   maximum displ.:     0.0317715 α      in ANC's #2, #4, #6, ...

........................................................................
.............................. CYCLE   50 ..............................
........................................................................

 iter      E             dE          RMSdq      gap      omega  full diag
   1    -62.6021145 -0.626021E+02  0.102E-02    3.90       0.0  T
   2    -62.6021146 -0.300780E-07  0.602E-03    3.90       2.4  T
   3    -62.6021146 -0.741572E-09  0.550E-04    3.90      26.0  T
   4    -62.6021146 -0.886382E-08  0.223E-04    3.90      63.9  T
     SCC iter.                  ...        0 min,  0.065 sec
     gradient                   ...        0 min,  0.050 sec
 * total energy  :   -61.8025010 Eh     change       -0.2259473E-05 Eh
   gradient norm :     0.0005764 Eh/α   predicted    -0.9887827E-06 ( -56.24%)
   displ. norm   :     0.0586031 α      lambda       -0.1739215E-05
   maximum displ.:     0.0337567 α      in ANC's #2, #4, #8, ...

........................................................................
.............................. CYCLE   51 ..............................
........................................................................

 iter      E             dE          RMSdq      gap      omega  full diag
   1    -62.6022544 -0.626023E+02  0.100E-02    3.90       0.0  T
   2    -62.6022545 -0.172426E-07  0.594E-03    3.90       2.4  T
   3    -62.6022545 -0.720186E-08  0.333E-04    3.90      42.9  T
   4    -62.6022545 -0.988173E-09  0.196E-04    3.90      73.1  T
     SCC iter.                  ...        0 min,  0.064 sec
     gradient                   ...        0 min,  0.050 sec
 * total energy  :   -61.8025030 Eh     change       -0.2038488E-05 Eh
   gradient norm :     0.0004105 Eh/α   predicted    -0.8718118E-06 ( -57.23%)
   displ. norm   :     0.0581470 α      lambda       -0.1583829E-05
   maximum displ.:     0.0349376 α      in ANC's #2, #4, #8, ...

........................................................................
.............................. CYCLE   52 ..............................
........................................................................

 iter      E             dE          RMSdq      gap      omega  full diag
   1    -62.6024583 -0.626025E+02  0.986E-03    3.90       0.0  T
   2    -62.6024583 -0.209727E-07  0.583E-03    3.90       2.5  T
   3    -62.6024583 -0.217988E-08  0.471E-04    3.90      30.3  T
   4    -62.6024583 -0.572703E-08  0.206E-04    3.90      69.2  T
     SCC iter.                  ...        0 min,  0.074 sec
     gradient                   ...        0 min,  0.051 sec
 * total energy  :   -61.8025049 Eh     change       -0.1906134E-05 Eh
   gradient norm :     0.0001819 Eh/α   predicted    -0.7941804E-06 ( -58.34%)
   displ. norm   :     0.0570583 α      lambda       -0.1492743E-05
   maximum displ.:     0.0355703 α      in ANC's #2, #4, #8, ...

........................................................................
.............................. CYCLE   53 ..............................
........................................................................

 iter      E             dE          RMSdq      gap      omega  full diag
   1    -62.6026290 -0.626026E+02  0.919E-03    3.90       0.0  T
   2    -62.6026290 -0.194067E-07  0.544E-03    3.90       2.6  T
   3    -62.6026290  0.172740E-09  0.494E-04    3.90      28.9  T
   4    -62.6026290 -0.714943E-08  0.194E-04    3.90      73.7  T
     SCC iter.                  ...        0 min,  0.067 sec
     gradient                   ...        0 min,  0.053 sec
 * total energy  :   -61.8025068 Eh     change       -0.1869738E-05 Eh
   gradient norm :     0.0002381 Eh/α   predicted    -0.7505744E-06 ( -59.86%)
   displ. norm   :     0.0616165 α      lambda       -0.1577380E-05
   maximum displ.:     0.0389696 α      in ANC's #2, #4, #8, ...

........................................................................
.............................. CYCLE   54 ..............................
........................................................................

 iter      E             dE          RMSdq      gap      omega  full diag
   1    -62.6026481 -0.626026E+02  0.101E-02    3.90       0.0  T
   2    -62.6026481 -0.174155E-07  0.599E-03    3.90       2.4  T
   3    -62.6026481 -0.299679E-08  0.400E-04    3.90      35.7  T
   4    -62.6026481 -0.358781E-08  0.193E-04    3.90      74.0  T
     SCC iter.                  ...        0 min,  0.064 sec
     gradient                   ...        0 min,  0.038 sec
 * total energy  :   -61.8025088 Eh     change       -0.2058648E-05 Eh
   gradient norm :     0.0003242 Eh/α   predicted    -0.7911928E-06 ( -61.57%)
   displ. norm   :     0.0698809 α      lambda       -0.1782681E-05
   maximum displ.:     0.0447177 α      in ANC's #2, #4, #8, ...

........................................................................
.............................. CYCLE   55 ..............................
........................................................................

 iter      E             dE          RMSdq      gap      omega  full diag
   1    -62.6025579 -0.626026E+02  0.111E-02    3.90       0.0  T
   2    -62.6025580 -0.127554E-07  0.660E-03    3.90       2.2  T
   3    -62.6025580 -0.539342E-08  0.330E-04    3.90      43.3  T
   4    -62.6025580 -0.134661E-08  0.191E-04    3.90      74.7  T
     SCC iter.                  ...        0 min,  0.063 sec
     gradient                   ...        0 min,  0.046 sec
 * total energy  :   -61.8025112 Eh     change       -0.2370390E-05 Eh
   gradient norm :     0.0003025 Eh/α   predicted    -0.8963599E-06 ( -62.19%)
   displ. norm   :     0.0783855 α      lambda       -0.1993654E-05
   maximum displ.:     0.0504203 α      in ANC's #2, #4, #8, ...

........................................................................
.............................. CYCLE   56 ..............................
........................................................................

 iter      E             dE          RMSdq      gap      omega  full diag
   1    -62.6024049 -0.626024E+02  0.126E-02    3.90       0.0  T
   2    -62.6024049 -0.166571E-07  0.749E-03    3.90       1.9  T
   3    -62.6024049 -0.590024E-08  0.361E-04    3.90      39.6  T
   4    -62.6024049 -0.181119E-08  0.203E-04    3.90      70.5  T
     SCC iter.                  ...        0 min,  0.066 sec
     gradient                   ...        0 min,  0.051 sec
 * total energy  :   -61.8025139 Eh     change       -0.2690207E-05 Eh
   gradient norm :     0.0002487 Eh/α   predicted    -0.1003203E-05 ( -62.71%)
   displ. norm   :     0.0956090 α      lambda       -0.2474115E-05
   maximum displ.:     0.0614167 α      in ANC's #2, #4, #5, ...

........................................................................
.............................. CYCLE   57 ..............................
........................................................................

 iter      E             dE          RMSdq      gap      omega  full diag
   1    -62.6022027 -0.626022E+02  0.155E-02    3.90       0.0  T
   2    -62.6022028 -0.254613E-07  0.918E-03    3.90       1.6  T
   3    -62.6022028 -0.909429E-08  0.396E-04    3.90      36.1  T
   4    -62.6022028 -0.150421E-08  0.228E-04    3.90      62.7  T
     SCC iter.                  ...        0 min,  0.058 sec
     gradient                   ...        0 min,  0.044 sec
 * total energy  :   -61.8025172 Eh     change       -0.3360912E-05 Eh
   gradient norm :     0.0003325 Eh/α   predicted    -0.1245991E-05 ( -62.93%)
   displ. norm   :     0.1209821 α      lambda       -0.3231191E-05
   maximum displ.:     0.0778498 α      in ANC's #2, #4, #5, ...

........................................................................
.............................. CYCLE   58 ..............................
........................................................................

 iter      E             dE          RMSdq      gap      omega  full diag
   1    -62.6019715 -0.626020E+02  0.193E-02    3.90       0.0  T
   2    -62.6019715 -0.380111E-07  0.114E-02    3.90       1.2  T
   3    -62.6019715 -0.134382E-07  0.488E-04    3.90      29.3  T
   4    -62.6019715 -0.258797E-08  0.283E-04    3.90      50.5  T
     SCC iter.                  ...        0 min,  0.064 sec
     gradient                   ...        0 min,  0.044 sec
 * total energy  :   -61.8025215 Eh     change       -0.4286832E-05 Eh
   gradient norm :     0.0005402 Eh/α   predicted    -0.1627548E-05 ( -62.03%)
   displ. norm   :     0.1570221 α      lambda       -0.4249476E-05
   maximum displ.:     0.1013406 α      in ANC's #2, #4, #5, ...

........................................................................
.............................. CYCLE   59 ..............................
........................................................................

 iter      E             dE          RMSdq      gap      omega  full diag
   1    -62.6016674 -0.626017E+02  0.251E-02    3.91       0.0  T
   2    -62.6016674 -0.642030E-07  0.149E-02    3.91       1.0  T
   3    -62.6016675 -0.174750E-07  0.706E-04    3.91      20.2  T
   4    -62.6016675 -0.949780E-08  0.380E-04    3.91      37.6  T
     SCC iter.                  ...        0 min,  0.067 sec
     gradient                   ...        0 min,  0.042 sec
 * total energy  :   -61.8025269 Eh     change       -0.5400377E-05 Eh
   gradient norm :     0.0008713 Eh/α   predicted    -0.2149002E-05 ( -60.21%)
   displ. norm   :     0.1898963 α      lambda       -0.5236507E-05
   maximum displ.:     0.1236851 α      in ANC's #2, #4, #5, ...

........................................................................
.............................. CYCLE   60 ..............................
........................................................................

 iter      E             dE          RMSdq      gap      omega  full diag
   1    -62.6014346 -0.626014E+02  0.296E-02    3.91       0.0  T
   2    -62.6014347 -0.921101E-07  0.175E-02    3.91       1.0  T
   3    -62.6014347 -0.824055E-08  0.104E-03    3.91      13.7  T
   4    -62.6014347 -0.314518E-07  0.458E-04    3.91      31.2  T
   5    -62.6014347 -0.687905E-09  0.164E-04    3.91      87.2  T
     SCC iter.                  ...        0 min,  0.073 sec
     gradient                   ...        0 min,  0.047 sec
 * total energy  :   -61.8025332 Eh     change       -0.6278805E-05 Eh
   gradient norm :     0.0011288 Eh/α   predicted    -0.2662377E-05 ( -57.60%)
   displ. norm   :     0.2077686 α      lambda       -0.5982558E-05
   maximum displ.:     0.1373771 α      in ANC's #2, #4, #5, ...

........................................................................
.............................. CYCLE   61 ..............................
........................................................................

 iter      E             dE          RMSdq      gap      omega  full diag
   1    -62.6013424 -0.626013E+02  0.319E-02    3.91       0.0  T
   2    -62.6013425 -0.117141E-06  0.189E-02    3.91       1.0  T
   3    -62.6013425  0.865055E-08  0.130E-03    3.91      11.0  T
   4    -62.6013426 -0.563346E-07  0.487E-04    3.91      29.4  T
   5    -62.6013426 -0.697092E-09  0.184E-04    3.91      77.7  T
     SCC iter.                  ...        0 min,  0.093 sec
     gradient                   ...        0 min,  0.047 sec
 * total energy  :   -61.8025400 Eh     change       -0.6807163E-05 Eh
   gradient norm :     0.0012671 Eh/α   predicted    -0.3053544E-05 ( -55.14%)
   displ. norm   :     0.2128997 α      lambda       -0.6855724E-05
   maximum displ.:     0.1441491 α      in ANC's #2, #4, #5, ...

........................................................................
.............................. CYCLE   62 ..............................
........................................................................

 iter      E             dE          RMSdq      gap      omega  full diag
   1    -62.6017172 -0.626017E+02  0.317E-02    3.92       0.0  T
   2    -62.6017173 -0.131409E-06  0.188E-02    3.91       1.0  T
   3    -62.6017173  0.389064E-07  0.159E-03    3.92       9.0  T
   4    -62.6017174 -0.920695E-07  0.488E-04    3.92      29.3  T
   5    -62.6017174 -0.577714E-09  0.172E-04    3.92      83.0  T
     SCC iter.                  ...        0 min,  0.086 sec
     gradient                   ...        0 min,  0.058 sec
 * total energy  :   -61.8025476 Eh     change       -0.7616611E-05 Eh
   gradient norm :     0.0009205 Eh/α   predicted    -0.3501690E-05 ( -54.03%)
   displ. norm   :     0.2314676 α      lambda       -0.6335832E-05
   maximum displ.:     0.1601743 α      in ANC's #2, #4, #5, ...

........................................................................
.............................. CYCLE   63 ..............................
........................................................................

 iter      E             dE          RMSdq      gap      omega  full diag
   1    -62.6015801 -0.626016E+02  0.351E-02    3.92       0.0  T
   2    -62.6015803 -0.177222E-06  0.208E-02    3.92       1.0  T
   3    -62.6015802  0.216580E-07  0.162E-03    3.92       8.8  T
   4    -62.6015803 -0.876102E-07  0.574E-04    3.92      24.9  T
   5    -62.6015803 -0.114595E-08  0.248E-04    3.92      57.6  T
     SCC iter.                  ...        0 min,  0.082 sec
     gradient                   ...        0 min,  0.040 sec
 * total energy  :   -61.8025546 Eh     change       -0.6967246E-05 Eh
   gradient norm :     0.0009655 Eh/α   predicted    -0.3244241E-05 ( -53.44%)
   displ. norm   :     0.2261337 α      lambda       -0.9508135E-05
   maximum displ.:     0.1622776 α      in ANC's #2, #4, #5, ...

........................................................................
.............................. CYCLE   64 ..............................
........................................................................

 iter      E             dE          RMSdq      gap      omega  full diag
   1    -62.6033316 -0.626033E+02  0.331E-02    3.92       0.0  T
   2    -62.6033319 -0.272095E-06  0.196E-02    3.92       1.0  T
   3    -62.6033318  0.563185E-07  0.199E-03    3.92       7.2  T
   4    -62.6033319 -0.136220E-06  0.619E-04    3.92      23.1  T
   5    -62.6033319 -0.181526E-08  0.308E-04    3.92      46.4  T
     SCC iter.                  ...        0 min,  0.073 sec
     gradient                   ...        0 min,  0.035 sec
 * total energy  :   -61.8025612 Eh     change       -0.6602620E-05 Eh
   gradient norm :     0.0010370 Eh/α   predicted    -0.4862815E-05 ( -26.35%)
   displ. norm   :     0.6110923 α      lambda       -0.1434861E-04
   maximum displ.:     0.4301396 α      in ANC's #2, #4, #5, ...

........................................................................
.............................. CYCLE   65 ..............................
........................................................................

 iter      E             dE          RMSdq      gap      omega  full diag
   1    -62.5980099 -0.625980E+02  0.944E-02    3.91       0.0  T
   2    -62.5980119 -0.201510E-05  0.557E-02    3.91       1.0  T
   3    -62.5980122 -0.342853E-06  0.300E-03    3.91       4.8  T
   4    -62.5980123 -0.120147E-06  0.158E-03    3.91       9.1  T
   5    -62.5980123 -0.103508E-07  0.837E-04    3.91      17.1  T
   6    -62.5980124 -0.450036E-08  0.169E-04    3.91      84.4  T
     SCC iter.                  ...        0 min,  0.075 sec
     gradient                   ...        0 min,  0.036 sec
 * total energy  :   -61.8025401 Eh     change        0.2108408E-04 Eh
   gradient norm :     0.0043714 Eh/α   predicted    -0.8369450E-05 (-139.70%)
   displ. norm   :     0.2783117 α      lambda       -0.5921316E-04
   maximum displ.:     0.1923237 α      in ANC's #2, #4, #5, ...

........................................................................
.............................. CYCLE   66 ..............................
........................................................................

 iter      E             dE          RMSdq      gap      omega  full diag
   1    -62.6014406 -0.626014E+02  0.429E-02    3.92       0.0  T
   2    -62.6014412 -0.601824E-06  0.253E-02    3.92       1.0  T
   3    -62.6014412 -0.544649E-07  0.156E-03    3.92       9.2  T
   4    -62.6014413 -0.370080E-07  0.713E-04    3.92      20.0  T
   5    -62.6014413 -0.314496E-08  0.400E-04    3.92      35.8  T
     SCC iter.                  ...        0 min,  0.074 sec
     gradient                   ...        0 min,  0.049 sec
 * total energy  :   -61.8025706 Eh     change       -0.3046482E-04 Eh
   gradient norm :     0.0012301 Eh/α   predicted    -0.3190379E-04 (   4.72%)
   displ. norm   :     0.0326657 α      lambda       -0.5769170E-05
   maximum displ.:     0.0147913 α      in ANC's #12, #6, #2, ...
 * RMSD in coord.:     0.2371269 α      energy gain  -0.9318041E-04 Eh

generating ANC from exact Hessian ...
Using Lindh-Hessian (1995)
 Shifting diagonal of input Hessian by    9.9261069876377169E-003
 Lowest  eigenvalues of input Hessian
    0.000000    0.000000    0.000000    0.000000    0.000000    0.010000
    0.000000    0.010179    0.010295    0.010692    0.010889    0.011143
    0.011393    0.011948    0.012457    0.012773    0.013469    0.014471
 Highest eigenvalues
    1.303171    1.307552    1.435617    1.811156    2.371919    2.391366


........................................................................
.............................. CYCLE   67 ..............................
........................................................................

 iter      E             dE          RMSdq      gap      omega  full diag
   1    -62.6024133 -0.626024E+02  0.676E-03    3.92       0.0  T
   2    -62.6024134 -0.553572E-07  0.395E-03    3.92       3.6  T
   3    -62.6024134  0.249265E-08  0.675E-04    3.92      21.2  T
   4    -62.6024134 -0.910433E-08  0.198E-04    3.92      72.0  T
     SCC iter.                  ...        0 min,  0.113 sec
     gradient                   ...        0 min,  0.035 sec
 * total energy  :   -61.8025770 Eh     change       -0.6397609E-05 Eh
   gradient norm :     0.0005861 Eh/α   predicted     0.0000000E+00 (-100.00%)
   displ. norm   :     0.0147719 α      lambda       -0.1847787E-05
   maximum displ.:     0.0071890 α      in ANC's #8, #18, #2, ...

........................................................................
.............................. CYCLE   68 ..............................
........................................................................

 iter      E             dE          RMSdq      gap      omega  full diag
   1    -62.6026120 -0.626026E+02  0.294E-03    3.92       0.0  T
   2    -62.6026120 -0.197593E-07  0.172E-03    3.92       8.3  T
   3    -62.6026120  0.119060E-08  0.439E-04    3.92      32.6  T
   4    -62.6026120 -0.270401E-08  0.962E-05    3.92     148.5  T
     SCC iter.                  ...        0 min,  0.053 sec
     gradient                   ...        0 min,  0.041 sec
 * total energy  :   -61.8025792 Eh     change       -0.2222519E-05 Eh
   gradient norm :     0.0002885 Eh/α   predicted    -0.9710070E-06 ( -56.31%)
   displ. norm   :     0.0454745 α      lambda       -0.3768042E-05
   maximum displ.:     0.0228780 α      in ANC's #8, #18, #2, ...

........................................................................
.............................. CYCLE   69 ..............................
........................................................................

 iter      E             dE          RMSdq      gap      omega  full diag
   1    -62.6026904 -0.626027E+02  0.731E-03    3.92       0.0  T
   2    -62.6026905 -0.863388E-07  0.431E-03    3.92       3.3  T
   3    -62.6026905  0.139035E-07  0.104E-03    3.92      13.7  T
   4    -62.6026905 -0.246928E-07  0.231E-04    3.92      61.8  T
   5    -62.6026905 -0.108985E-08  0.921E-05    3.92     155.1  T
     SCC iter.                  ...        0 min,  0.080 sec
     gradient                   ...        0 min,  0.042 sec
 * total energy  :   -61.8025829 Eh     change       -0.3736569E-05 Eh
   gradient norm :     0.0005974 Eh/α   predicted    -0.1886961E-05 ( -49.50%)
   displ. norm   :     0.0364856 α      lambda       -0.1711603E-05
   maximum displ.:     0.0185907 α      in ANC's #8, #2, #7, ...

........................................................................
.............................. CYCLE   70 ..............................
........................................................................

 iter      E             dE          RMSdq      gap      omega  full diag
   1    -62.6025583 -0.626026E+02  0.602E-03    3.92       0.0  T
   2    -62.6025583 -0.190325E-07  0.355E-03    3.92       4.0  T
   3    -62.6025583  0.287424E-08  0.485E-04    3.92      29.4  T
   4    -62.6025583 -0.764382E-08  0.155E-04    3.92      92.1  T
     SCC iter.                  ...        0 min,  0.054 sec
     gradient                   ...        0 min,  0.034 sec
 * total energy  :   -61.8025847 Eh     change       -0.1745206E-05 Eh
   gradient norm :     0.0003787 Eh/α   predicted    -0.8564435E-06 ( -50.93%)
   displ. norm   :     0.0302006 α      lambda       -0.1088287E-05
   maximum displ.:     0.0148433 α      in ANC's #2, #8, #7, ...

........................................................................
.............................. CYCLE   71 ..............................
........................................................................

 iter      E             dE          RMSdq      gap      omega  full diag
   1    -62.6025140 -0.626025E+02  0.539E-03    3.92       0.0  T
   2    -62.6025140 -0.827937E-08  0.318E-03    3.92       4.5  T
   3    -62.6025140 -0.166280E-08  0.243E-04    3.92      58.9  T
   4    -62.6025140 -0.112439E-08  0.124E-04    3.92     115.1  T
     SCC iter.                  ...        0 min,  0.050 sec
     gradient                   ...        0 min,  0.040 sec
 * total energy  :   -61.8025859 Eh     change       -0.1215462E-05 Eh
   gradient norm :     0.0002324 Eh/α   predicted    -0.5444974E-06 ( -55.20%)
   displ. norm   :     0.0369247 α      lambda       -0.1235917E-05
   maximum displ.:     0.0194128 α      in ANC's #2, #8, #7, ...

........................................................................
.............................. CYCLE   72 ..............................
........................................................................

 iter      E             dE          RMSdq      gap      omega  full diag
   1    -62.6024550 -0.626025E+02  0.674E-03    3.91       0.0  T
   2    -62.6024550 -0.197313E-07  0.397E-03    3.91       3.6  T
   3    -62.6024550 -0.277533E-08  0.336E-04    3.91      42.5  T
   4    -62.6024550 -0.175174E-08  0.165E-04    3.91      86.7  T
     SCC iter.                  ...        0 min,  0.106 sec
     gradient                   ...        0 min,  0.038 sec
 * total energy  :   -61.8025873 Eh     change       -0.1375791E-05 Eh
   gradient norm :     0.0003399 Eh/α   predicted    -0.6189289E-06 ( -55.01%)
   displ. norm   :     0.0455056 α      lambda       -0.1412440E-05
   maximum displ.:     0.0251954 α      in ANC's #2, #4, #7, ...

........................................................................
.............................. CYCLE   73 ..............................
........................................................................

 iter      E             dE          RMSdq      gap      omega  full diag
   1    -62.6024169 -0.626024E+02  0.832E-03    3.91       0.0  T
   2    -62.6024169 -0.183449E-07  0.491E-03    3.91       2.9  T
   3    -62.6024169 -0.567459E-08  0.308E-04    3.91      46.4  T
   4    -62.6024169 -0.651461E-09  0.168E-04    3.91      85.2  T
     SCC iter.                  ...        0 min,  0.056 sec
     gradient                   ...        0 min,  0.030 sec
 * total energy  :   -61.8025888 Eh     change       -0.1499003E-05 Eh
   gradient norm :     0.0005149 Eh/α   predicted    -0.7071912E-06 ( -52.82%)
   displ. norm   :     0.0440575 α      lambda       -0.1273938E-05
   maximum displ.:     0.0249416 α      in ANC's #2, #4, #7, ...

........................................................................
.............................. CYCLE   74 ..............................
........................................................................

 iter      E             dE          RMSdq      gap      omega  full diag
   1    -62.6024732 -0.626025E+02  0.801E-03    3.91       0.0  T
   2    -62.6024732 -0.117758E-07  0.473E-03    3.91       3.0  T
   3    -62.6024732 -0.430772E-08  0.287E-04    3.91      49.8  T
   4    -62.6024732 -0.104264E-08  0.164E-04    3.91      86.9  T
     SCC iter.                  ...        0 min,  0.049 sec
     gradient                   ...        0 min,  0.031 sec
 * total energy  :   -61.8025902 Eh     change       -0.1410594E-05 Eh
   gradient norm :     0.0003986 Eh/α   predicted    -0.6395141E-06 ( -54.66%)
   displ. norm   :     0.0438658 α      lambda       -0.1160149E-05
   maximum displ.:     0.0259689 α      in ANC's #2, #4, #7, ...

........................................................................
.............................. CYCLE   75 ..............................
........................................................................

 iter      E             dE          RMSdq      gap      omega  full diag
   1    -62.6025196 -0.626025E+02  0.767E-03    3.91       0.0  T
   2    -62.6025196 -0.195326E-07  0.454E-03    3.91       3.1  T
   3    -62.6025196  0.346572E-08  0.505E-04    3.91      28.3  T
   4    -62.6025196 -0.859648E-08  0.157E-04    3.91      90.9  T
     SCC iter.                  ...        0 min,  0.045 sec
     gradient                   ...        0 min,  0.028 sec
 * total energy  :   -61.8025916 Eh     change       -0.1363119E-05 Eh
   gradient norm :     0.0002429 Eh/α   predicted    -0.5818021E-06 ( -57.32%)
   displ. norm   :     0.0441011 α      lambda       -0.1106014E-05
   maximum displ.:     0.0269084 α      in ANC's #2, #4, #7, ...

........................................................................
.............................. CYCLE   76 ..............................
........................................................................

 iter      E             dE          RMSdq      gap      omega  full diag
   1    -62.6025449 -0.626025E+02  0.748E-03    3.91       0.0  T
   2    -62.6025449 -0.242128E-07  0.443E-03    3.91       3.2  T
   3    -62.6025449  0.461491E-08  0.520E-04    3.91      27.5  T
   4    -62.6025449 -0.890279E-08  0.148E-04    3.91      96.8  T
     SCC iter.                  ...        0 min,  0.049 sec
     gradient                   ...        0 min,  0.029 sec
 * total energy  :   -61.8025929 Eh     change       -0.1329142E-05 Eh
   gradient norm :     0.0002231 Eh/α   predicted    -0.5581068E-06 ( -58.01%)
   displ. norm   :     0.0468290 α      lambda       -0.1065440E-05
   maximum displ.:     0.0290157 α      in ANC's #2, #4, #7, ...

........................................................................
.............................. CYCLE   77 ..............................
........................................................................

 iter      E             dE          RMSdq      gap      omega  full diag
   1    -62.6025622 -0.626026E+02  0.754E-03    3.91       0.0  T
   2    -62.6025622 -0.141833E-07  0.447E-03    3.91       3.2  T
   3    -62.6025622  0.974637E-09  0.356E-04    3.91      40.2  T
   4    -62.6025622 -0.403558E-08  0.131E-04    3.91     109.3  T
     SCC iter.                  ...        0 min,  0.047 sec
     gradient                   ...        0 min,  0.028 sec
 * total energy  :   -61.8025942 Eh     change       -0.1322112E-05 Eh
   gradient norm :     0.0002972 Eh/α   predicted    -0.5379265E-06 ( -59.31%)
   displ. norm   :     0.0502417 α      lambda       -0.1075652E-05
   maximum displ.:     0.0313773 α      in ANC's #2, #4, #9, ...

........................................................................
.............................. CYCLE   78 ..............................
........................................................................

 iter      E             dE          RMSdq      gap      omega  full diag
   1    -62.6025455 -0.626025E+02  0.778E-03    3.91       0.0  T
   2    -62.6025456 -0.617033E-08  0.461E-03    3.91       3.1  T
   3    -62.6025456 -0.207295E-08  0.196E-04    3.91      72.8  T
   4    -62.6025456 -0.528104E-09  0.114E-04    3.91     125.2  T
     SCC iter.                  ...        0 min,  0.041 sec
     gradient                   ...        0 min,  0.027 sec
 * total energy  :   -61.8025956 Eh     change       -0.1349808E-05 Eh
   gradient norm :     0.0002939 Eh/α   predicted    -0.5432841E-06 ( -59.75%)
   displ. norm   :     0.0537402 α      lambda       -0.1089095E-05
   maximum displ.:     0.0338826 α      in ANC's #2, #4, #5, ...

........................................................................
.............................. CYCLE   79 ..............................
........................................................................

 iter      E             dE          RMSdq      gap      omega  full diag
   1    -62.6025316 -0.626025E+02  0.829E-03    3.91       0.0  T
   2    -62.6025316 -0.118321E-07  0.491E-03    3.91       2.9  T
   3    -62.6025316  0.214423E-08  0.402E-04    3.91      35.6  T
   4    -62.6025316 -0.563046E-08  0.129E-04    3.91     111.0  T
     SCC iter.                  ...        0 min,  0.042 sec
     gradient                   ...        0 min,  0.027 sec
 * total energy  :   -61.8025969 Eh     change       -0.1358835E-05 Eh
   gradient norm :     0.0002345 Eh/α   predicted    -0.5475513E-06 ( -59.70%)
   displ. norm   :     0.0555243 α      lambda       -0.1070491E-05
   maximum displ.:     0.0353960 α      in ANC's #2, #4, #5, ...

........................................................................
.............................. CYCLE   80 ..............................
........................................................................

 iter      E             dE          RMSdq      gap      omega  full diag
   1    -62.6025371 -0.626025E+02  0.847E-03    3.91       0.0  T
   2    -62.6025371 -0.205585E-07  0.501E-03    3.91       2.8  T
   3    -62.6025371  0.646538E-08  0.559E-04    3.91      25.5  T
   4    -62.6025371 -0.111029E-07  0.142E-04    3.91     100.8  T
     SCC iter.                  ...        0 min,  0.050 sec
     gradient                   ...        0 min,  0.028 sec
 * total energy  :   -61.8025983 Eh     change       -0.1365114E-05 Eh
   gradient norm :     0.0001840 Eh/α   predicted    -0.5396709E-06 ( -60.47%)
   displ. norm   :     0.0560678 α      lambda       -0.1077238E-05
   maximum displ.:     0.0360930 α      in ANC's #2, #4, #5, ...

........................................................................
.............................. CYCLE   81 ..............................
........................................................................

 iter      E             dE          RMSdq      gap      omega  full diag
   1    -62.6025279 -0.626025E+02  0.863E-03    3.91       0.0  T
   2    -62.6025279 -0.213885E-07  0.510E-03    3.91       2.8  T
   3    -62.6025279  0.551762E-08  0.546E-04    3.91      26.1  T
   4    -62.6025279 -0.103275E-07  0.150E-04    3.91      95.1  T
     SCC iter.                  ...        0 min,  0.041 sec
     gradient                   ...        0 min,  0.028 sec
 * total energy  :   -61.8025997 Eh     change       -0.1442274E-05 Eh
   gradient norm :     0.0002313 Eh/α   predicted    -0.5428752E-06 ( -62.36%)
   displ. norm   :     0.0679470 α      lambda       -0.1415676E-05
   maximum displ.:     0.0437610 α      in ANC's #2, #4, #5, ...

........................................................................
.............................. CYCLE   82 ..............................
........................................................................

 iter      E             dE          RMSdq      gap      omega  full diag
   1    -62.6025345 -0.626025E+02  0.106E-02    3.91       0.0  T
   2    -62.6025346 -0.239204E-07  0.627E-03    3.91       2.3  T
   3    -62.6025346  0.494811E-08  0.581E-04    3.91      24.6  T
   4    -62.6025346 -0.116564E-07  0.180E-04    3.91      79.6  T
     SCC iter.                  ...        0 min,  0.041 sec
     gradient                   ...        0 min,  0.024 sec
 * total energy  :   -61.8026016 Eh     change       -0.1911161E-05 Eh
   gradient norm :     0.0003029 Eh/α   predicted    -0.7104318E-06 ( -62.83%)
   displ. norm   :     0.0976423 α      lambda       -0.2087429E-05
   maximum displ.:     0.0626235 α      in ANC's #2, #4, #5, ...

........................................................................
.............................. CYCLE   83 ..............................
........................................................................

 iter      E             dE          RMSdq      gap      omega  full diag
   1    -62.6024725 -0.626025E+02  0.151E-02    3.91       0.0  T
   2    -62.6024726 -0.332742E-07  0.895E-03    3.91       1.6  T
   3    -62.6024726  0.163202E-08  0.656E-04    3.91      21.8  T
   4    -62.6024726 -0.138990E-07  0.251E-04    3.91      56.9  T
     SCC iter.                  ...        0 min,  0.054 sec
     gradient                   ...        0 min,  0.035 sec
 * total energy  :   -61.8026044 Eh     change       -0.2785227E-05 Eh
   gradient norm :     0.0003798 Eh/α   predicted    -0.1049133E-05 ( -62.33%)
   displ. norm   :     0.1408760 α      lambda       -0.2917365E-05
   maximum displ.:     0.0902662 α      in ANC's #2, #4, #5, ...

........................................................................
.............................. CYCLE   84 ..............................
........................................................................

 iter      E             dE          RMSdq      gap      omega  full diag
   1    -62.6023232 -0.626023E+02  0.221E-02    3.92       0.0  T
   2    -62.6023232 -0.608351E-07  0.131E-02    3.92       1.1  T
   3    -62.6023232 -0.348345E-08  0.834E-04    3.92      17.1  T
   4    -62.6023232 -0.206443E-07  0.356E-04    3.92      40.2  T
     SCC iter.                  ...        0 min,  0.117 sec
     gradient                   ...        0 min,  0.037 sec
 * total energy  :   -61.8026082 Eh     change       -0.3771275E-05 Eh
   gradient norm :     0.0004959 Eh/α   predicted    -0.1472968E-05 ( -60.94%)
   displ. norm   :     0.1937787 α      lambda       -0.3618931E-05
   maximum displ.:     0.1246146 α      in ANC's #2, #4, #5, ...

........................................................................
.............................. CYCLE   85 ..............................
........................................................................

 iter      E             dE          RMSdq      gap      omega  full diag
   1    -62.6020950 -0.626021E+02  0.300E-02    3.92       0.0  T
   2    -62.6020951 -0.101720E-06  0.178E-02    3.92       1.0  T
   3    -62.6020951 -0.869905E-08  0.109E-03    3.92      13.1  T
   4    -62.6020951 -0.350986E-07  0.479E-04    3.92      29.8  T
   5    -62.6020951 -0.794259E-09  0.177E-04    3.92      80.7  T
     SCC iter.                  ...        0 min,  0.062 sec
     gradient                   ...        0 min,  0.038 sec
 * total energy  :   -61.8026125 Eh     change       -0.4267635E-05 Eh
   gradient norm :     0.0006306 Eh/α   predicted    -0.1841222E-05 ( -56.86%)
   displ. norm   :     0.2046444 α      lambda       -0.3472665E-05
   maximum displ.:     0.1327502 α      in ANC's #2, #4, #5, ...

........................................................................
.............................. CYCLE   86 ..............................
........................................................................

 iter      E             dE          RMSdq      gap      omega  full diag
   1    -62.6019638 -0.626020E+02  0.318E-02    3.92       0.0  T
   2    -62.6019640 -0.112836E-06  0.188E-02    3.92       1.0  T
   3    -62.6019640 -0.832885E-08  0.115E-03    3.92      12.5  T
   4    -62.6019640 -0.394409E-07  0.496E-04    3.92      28.8  T
   5    -62.6019640 -0.828216E-09  0.185E-04    3.92      77.1  T
     SCC iter.                  ...        0 min,  0.077 sec
     gradient                   ...        0 min,  0.040 sec
 * total energy  :   -61.8026162 Eh     change       -0.3766385E-05 Eh
   gradient norm :     0.0007425 Eh/α   predicted    -0.1771632E-05 ( -52.96%)
   displ. norm   :     0.1512670 α      lambda       -0.3176831E-05
   maximum displ.:     0.0998988 α      in ANC's #2, #4, #5, ...

........................................................................
.............................. CYCLE   87 ..............................
........................................................................

 iter      E             dE          RMSdq      gap      omega  full diag
   1    -62.6023988 -0.626024E+02  0.230E-02    3.93       0.0  T
   2    -62.6023988 -0.638487E-07  0.136E-02    3.93       1.1  T
   3    -62.6023988  0.702354E-08  0.995E-04    3.93      14.4  T
   4    -62.6023988 -0.347199E-07  0.362E-04    3.93      39.4  T
     SCC iter.                  ...        0 min,  0.133 sec
     gradient                   ...        0 min,  0.055 sec
 * total energy  :   -61.8026197 Eh     change       -0.3478100E-05 Eh
   gradient norm :     0.0003197 Eh/α   predicted    -0.1605811E-05 ( -53.83%)
   displ. norm   :     0.2943429 α      lambda       -0.3735177E-05
   maximum displ.:     0.1951173 α      in ANC's #2, #4, #5, ...

........................................................................
.............................. CYCLE   88 ..............................
........................................................................

 iter      E             dE          RMSdq      gap      omega  full diag
   1    -62.6012485 -0.626012E+02  0.461E-02    3.93       0.0  T
   2    -62.6012488 -0.293443E-06  0.272E-02    3.93       1.0  T
   3    -62.6012489 -0.479897E-07  0.147E-03    3.93       9.7  T
   4    -62.6012489 -0.513248E-07  0.734E-04    3.93      19.5  T
   5    -62.6012489 -0.285200E-08  0.353E-04    3.93      40.5  T
     SCC iter.                  ...        0 min,  0.088 sec
     gradient                   ...        0 min,  0.056 sec
 * total energy  :   -61.8026209 Eh     change       -0.1172005E-05 Eh
   gradient norm :     0.0014494 Eh/α   predicted    -0.1940329E-05 (  65.56%)
   displ. norm   :     0.0320928 α      lambda       -0.6592532E-05
   maximum displ.:     0.0126489 α      in ANC's #3, #14, #6, ...

........................................................................
.............................. CYCLE   89 ..............................
........................................................................

 iter      E             dE          RMSdq      gap      omega  full diag
   1    -62.6026547 -0.626027E+02  0.748E-03    3.93       0.0  T
   2    -62.6026548 -0.960107E-07  0.431E-03    3.93       3.3  T
   3    -62.6026548 -0.172530E-08  0.730E-04    3.93      19.6  T
   4    -62.6026548 -0.558070E-08  0.224E-04    3.93      63.9  T
     SCC iter.                  ...        0 min,  0.122 sec
     gradient                   ...        0 min,  0.051 sec
 * total energy  :   -61.8026263 Eh     change       -0.5390874E-05 Eh
   gradient norm :     0.0004766 Eh/α   predicted    -0.3301283E-05 ( -38.76%)
   displ. norm   :     0.1733358 α      lambda       -0.3195965E-05
   maximum displ.:     0.1170586 α      in ANC's #2, #4, #5, ...

........................................................................
.............................. CYCLE   90 ..............................
........................................................................

 iter      E             dE          RMSdq      gap      omega  full diag
   1    -62.6025591 -0.626026E+02  0.266E-02    3.93       0.0  T
   2    -62.6025592 -0.886556E-07  0.157E-02    3.93       1.0  T
   3    -62.6025592 -0.200256E-07  0.900E-04    3.93      15.9  T
   4    -62.6025592 -0.194538E-07  0.461E-04    3.93      31.0  T
     SCC iter.                  ...        0 min,  0.053 sec
     gradient                   ...        0 min,  0.034 sec
 * total energy  :   -61.8026304 Eh     change       -0.4161187E-05 Eh
   gradient norm :     0.0004031 Eh/α   predicted    -0.1620812E-05 ( -61.05%)
   displ. norm   :     0.4904630 α      lambda       -0.8051818E-05
   maximum displ.:     0.3317694 α      in ANC's #2, #4, #5, ...

........................................................................
.............................. CYCLE   91 ..............................
........................................................................

 iter      E             dE          RMSdq      gap      omega  full diag
   1    -62.5999766 -0.626000E+02  0.768E-02    3.93       0.0  T
   2    -62.5999776 -0.100291E-05  0.454E-02    3.93       1.0  T
   3    -62.5999778 -0.271856E-06  0.218E-03    3.93       6.5  T
   4    -62.5999779 -0.521532E-07  0.128E-03    3.93      11.2  T
   5    -62.5999779 -0.666417E-08  0.615E-04    3.93      23.2  T
   6    -62.5999779 -0.288716E-08  0.129E-04    3.93     110.4  T
     SCC iter.                  ...        0 min,  0.086 sec
     gradient                   ...        0 min,  0.038 sec
 * total energy  :   -61.8026256 Eh     change        0.4847063E-05 Eh
   gradient norm :     0.0029337 Eh/α   predicted    -0.4459408E-05 (-192.00%)
   displ. norm   :     0.1879348 α      lambda       -0.2419940E-04
   maximum displ.:     0.1256432 α      in ANC's #2, #4, #5, ...

........................................................................
.............................. CYCLE   92 ..............................
........................................................................

 iter      E             dE          RMSdq      gap      omega  full diag
   1    -62.6020911 -0.626021E+02  0.300E-02    3.93       0.0  T
   2    -62.6020913 -0.266913E-06  0.176E-02    3.93       1.0  T
   3    -62.6020914 -0.386515E-07  0.861E-04    3.93      16.6  T
   4    -62.6020914 -0.524197E-08  0.448E-04    3.93      31.9  T
     SCC iter.                  ...        0 min,  0.066 sec
     gradient                   ...        0 min,  0.041 sec
 * total energy  :   -61.8026378 Eh     change       -0.1224870E-04 Eh
   gradient norm :     0.0008056 Eh/α   predicted    -0.1253037E-04 (   2.30%)
   displ. norm   :     0.0454532 α      lambda       -0.2728732E-05
   maximum displ.:     0.0248761 α      in ANC's #2, #4, #6, ...
 * RMSD in coord.:     0.2273625 α      energy gain  -0.6723864E-04 Eh

generating ANC from exact Hessian ...
Using Lindh-Hessian (1995)
 Shifting diagonal of input Hessian by    9.9083187052246419E-003
 Lowest  eigenvalues of input Hessian
    0.000000    0.000000    0.000000    0.000000    0.000000    0.000000
    0.010000    0.010160    0.010273    0.010684    0.010871    0.011107
    0.011387    0.011932    0.012428    0.012766    0.013428    0.014460
 Highest eigenvalues
    1.303330    1.307752    1.436653    1.811565    2.371261    2.390342


........................................................................
.............................. CYCLE   93 ..............................
........................................................................

 iter      E             dE          RMSdq      gap      omega  full diag
   1    -62.6025946 -0.626026E+02  0.786E-03    3.93       0.0  T
   2    -62.6025946 -0.259721E-07  0.462E-03    3.93       3.1  T
   3    -62.6025946 -0.376650E-08  0.335E-04    3.93      42.6  T
   4    -62.6025946 -0.135945E-08  0.167E-04    3.93      85.6  T
     SCC iter.                  ...        0 min,  0.058 sec
     gradient                   ...        0 min,  0.042 sec
 * total energy  :   -61.8026407 Eh     change       -0.2829669E-05 Eh
   gradient norm :     0.0003929 Eh/α   predicted     0.0000000E+00 (-100.00%)
   displ. norm   :     0.0127784 α      lambda       -0.1768635E-06
   maximum displ.:     0.0058012 α      in ANC's #1, #8, #7, ...

........................................................................
.............................. CYCLE   94 ..............................
........................................................................

 iter      E             dE          RMSdq      gap      omega  full diag
   1    -62.6026686 -0.626027E+02  0.263E-03    3.93       0.0  T
   2    -62.6026686 -0.616793E-08  0.154E-03    3.93       9.3  T
   3    -62.6026686  0.923706E-13  0.183E-04    3.93      78.0  T
   4    -62.6026686 -0.564057E-09  0.563E-05    3.93     254.0  T
     SCC iter.                  ...        0 min,  0.067 sec
     gradient                   ...        0 min,  0.044 sec
 * total energy  :   -61.8026422 Eh     change       -0.1497085E-05 Eh
   gradient norm :     0.0002101 Eh/α   predicted    -0.6511474E-06 ( -56.51%)
   displ. norm   :     0.0394507 α      lambda       -0.2621844E-05
   maximum displ.:     0.0179414 α      in ANC's #1, #7, #8, ...

........................................................................
.............................. CYCLE   95 ..............................
........................................................................

 iter      E             dE          RMSdq      gap      omega  full diag
   1    -62.6026989 -0.626027E+02  0.564E-03    3.93       0.0  T
   2    -62.6026990 -0.254727E-07  0.332E-03    3.93       4.3  T
   3    -62.6026990  0.199782E-08  0.463E-04    3.93      30.9  T
   4    -62.6026990 -0.561907E-08  0.154E-04    3.93      92.5  T
     SCC iter.                  ...        0 min,  0.069 sec
     gradient                   ...        0 min,  0.052 sec
 * total energy  :   -61.8026450 Eh     change       -0.2843714E-05 Eh
   gradient norm :     0.0004943 Eh/α   predicted    -0.1312773E-05 ( -53.84%)
   displ. norm   :     0.0503758 α      lambda       -0.2243106E-05
   maximum displ.:     0.0246245 α      in ANC's #1, #7, #8, ...

........................................................................
.............................. CYCLE   96 ..............................
........................................................................

 iter      E             dE          RMSdq      gap      omega  full diag
   1    -62.6026138 -0.626026E+02  0.706E-03    3.93       0.0  T
   2    -62.6026139 -0.240882E-07  0.417E-03    3.93       3.4  T
   3    -62.6026139  0.637101E-09  0.423E-04    3.93      33.8  T
   4    -62.6026139 -0.505254E-08  0.170E-04    3.93      84.1  T
     SCC iter.                  ...        0 min,  0.070 sec
     gradient                   ...        0 min,  0.053 sec
 * total energy  :   -61.8026474 Eh     change       -0.2370734E-05 Eh
   gradient norm :     0.0004564 Eh/α   predicted    -0.1129237E-05 ( -52.37%)
   displ. norm   :     0.0467785 α      lambda       -0.1731535E-05
   maximum displ.:     0.0247852 α      in ANC's #1, #7, #3, ...

........................................................................
.............................. CYCLE   97 ..............................
........................................................................

 iter      E             dE          RMSdq      gap      omega  full diag
   1    -62.6025508 -0.626026E+02  0.633E-03    3.93       0.0  T
   2    -62.6025508 -0.892069E-08  0.376E-03    3.93       3.8  T
   3    -62.6025508 -0.867871E-09  0.286E-04    3.93      49.9  T
   4    -62.6025508 -0.203791E-08  0.136E-04    3.93     104.8  T
     SCC iter.                  ...        0 min,  0.073 sec
     gradient                   ...        0 min,  0.048 sec
 * total energy  :   -61.8026493 Eh     change       -0.1933005E-05 Eh
   gradient norm :     0.0003071 Eh/α   predicted    -0.8674121E-06 ( -55.13%)
   displ. norm   :     0.0584410 α      lambda       -0.2167211E-05
   maximum displ.:     0.0316612 α      in ANC's #1, #7, #3, ...

........................................................................
.............................. CYCLE   98 ..............................
........................................................................

 iter      E             dE          RMSdq      gap      omega  full diag
   1    -62.6025018 -0.626025E+02  0.753E-03    3.93       0.0  T
   2    -62.6025018 -0.117222E-07  0.448E-03    3.93       3.2  T
   3    -62.6025018 -0.110366E-08  0.317E-04    3.93      45.1  T
   4    -62.6025018 -0.235121E-08  0.145E-04    3.93      98.4  T
     SCC iter.                  ...        0 min,  0.063 sec
     gradient                   ...        0 min,  0.052 sec
 * total energy  :   -61.8026518 Eh     change       -0.2452335E-05 Eh
   gradient norm :     0.0003176 Eh/α   predicted    -0.1090772E-05 ( -55.52%)
   displ. norm   :     0.0716584 α      lambda       -0.2491119E-05
   maximum displ.:     0.0397580 α      in ANC's #1, #7, #3, ...

........................................................................
.............................. CYCLE   99 ..............................
........................................................................

 iter      E             dE          RMSdq      gap      omega  full diag
   1    -62.6024843 -0.626025E+02  0.911E-03    3.93       0.0  T
   2    -62.6024843 -0.103990E-07  0.542E-03    3.93       2.6  T
   3    -62.6024843 -0.255583E-08  0.273E-04    3.93      52.2  T
   4    -62.6024843 -0.113816E-08  0.145E-04    3.93      98.2  T
     SCC iter.                  ...        0 min,  0.109 sec
     gradient                   ...        0 min,  0.067 sec
 * total energy  :   -61.8026546 Eh     change       -0.2796238E-05 Eh
   gradient norm :     0.0004218 Eh/α   predicted    -0.1248975E-05 ( -55.33%)
   displ. norm   :     0.0746504 α      lambda       -0.2190723E-05
   maximum displ.:     0.0419497 α      in ANC's #1, #7, #3, ...

........................................................................
.............................. CYCLE  100 ..............................
........................................................................

 iter      E             dE          RMSdq      gap      omega  full diag
   1    -62.6025319 -0.626025E+02  0.924E-03    3.93       0.0  T
   2    -62.6025320 -0.964432E-08  0.550E-03    3.93       2.6  T
   3    -62.6025320 -0.123656E-08  0.286E-04    3.93      49.9  T
   4    -62.6025320 -0.186273E-08  0.133E-04    3.93     107.8  T
     SCC iter.                  ...        0 min,  0.057 sec
     gradient                   ...        0 min,  0.035 sec
 * total energy  :   -61.8026571 Eh     change       -0.2577832E-05 Eh
   gradient norm :     0.0003511 Eh/α   predicted    -0.1098955E-05 ( -57.37%)
   displ. norm   :     0.0824391 α      lambda       -0.2317373E-05
   maximum displ.:     0.0469232 α      in ANC's #1, #7, #2, ...

........................................................................
.............................. CYCLE  101 ..............................
........................................................................

 iter      E             dE          RMSdq      gap      omega  full diag
   1    -62.6025813 -0.626026E+02  0.103E-02    3.93       0.0  T
   2    -62.6025813 -0.964184E-08  0.613E-03    3.93       2.3  T
   3    -62.6025813 -0.263057E-08  0.238E-04    3.93      60.1  T
   4    -62.6025813 -0.673047E-09  0.125E-04    3.93     114.4  T
     SCC iter.                  ...        0 min,  0.097 sec
     gradient                   ...        0 min,  0.042 sec
 * total energy  :   -61.8026600 Eh     change       -0.2841742E-05 Eh
   gradient norm :     0.0002931 Eh/α   predicted    -0.1164136E-05 ( -59.03%)
   displ. norm   :     0.1024574 α      lambda       -0.2885000E-05
   maximum displ.:     0.0587936 α      in ANC's #1, #7, #2, ...

........................................................................
.............................. CYCLE  102 ..............................
........................................................................

 iter      E             dE          RMSdq      gap      omega  full diag
   1    -62.6025745 -0.626026E+02  0.131E-02    3.92       0.0  T
   2    -62.6025746 -0.183386E-07  0.779E-03    3.92       1.8  T
   3    -62.6025746 -0.385271E-08  0.363E-04    3.92      39.4  T
   4    -62.6025746 -0.238278E-08  0.182E-04    3.92      78.3  T
     SCC iter.                  ...        0 min,  0.057 sec
     gradient                   ...        0 min,  0.029 sec
 * total energy  :   -61.8026635 Eh     change       -0.3484660E-05 Eh
   gradient norm :     0.0002973 Eh/α   predicted    -0.1451560E-05 ( -58.34%)
   displ. norm   :     0.1104307 α      lambda       -0.2831039E-05
   maximum displ.:     0.0642541 α      in ANC's #1, #7, #2, ...

........................................................................
.............................. CYCLE  103 ..............................
........................................................................

 iter      E             dE          RMSdq      gap      omega  full diag
   1    -62.6025279 -0.626025E+02  0.141E-02    3.92       0.0  T
   2    -62.6025279 -0.276979E-07  0.837E-03    3.92       1.7  T
   3    -62.6025279 -0.180651E-08  0.522E-04    3.92      27.3  T
   4    -62.6025279 -0.723375E-08  0.224E-04    3.92      63.9  T
     SCC iter.                  ...        0 min,  0.058 sec
     gradient                   ...        0 min,  0.030 sec
 * total energy  :   -61.8026667 Eh     change       -0.3221646E-05 Eh
   gradient norm :     0.0002868 Eh/α   predicted    -0.1425000E-05 ( -55.77%)
   displ. norm   :     0.0812333 α      lambda       -0.1777300E-05
   maximum displ.:     0.0484704 α      in ANC's #1, #7, #2, ...

........................................................................
.............................. CYCLE  104 ..............................
........................................................................

 iter      E             dE          RMSdq      gap      omega  full diag
   1    -62.6025264 -0.626025E+02  0.106E-02    3.92       0.0  T
   2    -62.6025264 -0.158830E-07  0.631E-03    3.92       2.3  T
   3    -62.6025264 -0.208151E-08  0.382E-04    3.92      37.4  T
   4    -62.6025264 -0.348453E-08  0.176E-04    3.92      81.2  T
     SCC iter.                  ...        0 min,  0.063 sec
     gradient                   ...        0 min,  0.042 sec
 * total energy  :   -61.8026687 Eh     change       -0.2020375E-05 Eh
   gradient norm :     0.0001910 Eh/α   predicted    -0.8929119E-06 ( -55.80%)
   displ. norm   :     0.0567506 α      lambda       -0.1227934E-05
   maximum displ.:     0.0345032 α      in ANC's #1, #7, #2, ...

........................................................................
.............................. CYCLE  105 ..............................
........................................................................

 iter      E             dE          RMSdq      gap      omega  full diag
   1    -62.6025392 -0.626025E+02  0.732E-03    3.92       0.0  T
   2    -62.6025392 -0.698327E-08  0.433E-03    3.92       3.3  T
   3    -62.6025392 -0.188432E-08  0.229E-04    3.92      62.5  T
   4    -62.6025392 -0.872561E-09  0.124E-04    3.92     115.4  T
     SCC iter.                  ...        0 min,  0.055 sec
     gradient                   ...        0 min,  0.034 sec
 * total energy  :   -61.8026702 Eh     change       -0.1530501E-05 Eh
   gradient norm :     0.0001596 Eh/α   predicted    -0.6182543E-06 ( -59.60%)
   displ. norm   :     0.0606531 α      lambda       -0.1494018E-05
   maximum displ.:     0.0367300 α      in ANC's #1, #2, #7, ...

........................................................................
.............................. CYCLE  106 ..............................
........................................................................

 iter      E             dE          RMSdq      gap      omega  full diag
   1    -62.6025357 -0.626025E+02  0.768E-03    3.92       0.0  T
   2    -62.6025357 -0.106313E-07  0.453E-03    3.92       3.2  T
   3    -62.6025358 -0.763144E-09  0.302E-04    3.92      47.3  T
   4    -62.6025358 -0.257639E-08  0.139E-04    3.92     103.0  T
     SCC iter.                  ...        0 min,  0.049 sec
     gradient                   ...        0 min,  0.030 sec
 * total energy  :   -61.8026722 Eh     change       -0.1962590E-05 Eh
   gradient norm :     0.0002318 Eh/α   predicted    -0.7518092E-06 ( -61.69%)
   displ. norm   :     0.0865471 α      lambda       -0.2233654E-05
   maximum displ.:     0.0516796 α      in ANC's #1, #2, #7, ...

........................................................................
.............................. CYCLE  107 ..............................
........................................................................

 iter      E             dE          RMSdq      gap      omega  full diag
   1    -62.6025122 -0.626025E+02  0.110E-02    3.93       0.0  T
   2    -62.6025122 -0.278910E-07  0.645E-03    3.92       2.2  T
   3    -62.6025122  0.463525E-08  0.595E-04    3.93      24.0  T
   4    -62.6025122 -0.125267E-07  0.200E-04    3.92      71.6  T
     SCC iter.                  ...        0 min,  0.051 sec
     gradient                   ...        0 min,  0.029 sec
 * total energy  :   -61.8026750 Eh     change       -0.2859476E-05 Eh
   gradient norm :     0.0003248 Eh/α   predicted    -0.1123861E-05 ( -60.70%)
   displ. norm   :     0.1125814 α      lambda       -0.2689169E-05
   maximum displ.:     0.0671573 α      in ANC's #1, #2, #7, ...

........................................................................
.............................. CYCLE  108 ..............................
........................................................................

 iter      E             dE          RMSdq      gap      omega  full diag
   1    -62.6024746 -0.626025E+02  0.138E-02    3.93       0.0  T
   2    -62.6024746 -0.487379E-07  0.814E-03    3.93       1.8  T
   3    -62.6024746  0.140967E-07  0.867E-04    3.93      16.5  T
   4    -62.6024746 -0.276904E-07  0.247E-04    3.93      57.9  T
     SCC iter.                  ...        0 min,  0.059 sec
     gradient                   ...        0 min,  0.038 sec
 * total energy  :   -61.8026784 Eh     change       -0.3309205E-05 Eh
   gradient norm :     0.0003732 Eh/α   predicted    -0.1355266E-05 ( -59.05%)
   displ. norm   :     0.1137807 α      lambda       -0.2410017E-05
   maximum displ.:     0.0685276 α      in ANC's #1, #2, #5, ...

........................................................................
.............................. CYCLE  109 ..............................
........................................................................

 iter      E             dE          RMSdq      gap      omega  full diag
   1    -62.6024964 -0.626025E+02  0.140E-02    3.93       0.0  T
   2    -62.6024964 -0.456404E-07  0.824E-03    3.93       1.7  T
   3    -62.6024964  0.164700E-07  0.889E-04    3.93      16.1  T
   4    -62.6024964 -0.299350E-07  0.234E-04    3.93      61.0  T
     SCC iter.                  ...        0 min,  0.049 sec
     gradient                   ...        0 min,  0.028 sec
 * total energy  :   -61.8026813 Eh     change       -0.2941576E-05 Eh
   gradient norm :     0.0003552 Eh/α   predicted    -0.1214494E-05 ( -58.71%)
   displ. norm   :     0.0988307 α      lambda       -0.2029217E-05
   maximum displ.:     0.0603798 α      in ANC's #1, #2, #5, ...

........................................................................
.............................. CYCLE  110 ..............................
........................................................................

 iter      E             dE          RMSdq      gap      omega  full diag
   1    -62.6025246 -0.626025E+02  0.118E-02    3.93       0.0  T
   2    -62.6025247 -0.273186E-07  0.697E-03    3.93       2.0  T
   3    -62.6025246  0.148835E-07  0.786E-04    3.93      18.2  T
   4    -62.6025247 -0.241759E-07  0.179E-04    3.93      80.0  T
     SCC iter.                  ...        0 min,  0.056 sec
     gradient                   ...        0 min,  0.035 sec
 * total energy  :   -61.8026838 Eh     change       -0.2546564E-05 Eh
   gradient norm :     0.0002501 Eh/α   predicted    -0.1020994E-05 ( -59.91%)
   displ. norm   :     0.0956321 α      lambda       -0.2075922E-05
   maximum displ.:     0.0590964 α      in ANC's #1, #2, #4, ...

........................................................................
.............................. CYCLE  111 ..............................
........................................................................

 iter      E             dE          RMSdq      gap      omega  full diag
   1    -62.6026093 -0.626026E+02  0.113E-02    3.93       0.0  T
   2    -62.6026093 -0.202024E-07  0.665E-03    3.93       2.1  T
   3    -62.6026093  0.115734E-07  0.690E-04    3.93      20.7  T
   4    -62.6026093 -0.188698E-07  0.155E-04    3.93      92.2  T
     SCC iter.                  ...        0 min,  0.058 sec
     gradient                   ...        0 min,  0.034 sec
 * total energy  :   -61.8026865 Eh     change       -0.2678724E-05 Eh
   gradient norm :     0.0002013 Eh/α   predicted    -0.1043138E-05 ( -61.06%)
   displ. norm   :     0.1073021 α      lambda       -0.2442206E-05
   maximum displ.:     0.0664824 α      in ANC's #1, #2, #4, ...

........................................................................
.............................. CYCLE  112 ..............................
........................................................................

 iter      E             dE          RMSdq      gap      omega  full diag
   1    -62.6026268 -0.626026E+02  0.125E-02    3.93       0.0  T
   2    -62.6026269 -0.234954E-07  0.736E-03    3.93       1.9  T
   3    -62.6026269  0.124189E-07  0.721E-04    3.93      19.8  T
   4    -62.6026269 -0.207313E-07  0.165E-04    3.93      86.4  T
     SCC iter.                  ...        0 min,  0.046 sec
     gradient                   ...        0 min,  0.030 sec
 * total energy  :   -61.8026897 Eh     change       -0.3194503E-05 Eh
   gradient norm :     0.0002652 Eh/α   predicted    -0.1228407E-05 ( -61.55%)
   displ. norm   :     0.1337119 α      lambda       -0.2984308E-05
   maximum displ.:     0.0830175 α      in ANC's #1, #2, #4, ...

........................................................................
.............................. CYCLE  113 ..............................
........................................................................

 iter      E             dE          RMSdq      gap      omega  full diag
   1    -62.6026127 -0.626026E+02  0.151E-02    3.93       0.0  T
   2    -62.6026127 -0.353045E-07  0.892E-03    3.93       1.6  T
   3    -62.6026127  0.125099E-07  0.780E-04    3.93      18.3  T
   4    -62.6026127 -0.237778E-07  0.207E-04    3.93      69.1  T
     SCC iter.                  ...        0 min,  0.062 sec
     gradient                   ...        0 min,  0.043 sec
 * total energy  :   -61.8026936 Eh     change       -0.3847625E-05 Eh
   gradient norm :     0.0003225 Eh/α   predicted    -0.1505464E-05 ( -60.87%)
   displ. norm   :     0.1579239 α      lambda       -0.3249588E-05
   maximum displ.:     0.0986463 α      in ANC's #1, #2, #4, ...

........................................................................
.............................. CYCLE  114 ..............................
........................................................................

 iter      E             dE          RMSdq      gap      omega  full diag
   1    -62.6025459 -0.626025E+02  0.177E-02    3.94       0.0  T
   2    -62.6025460 -0.479568E-07  0.104E-02    3.94       1.4  T
   3    -62.6025460  0.108189E-07  0.819E-04    3.94      17.4  T
   4    -62.6025460 -0.253063E-07  0.247E-04    3.94      57.9  T
     SCC iter.                  ...        0 min,  0.057 sec
     gradient                   ...        0 min,  0.030 sec
 * total energy  :   -61.8026977 Eh     change       -0.4086885E-05 Eh
   gradient norm :     0.0003057 Eh/α   predicted    -0.1645232E-05 ( -59.74%)
   displ. norm   :     0.1597391 α      lambda       -0.2979509E-05
   maximum displ.:     0.1006349 α      in ANC's #1, #2, #4, ...

........................................................................
.............................. CYCLE  115 ..............................
........................................................................

 iter      E             dE          RMSdq      gap      omega  full diag
   1    -62.6025217 -0.626025E+02  0.175E-02    3.94       0.0  T
   2    -62.6025218 -0.415771E-07  0.103E-02    3.94       1.4  T
   3    -62.6025218  0.450970E-08  0.702E-04    3.94      20.4  T
   4    -62.6025218 -0.173914E-07  0.244E-04    3.94      58.7  T
     SCC iter.                  ...        0 min,  0.055 sec
     gradient                   ...        0 min,  0.035 sec
 * total energy  :   -61.8027013 Eh     change       -0.3694819E-05 Eh
   gradient norm :     0.0002817 Eh/α   predicted    -0.1508708E-05 ( -59.17%)
   displ. norm   :     0.1518997 α      lambda       -0.2672388E-05
   maximum displ.:     0.0965978 α      in ANC's #1, #2, #4, ...

........................................................................
.............................. CYCLE  116 ..............................
........................................................................

 iter      E             dE          RMSdq      gap      omega  full diag
   1    -62.6024848 -0.626025E+02  0.164E-02    3.94       0.0  T
   2    -62.6024849 -0.310528E-07  0.972E-03    3.94       1.5  T
   3    -62.6024849 -0.106233E-09  0.560E-04    3.94      25.5  T
   4    -62.6024849 -0.997370E-08  0.221E-04    3.94      64.7  T
     SCC iter.                  ...        0 min,  0.285 sec
     gradient                   ...        0 min,  0.073 sec
 * total energy  :   -61.8027047 Eh     change       -0.3367166E-05 Eh
   gradient norm :     0.0002711 Eh/α   predicted    -0.1351979E-05 ( -59.85%)
   displ. norm   :     0.1612406 α      lambda       -0.2897797E-05
   maximum displ.:     0.1031886 α      in ANC's #1, #2, #4, ...

........................................................................
.............................. CYCLE  117 ..............................
........................................................................

 iter      E             dE          RMSdq      gap      omega  full diag
   1    -62.6025000 -0.626025E+02  0.175E-02    3.94       0.0  T
   2    -62.6025001 -0.295514E-07  0.103E-02    3.94       1.4  T
   3    -62.6025001 -0.285894E-08  0.512E-04    3.94      27.9  T
   4    -62.6025001 -0.738991E-08  0.224E-04    3.94      63.9  T
     SCC iter.                  ...        0 min,  0.105 sec
     gradient                   ...        0 min,  0.044 sec
 * total energy  :   -61.8027084 Eh     change       -0.3662046E-05 Eh
   gradient norm :     0.0002866 Eh/α   predicted    -0.1466079E-05 ( -59.97%)
   displ. norm   :     0.2005944 α      lambda       -0.3564800E-05
   maximum displ.:     0.1288778 α      in ANC's #1, #2, #4, ...

........................................................................
.............................. CYCLE  118 ..............................
........................................................................

 iter      E             dE          RMSdq      gap      omega  full diag
   1    -62.6023629 -0.626024E+02  0.218E-02    3.94       0.0  T
   2    -62.6023630 -0.437981E-07  0.129E-02    3.94       1.1  T
   3    -62.6023630 -0.587222E-08  0.613E-04    3.94      23.3  T
   4    -62.6023630 -0.101635E-07  0.281E-04    3.94      50.8  T
     SCC iter.                  ...        0 min,  0.046 sec
     gradient                   ...        0 min,  0.031 sec
 * total energy  :   -61.8027128 Eh     change       -0.4433241E-05 Eh
   gradient norm :     0.0003968 Eh/α   predicted    -0.1815547E-05 ( -59.05%)
   displ. norm   :     0.2609473 α      lambda       -0.4525013E-05
   maximum displ.:     0.1685225 α      in ANC's #1, #2, #4, ...

........................................................................
.............................. CYCLE  119 ..............................
........................................................................

 iter      E             dE          RMSdq      gap      omega  full diag
   1    -62.6022944 -0.626023E+02  0.291E-02    3.94       0.0  T
   2    -62.6022945 -0.785985E-07  0.172E-02    3.94       1.0  T
   3    -62.6022945 -0.122724E-07  0.813E-04    3.94      17.6  T
   4    -62.6022945 -0.177172E-07  0.386E-04    3.94      37.0  T
     SCC iter.                  ...        0 min,  0.051 sec
     gradient                   ...        0 min,  0.038 sec
 * total energy  :   -61.8027181 Eh     change       -0.5253056E-05 Eh
   gradient norm :     0.0004983 Eh/α   predicted    -0.2334183E-05 ( -55.57%)
   displ. norm   :     0.2406340 α      lambda       -0.3930563E-05
   maximum displ.:     0.1564620 α      in ANC's #1, #2, #4, ...

........................................................................
.............................. CYCLE  120 ..............................
........................................................................

 iter      E             dE          RMSdq      gap      omega  full diag
   1    -62.6022495 -0.626022E+02  0.275E-02    3.94       0.0  T
   2    -62.6022496 -0.717554E-07  0.162E-02    3.94       1.0  T
   3    -62.6022496 -0.117482E-07  0.819E-04    3.94      17.4  T
   4    -62.6022496 -0.185793E-07  0.391E-04    3.94      36.5  T
     SCC iter.                  ...        0 min,  0.063 sec
     gradient                   ...        0 min,  0.043 sec
 * total energy  :   -61.8027225 Eh     change       -0.4444155E-05 Eh
   gradient norm :     0.0004977 Eh/α   predicted    -0.2017685E-05 ( -54.60%)
   displ. norm   :     0.2395838 α      lambda       -0.3887641E-05
   maximum displ.:     0.1563935 α      in ANC's #1, #2, #4, ...
 * RMSD in coord.:     0.4062501 α      energy gain  -0.8468116E-04 Eh

generating ANC from exact Hessian ...
Using Lindh-Hessian (1995)
 Shifting diagonal of input Hessian by    9.9093580811228151E-003
 Lowest  eigenvalues of input Hessian
    0.000000    0.000000    0.000000    0.000000    0.000000    0.000000
    0.010000    0.010161    0.010276    0.010690    0.010884    0.011098
    0.011393    0.011949    0.012441    0.012764    0.013412    0.014557
 Highest eigenvalues
    1.302932    1.307501    1.439268    1.811691    2.366214    2.385757


........................................................................
.............................. CYCLE  121 ..............................
........................................................................

 iter      E             dE          RMSdq      gap      omega  full diag
   1    -62.6023080 -0.626023E+02  0.289E-02    3.94       0.0  T
   2    -62.6023081 -0.886887E-07  0.170E-02    3.94       1.0  T
   3    -62.6023081 -0.171350E-07  0.886E-04    3.94      16.1  T
   4    -62.6023081 -0.200429E-07  0.440E-04    3.94      32.5  T
     SCC iter.                  ...        0 min,  0.065 sec
     gradient                   ...        0 min,  0.043 sec
 * total energy  :   -61.8027267 Eh     change       -0.4220861E-05 Eh
   gradient norm :     0.0004971 Eh/α   predicted     0.0000000E+00 (-100.00%)
   displ. norm   :     0.0134503 α      lambda       -0.2440952E-06
   maximum displ.:     0.0084789 α      in ANC's #9, #15, #6, ...

........................................................................
.............................. CYCLE  122 ..............................
........................................................................

 iter      E             dE          RMSdq      gap      omega  full diag
   1    -62.6025661 -0.626026E+02  0.310E-03    3.94       0.0  T
   2    -62.6025661 -0.106037E-07  0.181E-03    3.94       7.9  T
   3    -62.6025661  0.183924E-08  0.351E-04    3.94      40.7  T
   4    -62.6025661 -0.313672E-08  0.746E-05    3.94     191.5  T
     SCC iter.                  ...        0 min,  0.100 sec
     gradient                   ...        0 min,  0.042 sec
 * total energy  :   -61.8027285 Eh     change       -0.1773945E-05 Eh
   gradient norm :     0.0002172 Eh/α   predicted    -0.7954395E-06 ( -55.16%)
   displ. norm   :     0.0372967 α      lambda       -0.2668364E-05
   maximum displ.:     0.0232156 α      in ANC's #9, #6, #15, ...

........................................................................
.............................. CYCLE  123 ..............................
........................................................................

 iter      E             dE          RMSdq      gap      omega  full diag
   1    -62.6027788 -0.626028E+02  0.627E-03    3.94       0.0  T
   2    -62.6027788 -0.183899E-07  0.370E-03    3.94       3.9  T
   3    -62.6027788  0.614503E-08  0.551E-04    3.94      25.9  T
   4    -62.6027788 -0.103251E-07  0.134E-04    3.94     106.3  T
     SCC iter.                  ...        0 min,  0.060 sec
     gradient                   ...        0 min,  0.041 sec
 * total energy  :   -61.8027313 Eh     change       -0.2764759E-05 Eh
   gradient norm :     0.0004905 Eh/α   predicted    -0.1336624E-05 ( -51.65%)
   displ. norm   :     0.0324967 α      lambda       -0.1371862E-05
   maximum displ.:     0.0191023 α      in ANC's #9, #6, #5, ...

........................................................................
.............................. CYCLE  124 ..............................
........................................................................

 iter      E             dE          RMSdq      gap      omega  full diag
   1    -62.6026690 -0.626027E+02  0.561E-03    3.94       0.0  T
   2    -62.6026690 -0.101425E-07  0.332E-03    3.94       4.3  T
   3    -62.6026690  0.315565E-08  0.414E-04    3.94      34.5  T
   4    -62.6026690 -0.608897E-08  0.118E-04    3.94     121.4  T
     SCC iter.                  ...        0 min,  0.061 sec
     gradient                   ...        0 min,  0.022 sec
 * total energy  :   -61.8027326 Eh     change       -0.1360979E-05 Eh
   gradient norm :     0.0002982 Eh/α   predicted    -0.7139162E-06 ( -47.54%)
   displ. norm   :     0.0201911 α      lambda       -0.5672371E-06
   maximum displ.:     0.0105312 α      in ANC's #9, #6, #5, ...

........................................................................
.............................. CYCLE  125 ..............................
........................................................................

 iter      E             dE          RMSdq      gap      omega  full diag
   1    -62.6026275 -0.626026E+02  0.340E-03    3.94       0.0  T
   2    -62.6026275 -0.284253E-08  0.201E-03    3.94       7.1  T
   3    -62.6026275 -0.346795E-09  0.159E-04    3.94      90.1  T
   4    -62.6026275 -0.579647E-09  0.756E-05    3.94     189.0  T
     SCC iter.                  ...        0 min,  0.045 sec
     gradient                   ...        0 min,  0.028 sec
 * total energy  :   -61.8027332 Eh     change       -0.5400656E-06 Eh
   gradient norm :     0.0001646 Eh/α   predicted    -0.2838274E-06 ( -47.45%)
   displ. norm   :     0.0175311 α      lambda       -0.4163624E-06
   maximum displ.:     0.0074456 α      in ANC's #6, #5, #10, ...

   *** GEOMETRY OPTIMIZATION CONVERGED AFTER 125 ITERATIONS ***

------------------------------------------------------------------------
 total energy gain   :        -0.0080017 Eh       -5.0211 kcal/mol
 total RMSD          :         1.0472071 a0        0.5542 Å
 total power (kW/mol):        -0.1680669 (step)   -1.1971 (real)
------------------------------------------------------------------------

 ANCopt (total)                0 d,  0 h,  0 min, 17.549 sec
 optimizer setup                ...        0 min,  0.001 sec (  0.004%)
 model hessian                  ...        0 min,  0.161 sec (  0.919%)
 ANC generation                 ...        0 min,  0.021 sec (  0.119%)
 coordinate transformation      ...        0 min,  0.003 sec (  0.019%)
 single point calculation       ...        0 min, 16.899 sec ( 96.295%)
 optimization log               ...        0 min,  0.032 sec (  0.180%)
 hessian update                 ...        0 min,  0.372 sec (  2.117%)
 rational function              ...        0 min,  0.018 sec (  0.102%)

================
 final structure:
================
49
 xtb: 6.7.1 (edcfbbe)
C           -8.52900753468880        0.62047269419174       -0.23738466718778
C           -7.11536565682264        0.64817777155745        0.33120192936854
C           -6.22796789497309       -0.40881482051174       -0.32288842830158
C           -4.81958371581100       -0.48064866578796        0.27025489745498
C           -3.95796334294447        0.72932420841638       -0.08760943589498
C           -2.56480324076832        0.68279403383077        0.53854249396536
C           -1.69392586153643       -0.43506255901915       -0.02860885982509
C           -0.28274159373480       -0.35836015423153        0.48544953998486
O            0.15398277505878        0.42446398248983        1.26880614716557
O            0.48582857407994       -1.31258720018213       -0.14482419295557
C            1.69815082307621       -1.72985839797054        0.35848060788784
O            1.98805387247539       -1.66517482672371        1.51166327609619
C            2.53723790927059       -2.31227770249840       -0.74611070798562
C            2.92294341848122       -1.22560197984494       -1.75982084006486
C            3.58628089572428       -0.00792634952632       -1.11402270942891
C            4.88590005593285       -0.33907050860075       -0.38340569840810
C            5.60095614580146        0.92477887081333        0.08827518734285
C            6.88823674353960        0.60733041691470        0.84508862038203
C            7.59849146984010        1.87289960590564        1.30916010859024
H           -8.51302272756714        0.81498346264772       -1.30773064336300
H           -8.98808266207427       -0.35236450581103       -0.07432788582531
H           -9.14890217944490        1.37629656439214        0.23916945973951
H           -7.15412608964046        0.46799972730101        1.40793655239506
H           -6.68930826976771        1.64038279081620        0.17472952725725
H           -6.15769781338008       -0.20840453994619       -1.39475990813341
H           -6.70709813944583       -1.38369878820180       -0.20209888092404
H           -4.33906429659746       -1.38767177963093       -0.10203828926974
H           -4.89089675404923       -0.56364654152983        1.35710811012090
H           -3.86570903872985        0.79761235711511       -1.17433686124497
H           -4.45399771717359        1.63638835328931        0.25961586202638
H           -2.06004910299459        1.63473380854450        0.36323029519244
H           -2.65017517405835        0.55575272443581        1.61884695937080
H           -1.65823377750138       -0.38699462629710       -1.11973214595605
H           -2.08598571203879       -1.41812735454403        0.24011324688976
H            3.42419710164700       -2.76215641679412       -0.30241330045984
H            1.95622637081831       -3.08534699716928       -1.25184207074776
H            3.60139015738986       -1.66476179651841       -2.49418373789424
H            2.02265508836458       -0.90046060873778       -2.28565938866620
H            2.89201013919176        0.45811175393234       -0.41068092500783
H            3.79628183596482        0.72291758106679       -1.89941022978128
H            5.54529934868997       -0.90100575486360       -1.05032164054000
H            4.66925431825305       -0.96229139854199        0.48538159496224
H            4.93156341909658        1.49119051536642        0.73932379391923
H            5.83579694812756        1.55400696580051       -0.77423100282308
H            6.65103673615533       -0.01383239373071        1.71145155194024
H            7.55578658336278        0.03280404867394        0.19807986350474
H            7.86145781062220        2.49735180436789        0.45775002525180
H            6.95447410301490        2.44943705564369        1.96945008630116
H            8.51021565177219        1.62593556972101        1.84823447061044

 Bond Distances (Angstroems)
 ---------------------------
C1-C2=1.5240         C1-H20=1.0880        C1-H21=1.0880        C1-H22=1.0875        C2-C1=1.5240         C2-C3=1.5273         
C2-H23=1.0924        C2-H24=1.0911        C3-C2=1.5273         C3-C4=1.5299         C3-H25=1.0927        C3-H26=1.0930        
C4-C3=1.5299         C4-C5=1.5279         C4-H27=1.0919        C4-H28=1.0923        C5-C4=1.5279         C5-C6=1.5281         
C5-H29=1.0928        C5-H30=1.0906        C6-C5=1.5281         C6-C7=1.5263         C6-H31=1.0917        C6-H32=1.0911        
C7-C6=1.5263         C7-C8=1.5039         C7-H33=1.0928        C7-H34=1.0919        C8-C7=1.5039         C8-O9=1.1905         
C8-O10=1.3779        O9-C8=1.1905         O10-C8=1.3779        O10-C11=1.3774       C11-O10=1.3774       C11-O12=1.1908       
C11-C13=1.5045       O12-C11=1.1908       C13-C11=1.5045       C13-C14=1.5353       C13-H35=1.0890       C13-H36=1.0913       
C14-C13=1.5353       C14-C15=1.5296       C14-H37=1.0920       C14-H38=1.0921       C15-C14=1.5296       C15-C16=1.5272       
C15-H39=1.0927       C15-H40=1.0932       C16-C15=1.5272       C16-C17=1.5268       C16-H41=1.0933       C16-H42=1.0909       
C17-C16=1.5268       C17-C18=1.5266       C17-H43=1.0921       C17-H44=1.0932       C18-C17=1.5266       C18-C19=1.5236       
C18-H45=1.0921       C18-H46=1.0929       C19-C18=1.5236       C19-H47=1.0881       C19-H48=1.0877       C19-H49=1.0876       
H20-C1=1.0880        H21-C1=1.0880        H22-C1=1.0875        H23-C2=1.0924        H24-C2=1.0911        H25-C3=1.0927        
H26-C3=1.0930        H27-C4=1.0919        H28-C4=1.0923        H29-C5=1.0928        H30-C5=1.0906        H31-C6=1.0917        
H32-C6=1.0911        H33-C7=1.0928        H34-C7=1.0919        H35-C13=1.0890       H36-C13=1.0913       H37-C14=1.0920       
H38-C14=1.0921       H39-C15=1.0927       H40-C15=1.0932       H41-C16=1.0933       H42-C16=1.0909       H43-C17=1.0921       
H44-C17=1.0932       H45-C18=1.0921       H46-C18=1.0929       H47-C19=1.0881       H48-C19=1.0877       H49-C19=1.0876       
 C  H  Rav=1.0912 sigma=0.0019  Rmin=1.0875  Rmax=1.0933    30
 C  C  Rav=1.5244 sigma=0.0087  Rmin=1.5039  Rmax=1.5353    14
 O  C  Rav=1.2841 sigma=0.0935  Rmin=1.1905  Rmax=1.3779     4

 selected bond angles (degree)
 --------------------
H20-C1-C2=110.50               H21-C1-C2=110.59               H21-C1-H20=108.27              H22-C1-C2=110.65               
H22-C1-H20=108.37              H22-C1-H21=108.38              C3-C2-C1=111.51                H23-C2-C1=109.38               
H23-C2-C3=109.18               H24-C2-C1=108.98               H24-C2-C3=109.94               H24-C2-H23=107.77              
C4-C3-C2=113.66                H25-C3-C2=109.30               H25-C3-C4=109.25               H26-C3-C2=108.38               
H26-C3-C4=108.59               H26-C3-H25=107.47              C5-C4-C3=113.03                H27-C4-C3=108.18               
H27-C4-C5=109.26               H28-C4-C3=109.22               H28-C4-C5=109.27               H28-C4-H27=107.75              
C6-C5-C4=113.21                H29-C5-C4=109.27               H29-C5-C6=109.42               H30-C5-C4=109.12               
H30-C5-C6=108.03               H30-C5-H29=107.64              C7-C6-C5=112.97                H31-C6-C5=109.22               
H31-C6-C7=108.37               H32-C6-C5=109.75               H32-C6-C7=109.10               H32-C6-H31=107.26              
C8-C7-C6=111.78                H33-C7-C6=110.94               H33-C7-C8=107.96               H34-C7-C6=111.29               
H34-C7-C8=107.38               H34-C7-H33=107.28              O9-C8-C7=127.06                O10-C8-C7=109.37               
O10-C8-O9=123.49               C11-O10-C8=122.25              

 selected dihedral angles (degree)
 ---------------------------------
C3-C2-C1-H20=299.91           C3-C2-C1-H21= 59.77           C3-C2-C1-H22=179.87           H23-C2-C1-H20=179.04          
H23-C2-C1-H21=298.91          H23-C2-C1-H22= 59.01          H24-C2-C1-H20= 61.45          H24-C2-C1-H21=181.32          
H24-C2-C1-H22=301.42          C4-C3-C2-C1=183.45            C4-C3-C2-H23=304.43           C4-C3-C2-H24= 62.46           
H25-C3-C2-C1= 61.11           H25-C3-C2-H23=182.09          H25-C3-C2-H24=300.13          H26-C3-C2-C1=304.27           
H26-C3-C2-H23= 65.25          H26-C3-C2-H24=183.29          C5-C4-C3-C2=289.19            C5-C4-C3-H25= 51.55           
C5-C4-C3-H26=168.49           H27-C4-C3-C2=168.08           H27-C4-C3-H25=290.44          H27-C4-C3-H26= 47.38          
H28-C4-C3-C2= 51.06           H28-C4-C3-H25=173.42          H28-C4-C3-H26=290.36          C6-C5-C4-C3=178.21            
C6-C5-C4-H27=298.71           C6-C5-C4-H28= 56.37           H29-C5-C4-C3=300.42           H29-C5-C4-H27= 60.92          
H29-C5-C4-H28=178.58          H30-C5-C4-C3= 57.87           H30-C5-C4-H27=178.37          H30-C5-C4-H28=296.03          
C7-C6-C5-C4= 67.42            C7-C6-C5-H29=305.29           C7-C6-C5-H30=188.37           H31-C6-C5-C4=188.10           
H31-C6-C5-H29= 65.97          H31-C6-C5-H30=309.06          H32-C6-C5-C4=305.42           H32-C6-C5-H29=183.29          
H32-C6-C5-H30= 66.38          C8-C7-C6-C5=173.34            C8-C7-C6-H31= 52.18           C8-C7-C6-H32=295.70           
H33-C7-C6-C5= 52.78           H33-C7-C6-H31=291.61          H33-C7-C6-H32=175.13          H34-C7-C6-C5=293.40           
H34-C7-C6-H31=172.24          H34-C7-C6-H32= 55.76          O9-C8-C7-C6=  2.24            O9-C8-C7-H33=124.53           
O9-C8-C7-H34=239.91           O10-C8-C7-C6=185.25           O10-C8-C7-H33=307.54          O10-C8-C7-H34= 62.93          
C11-O10-C8-C7=198.10          C11-O10-C8-O9= 20.98          
           -------------------------------------------------
          |                Final Singlepoint                |
           -------------------------------------------------

          ...................................................
          :                      SETUP                      :
          :.................................................:
          :  # basis functions                 106          :
          :  # atomic orbitals                 106          :
          :  # shells                           68          :
          :  # electrons                       112          :
          :  max. iterations                   250          :
          :  Hamiltonian                  GFN2-xTB          :
          :  restarted?                      false          :
          :  GBSA solvation                  false          :
          :  PC potential                    false          :
          :  electronic temp.          300.0000000     K    :
          :  accuracy                    1.0000000          :
          :  -> integral cutoff          0.2500000E+02      :
          :  -> integral neglect         0.1000000E-07      :
          :  -> SCF convergence          0.1000000E-05 Eh   :
          :  -> wf. convergence          0.1000000E-03 e    :
          :  Broyden damping             0.4000000          :
          :  net charge                          0          :
          :  unpaired electrons                  0          :
          ...................................................

 iter      E             dE          RMSdq      gap      omega  full diag
   1    -62.6026275 -0.626026E+02  0.340E-05    3.94       0.0  T
   2    -62.6026275 -0.393641E-11  0.217E-05    3.94     659.1  T
   3    -62.6026275  0.184741E-12  0.987E-06    3.94    1447.8  T

   *** convergence criteria satisfied after 3 iterations ***

         #    Occupation            Energy/Eh            Energy/eV
      -------------------------------------------------------------
         1        2.0000           -0.7649689             -20.8159
       ...           ...                  ...                  ...
        50        2.0000           -0.4296801             -11.6922
        51        2.0000           -0.4267209             -11.6117
        52        2.0000           -0.4264901             -11.6054
        53        2.0000           -0.4212795             -11.4636
        54        2.0000           -0.4193478             -11.4110
        55        2.0000           -0.4161882             -11.3251
        56        2.0000           -0.4152434             -11.2993 (HOMO)
        57                         -0.2703929              -7.3578 (LUMO)
        58                         -0.2259185              -6.1476
        59                         -0.0034600              -0.0942
        60                          0.0545245               1.4837
        61                          0.0600172               1.6331
       ...                                ...                  ...
       106                          0.7013056              19.0835
      -------------------------------------------------------------
                  HL-Gap            0.1448505 Eh            3.9416 eV
             Fermi-level           -0.3428181 Eh           -9.3286 eV

 SCC (total)                   0 d,  0 h,  0 min,  0.096 sec
 SCC setup                      ...        0 min,  0.003 sec (  3.270%)
 Dispersion                     ...        0 min,  0.006 sec (  6.592%)
 classical contributions        ...        0 min,  0.003 sec (  3.127%)
 integral evaluation            ...        0 min,  0.011 sec ( 11.287%)
 iterations                     ...        0 min,  0.038 sec ( 39.033%)
 molecular gradient             ...        0 min,  0.035 sec ( 36.373%)
 printout                       ...        0 min,  0.000 sec (  0.286%)

         :::::::::::::::::::::::::::::::::::::::::::::::::::::
         ::                     SUMMARY                     ::
         :::::::::::::::::::::::::::::::::::::::::::::::::::::
         :: total energy             -61.802733170164 Eh    ::
         :: gradient norm              0.000165210569 Eh/a0 ::
         :: HOMO-LUMO gap              3.941581629030 eV    ::
         ::.................................................::
         :: SCC energy               -62.602746417450 Eh    ::
         :: -> isotropic ES            0.073278058204 Eh    ::
         :: -> anisotropic ES          0.010253698859 Eh    ::
         :: -> anisotropic XC          0.023844460610 Eh    ::
         :: -> dispersion             -0.035995290751 Eh    ::
         :: repulsion energy           0.800013247285 Eh    ::
         :: add. restraining           0.000000000000 Eh    ::
         :: total charge               0.000000000000 e     ::
         :::::::::::::::::::::::::::::::::::::::::::::::::::::

           -------------------------------------------------
          |                Property Printout                |
           -------------------------------------------------

    * Orbital Energies and Occupations

         #    Occupation            Energy/Eh            Energy/eV
      -------------------------------------------------------------
         1        2.0000           -0.7649689             -20.8159
       ...           ...                  ...                  ...
        44        2.0000           -0.4505190             -12.2592
        45        2.0000           -0.4468140             -12.1584
        46        2.0000           -0.4430042             -12.0548
        47        2.0000           -0.4406585             -11.9909
        48        2.0000           -0.4359878             -11.8638
        49        2.0000           -0.4334594             -11.7950
        50        2.0000           -0.4296801             -11.6922
        51        2.0000           -0.4267209             -11.6117
        52        2.0000           -0.4264901             -11.6054
        53        2.0000           -0.4212795             -11.4636
        54        2.0000           -0.4193478             -11.4110
        55        2.0000           -0.4161882             -11.3251
        56        2.0000           -0.4152434             -11.2993 (HOMO)
        57                         -0.2703929              -7.3578 (LUMO)
        58                         -0.2259185              -6.1476
        59                         -0.0034600              -0.0942
        60                          0.0545245               1.4837
        61                          0.0600172               1.6331
        62                          0.0796340               2.1670
        63                          0.0841332               2.2894
        64                          0.1010377               2.7494
        65                          0.1057561               2.8778
        66                          0.1073460               2.9210
        67                          0.1156490               3.1470
       ...                                ...                  ...
       106                          0.7013056              19.0835
      -------------------------------------------------------------
                  HL-Gap            0.1448505 Eh            3.9416 eV
             Fermi-level           -0.3428181 Eh           -9.3286 eV

     #   Z          covCN         q      C6AA      α(0)
     1   6 C        3.752    -0.103    22.523     6.768
     2   6 C        3.800    -0.054    21.545     6.609
     3   6 C        3.802    -0.060    21.651     6.625
     4   6 C        3.801    -0.061    21.671     6.628
     5   6 C        3.802    -0.062    21.684     6.630
     6   6 C        3.804    -0.060    21.651     6.624
     7   6 C        3.804    -0.092    22.246     6.715
     8   6 C        2.702     0.366    20.794     7.464
     9   8 O        0.856    -0.344    20.596     6.085
    10   8 O        1.707    -0.282    18.681     5.836
    11   6 C        2.703     0.372    20.700     7.447
    12   8 O        0.856    -0.343    20.578     6.082
    13   6 C        3.803    -0.093    22.269     6.718
    14   6 C        3.803    -0.053    21.526     6.605
    15   6 C        3.802    -0.058    21.625     6.621
    16   6 C        3.802    -0.061    21.677     6.629
    17   6 C        3.804    -0.059    21.637     6.622
    18   6 C        3.801    -0.053    21.530     6.606
    19   6 C        3.752    -0.102    22.518     6.767
    20   1 H        0.925     0.033     2.543     2.494
    21   1 H        0.925     0.033     2.543     2.494
    22   1 H        0.925     0.034     2.535     2.490
    23   1 H        0.924     0.030     2.580     2.512
    24   1 H        0.924     0.031     2.579     2.512
    25   1 H        0.924     0.031     2.575     2.509
    26   1 H        0.924     0.031     2.567     2.506
    27   1 H        0.924     0.029     2.603     2.523
    28   1 H        0.924     0.034     2.532     2.489
    29   1 H        0.924     0.033     2.542     2.493
    30   1 H        0.924     0.041     2.437     2.441
    31   1 H        0.924     0.049     2.327     2.386
    32   1 H        0.924     0.051     2.312     2.378
    33   1 H        0.924     0.075     2.036     2.231
    34   1 H        0.924     0.076     2.025     2.225
    35   1 H        0.925     0.072     2.062     2.246
    36   1 H        0.924     0.070     2.084     2.258
    37   1 H        0.924     0.045     2.379     2.412
    38   1 H        0.924     0.042     2.424     2.435
    39   1 H        0.924     0.035     2.514     2.480
    40   1 H        0.924     0.035     2.516     2.481
    41   1 H        0.924     0.029     2.600     2.521
    42   1 H        0.924     0.041     2.442     2.444
    43   1 H        0.924     0.036     2.509     2.477
    44   1 H        0.924     0.028     2.610     2.527
    45   1 H        0.924     0.032     2.555     2.500
    46   1 H        0.924     0.027     2.626     2.534
    47   1 H        0.925     0.032     2.554     2.499
    48   1 H        0.925     0.035     2.511     2.478
    49   1 H        0.925     0.033     2.546     2.495

 Mol. C6AA /au·bohr⁶  :      18121.281407
 Mol. C8AA /au·bohr⁸  :     388290.543619
 Mol. α(0) /au        :        199.546344


Wiberg/Mayer (AO) data.
largest (>0.10) Wiberg bond orders for each atom

 ---------------------------------------------------------------------------
     #   Z sym  total        # sym  WBO       # sym  WBO       # sym  WBO
 ---------------------------------------------------------------------------
     1   6 C    3.997 --     2 C    1.019    20 H    0.988    21 H    0.988
                            22 H    0.988
     2   6 C    3.998 --     1 C    1.019     3 C    1.009    23 H    0.978
                            24 H    0.976
     3   6 C    3.997 --     2 C    1.009     4 C    1.006    25 H    0.977
                            26 H    0.977
     4   6 C    3.997 --     5 C    1.009     3 C    1.006    28 H    0.977
                            27 H    0.976
     5   6 C    3.996 --     4 C    1.009     6 C    1.007    29 H    0.977
                            30 H    0.974
     6   6 C    3.991 --     5 C    1.007     7 C    1.005    32 H    0.976
                            31 H    0.975
     7   6 C    3.992 --     6 C    1.005     8 C    0.983    33 H    0.949
                            34 H    0.945
     8   6 C    3.904 --     9 O    1.842    10 O    1.009     7 C    0.983
     9   8 O    2.110 --     8 C    1.842    10 O    0.135
    10   8 O    2.339 --    11 C    1.010     8 C    1.009     9 O    0.135
                            12 O    0.134
    11   6 C    3.901 --    12 O    1.845    10 O    1.010    13 C    0.980
    12   8 O    2.109 --    11 C    1.845    10 O    0.134
    13   6 C    3.991 --    14 C    0.982    11 C    0.980    35 H    0.971
                            36 H    0.955
    14   6 C    3.993 --    15 C    1.008    13 C    0.982    38 H    0.977
                            37 H    0.975
    15   6 C    3.996 --    16 C    1.008    14 C    1.008    40 H    0.976
                            39 H    0.975
    16   6 C    3.997 --    15 C    1.008    17 C    1.007    41 H    0.977
                            42 H    0.976
    17   6 C    3.997 --    18 C    1.008    16 C    1.007    44 H    0.977
                            43 H    0.977
    18   6 C    3.998 --    19 C    1.019    17 C    1.008    46 H    0.979
                            45 H    0.978
    19   6 C    3.997 --    18 C    1.019    47 H    0.988    48 H    0.988
                            49 H    0.988
    20   1 H    0.999 --     1 C    0.988
    21   1 H    0.999 --     1 C    0.988
    22   1 H    0.999 --     1 C    0.988
    23   1 H    0.999 --     2 C    0.978
    24   1 H    0.999 --     2 C    0.976
    25   1 H    0.999 --     3 C    0.977
    26   1 H    0.999 --     3 C    0.977
    27   1 H    0.999 --     4 C    0.976
    28   1 H    0.999 --     4 C    0.977
    29   1 H    0.999 --     5 C    0.977
    30   1 H    0.998 --     5 C    0.974
    31   1 H    0.997 --     6 C    0.975
    32   1 H    0.997 --     6 C    0.976
    33   1 H    0.994 --     7 C    0.949
    34   1 H    0.994 --     7 C    0.945
    35   1 H    0.994 --    13 C    0.971
    36   1 H    0.995 --    13 C    0.955
    37   1 H    0.998 --    14 C    0.975
    38   1 H    0.998 --    14 C    0.977
    39   1 H    0.999 --    15 C    0.975
    40   1 H    0.999 --    15 C    0.976
    41   1 H    0.999 --    16 C    0.977
    42   1 H    0.998 --    16 C    0.976
    43   1 H    0.999 --    17 C    0.977
    44   1 H    0.999 --    17 C    0.977
    45   1 H    0.999 --    18 C    0.978
    46   1 H    0.999 --    18 C    0.979
    47   1 H    0.999 --    19 C    0.988
    48   1 H    0.999 --    19 C    0.988
    49   1 H    0.999 --    19 C    0.988
 ---------------------------------------------------------------------------

Topologies differ in total number of bonds
Writing topology from bond orders to xtbtopo.mol

molecular dipole:
                 x           y           z       tot (Debye)
 q only:       -0.586      -0.375      -1.401
   full:       -0.673      -0.545      -1.613       4.654
molecular quadrupole (traceless):
                xx          xy          yy          xz          yz          zz
 q only:        8.525      -2.024      -0.524      -6.439       3.686      -8.002
  q+dip:        5.199      -1.384       0.910      -9.223       2.685      -6.110
   full:        5.898      -0.899       1.579      -8.683       2.365      -7.476

           -------------------------------------------------
          |                Geometry Summary                 |
           -------------------------------------------------

      molecular mass/u    :      270.4082117
   center of mass at/Å    :        0.1671260      -0.1908646       0.1254686
  moments of inertia/u·Å² :        0.5347377E+03   0.6021608E+04   0.6226109E+04
rotational constants/cm⁻¹ :        0.3152505E-01   0.2799523E-02   0.2707571E-02

 * 46 selected distances

     #   Z          #   Z                                           value/Å
     1   6 C        2   6 C                                       1.5239561
     2   6 C        3   6 C                                       1.5272664
     3   6 C        4   6 C                                       1.5298776
     4   6 C        5   6 C                                       1.5279042
     5   6 C        6   6 C                                       1.5281122
     6   6 C        7   6 C                                       1.5263328
     8   6 C        9   8 O                                       1.1904577
     8   6 C       10   8 O                                       1.3778587
    10   8 O       11   6 C                                       1.3773731
    11   6 C       12   8 O                                       1.1908225
    13   6 C       14   6 C                                       1.5353311 (max)
    14   6 C       15   6 C                                       1.5296425
    15   6 C       16   6 C                                       1.5272420
    16   6 C       17   6 C                                       1.5267953
    17   6 C       18   6 C                                       1.5266407
    18   6 C       19   6 C                                       1.5236436
     1   6 C       20   1 H                                       1.0879939
     1   6 C       21   1 H                                       1.0880027
     1   6 C       22   1 H                                       1.0874940 (min)
     2   6 C       23   1 H                                       1.0923938
     2   6 C       24   1 H                                       1.0910910
     3   6 C       25   1 H                                       1.0927080
     3   6 C       26   1 H                                       1.0929569
     4   6 C       27   1 H                                       1.0918756
     4   6 C       28   1 H                                       1.0923481
     5   6 C       29   1 H                                       1.0927721
     5   6 C       30   1 H                                       1.0905875
     6   6 C       31   1 H                                       1.0916504
     6   6 C       32   1 H                                       1.0910939
     7   6 C       33   1 H                                       1.0927647
     7   6 C       34   1 H                                       1.0919428
    13   6 C       35   1 H                                       1.0890156
    13   6 C       36   1 H                                       1.0913180
    14   6 C       37   1 H                                       1.0919892
    14   6 C       38   1 H                                       1.0921275
    15   6 C       39   1 H                                       1.0926542
    15   6 C       40   1 H                                       1.0931912
    16   6 C       41   1 H                                       1.0933233
    16   6 C       42   1 H                                       1.0909314
    17   6 C       43   1 H                                       1.0921416
    17   6 C       44   1 H                                       1.0931584
    18   6 C       45   1 H                                       1.0921044
    18   6 C       46   1 H                                       1.0928513
    19   6 C       47   1 H                                       1.0881136
    19   6 C       48   1 H                                       1.0877210
    19   6 C       49   1 H                                       1.0875815

 * 3 distinct bonds (by element types)

   Z      Z             #   av. dist./Å        max./Å        min./Å
   1 H    6 C          30     1.0911966     1.0933233     1.0874940
   6 C    6 C          12     1.5277287     1.5353311     1.5236436
   6 C    8 O           4     1.2841280     1.3778587     1.1904577


optimized geometry written to: xtbopt.xyz


           -------------------------------------------------
          | TOTAL ENERGY              -61.802733170164 Eh   |
          | GRADIENT NORM               0.000165210569 Eh/α |
          | HOMO-LUMO GAP               3.941581629030 eV   |
           -------------------------------------------------

------------------------------------------------------------------------
 * finished run on 2026/07/07 at 11:53:57.123     
------------------------------------------------------------------------
 total:
 * wall-time:     0 d,  0 h,  0 min, 18.018 sec
 *  cpu-time:     0 d,  0 h,  4 min, 46.843 sec
 * ratio c/w:    15.920 speedup
 SCF:
 * wall-time:     0 d,  0 h,  0 min,  0.310 sec
 *  cpu-time:     0 d,  0 h,  0 min,  4.961 sec
 * ratio c/w:    15.987 speedup
 ANC optimizer:
 * wall-time:     0 d,  0 h,  0 min, 17.652 sec
 *  cpu-time:     0 d,  0 h,  4 min, 41.105 sec
 * ratio c/w:    15.925 speedup

