34
REP_00182 MMFF geometry for GFN2-xTB preoptimization
C  -1.893906385156 -2.482876074551 -1.378436684675
C  -0.782087063687 -1.486794487797 -1.615755915128
O   0.073866626890 -1.743768046946 -2.468179876963
N  -0.715142113322 -0.350553747159 -0.805895344216
C   0.552685611142  0.394348443082 -0.819328485186
C   1.634919174993 -0.296723771942  0.020934852007
C   2.910070395496  0.549585468021  0.185962248327
C   3.877468911282 -0.149769568769  1.143853052954
C   3.607456419654  0.818090594418 -1.148238222974
C  -1.805911752772  0.200706378780 -0.063419401337
C  -1.584554347730  0.839267989442  1.165899246115
C  -2.643322462072  1.396281553456  1.890189480393
C  -3.939317714124  1.338778363268  1.387560134471
C  -4.174566183378  0.732682100532  0.157512509584
C  -3.114715665905  0.173660183439 -0.564036011817
H  -2.267280013114 -2.449678577095 -0.352630261243
H  -1.493627158541 -3.490424374046 -1.534301946381
H  -2.702949967592 -2.320048433349 -2.093681955858
H   0.393083213453  1.425025941747 -0.481410438927
H   0.886249225735  0.469676641377 -1.861190026054
H   1.228676124252 -0.523598069223  1.014604973424
H   1.888609968696 -1.265481913309 -0.428076962823
H   2.636380790185  1.514587339572  0.631088201615
H   4.191919451979 -1.122853030964  0.751311095463
H   4.774768655482  0.457568265862  1.303373891679
H   3.408857190205 -0.312947403186  2.120156490290
H   3.844404226084 -0.116666551799 -1.667506785350
H   2.982724648798  1.426822679084 -1.808821778754
H   4.543748017168  1.365282447730 -0.993656973806
H  -0.590486566441  0.889639700163  1.600427531369
H  -2.452708389668  1.873349222577  2.848295460795
H  -4.762411149365  1.774403168941  1.948076042917
H  -5.181683851251  0.706139052029 -0.251230986064
H  -3.331217867376 -0.233711483385 -1.546936285580
