15
DEC_00255 MMFF geometry for GFN2-xTB preoptimization
Cl -0.795466270321  2.595413422977  0.790658305619
C   0.005316424691  1.136650101159  0.307802940273
C   1.400413980075  1.239991688894  0.184128219681
C   2.163409205811  0.142724940750 -0.196540908083
C   1.534072001000 -1.064660466592 -0.455674722503
C   0.143887031402 -1.173881280519 -0.334129388728
C  -0.670013281356 -0.080218612245  0.051097609641
C  -2.188517919015 -0.218205220126  0.178792929081
Cl -2.729233389953  0.099554326937  1.862661340765
Cl -2.814004779128 -1.879435044512 -0.203891235233
Cl -3.037581178704  0.868837742204 -0.972808739487
H   1.900432698825  2.185484428039  0.386271578346
H   3.242780113129  0.231446928093 -0.289847812472
H   2.121892024894 -1.930454703364 -0.754493956378
H  -0.277386661350 -2.153248251697 -0.554026160520
