22
REP_00172 MMFF geometry for GFN2-xTB preoptimization
C  -3.932125584730 -0.340999490183 -0.444744601677
C  -2.799764491153  0.351095281111 -0.627500842837
C  -1.923518886324  0.854025008569  0.484532365307
C  -0.519246879224  0.302037767883  0.400768734595
C  -0.238040580909 -0.997700975606  0.883905069310
C   1.051201365653 -1.533512182419  0.803431831746
C   2.033662436159 -0.754406392529  0.233622192259
C   1.770138952925  0.506917079194 -0.245370116772
C   0.509343032402  1.062205828659 -0.180099758244
O   2.873774490695  1.103773452503 -0.770560474780
C   3.861551160650  0.072282692794 -0.566629277864
O   3.336075460888 -1.110134410276  0.071069499916
H  -4.295803097942 -0.591932542554  0.546718718349
H  -4.520380345517 -0.674926344939 -1.294165103028
H  -2.479687125712  0.578184857138 -1.642645100448
H  -1.893243653784  1.949902891664  0.440565324860
H  -2.345462271755  0.607094158703  1.467157275374
H  -1.034651679680 -1.596475111051  1.321908983736
H   1.270641272376 -2.528604795287  1.172662819929
H   0.329385746126  2.057960656336 -0.570752236315
H   4.667503206196  0.477370060101  0.056166000121
H   4.278647472660 -0.210632784357 -1.540041303536
