28
REP_00069 MMFF geometry for GFN2-xTB preoptimization
C   4.100452509560 -0.191793436919  1.465467337675
C   3.606849381407  0.093042594834  0.060430320012
O   2.177454756587  0.013380240477  0.064383671669
C   1.601608570658  0.249572669402 -1.142130001058
O   2.195340454670  0.514834551573 -2.177076616052
C   0.115212465932  0.141145374974 -1.021252726772
C  -0.594072396186  0.371492279837 -2.134227494730
C  -2.053754468151  0.204013350699 -2.084230183089
O  -2.733012526002  0.470216167725 -3.071423130690
C  -2.647097683607 -0.369776368188 -0.829799174635
C  -1.832022438461  0.079844845567  0.382479192580
C  -2.261502783821 -0.746020704699  1.603697654138
C  -2.038212893042  1.568733307385  0.706486893708
O  -0.429537004938 -0.180402120152  0.207364429815
H   5.191833461207 -0.142183450403  1.513253467087
H   3.776669046934 -1.185007904068  1.793807364509
H   3.682026159005  0.530012123227  2.174720447698
H   3.920706477763  1.097392178642 -0.245383745233
H   4.016979064048 -0.649324009320 -0.633418998533
H  -0.157619048548  0.641909912957 -3.088301115635
H  -3.690644173052 -0.048424211035 -0.740968705097
H  -2.625269147437 -1.460666546471 -0.941728504490
H  -1.679196320749 -0.466397214576  2.489453640187
H  -3.324334916253 -0.611353022777  1.830320285127
H  -2.074292724044 -1.813397302224  1.438018743157
H  -1.721582731087  2.215388882274 -0.118480479996
H  -1.434554466898  1.862685550250  1.573045986207
H  -3.088426625492  1.788668087059  0.925491442439
