20
REP_00152 MMFF geometry for GFN2-xTB preoptimization
C   3.301089624244 -1.051335350510 -0.636418584269
O   1.880041040672 -1.078802858534 -0.497893013161
C   1.352574144923  0.066834143226  0.006701697109
O   1.990291326057  1.056081741600  0.338872626054
C  -0.132408543566 -0.034644837272  0.094692810834
C  -0.752620946453 -1.296847915024  0.132965836576
C  -2.140398638412 -1.401162818302  0.226783637246
C  -2.918376581214 -0.249116830489  0.272513573111
C  -2.309487528500  1.007340048013  0.238463173611
C  -0.913358899162  1.136936702322  0.194161026853
N  -0.373873772892  2.427045869607  0.025073141238
H   3.778838961090 -0.922441799391  0.339849704024
H   3.619262531883 -2.010839705700 -1.053372229137
H   3.604299826048 -0.256754749897 -1.325424906568
H  -0.161755015284 -2.208648508729  0.089509620266
H  -2.613018711794 -2.379951899705  0.250980388394
H  -4.001897340628 -0.324517054651  0.320899312330
H  -2.937761853284  1.895102484721  0.239803462633
H   0.625608663639  2.463173828560  0.253922103183
H  -0.897048287365  3.162549510154  0.487916619676
