20
 energy: -32.777436003671 gnorm: 0.000409816391 xtb: 6.7.1 (edcfbbe)
C            3.31145215709382       -1.07627968611591       -0.51075060476502
O            1.90435892525404       -1.11009646753874       -0.34801491913845
C            1.30936156218867        0.08144391138536       -0.15293501663010
O            1.95709293052148        1.11357844551711       -0.11911610772993
C           -0.14192466296670       -0.01974785933672        0.00770455247892
C           -0.76858389770112       -1.26992709965135       -0.02566354633191
C           -2.12876398808511       -1.39244378358418        0.13580159056434
C           -2.90008941678304       -0.25050816668864        0.33804579844440
C           -2.31140780134402        0.98979080067781        0.37492161898040
C           -0.92484863600325        1.14258479866193        0.20952565744795
N           -0.37028384063359        2.37276948979939        0.22515141714443
H            3.79092415902828       -0.69119027271958        0.39228505264205
H            3.61988159930712       -2.10170694740081       -0.69836047075685
H            3.58315683030039       -0.43336154397232       -1.35114740477460
H           -0.15714551509136       -2.14472963930598       -0.18026786518873
H           -2.59633823462396       -2.36428014165239        0.10750176671234
H           -3.96899924544648       -0.33965419100528        0.46723149841073
H           -2.91120001947105        1.87544211982497        0.53138424250663
H            0.63427563679618        2.44238051568385        0.15450953339677
H           -0.93091854233824        3.17593571742035        0.44219320658953
