20
 energy: -27.118808721261 gnorm: 0.000142847253 xtb: 6.7.1 (edcfbbe)
C           -1.59305872897498       -1.09138234283802        0.70451266873364
C           -1.20384392502598        0.13239381641569       -0.12188357466929
C           -2.09373095172569        1.31683441848658        0.25029534289668
C            0.26647896870910        0.50886396937735        0.08265867574787
C            1.23967425655541       -0.54249555902409       -0.44190301959466
C            2.66454396792525       -0.05540276768161       -0.41398267506837
O            3.03429397671273        1.05178232851038       -0.13411502908737
O            3.52148802379715       -1.03126723563110       -0.75702940807901
H           -2.65343465757149       -1.30323795406513        0.58679847769331
H           -1.39593314068902       -0.91299574700181        1.75947232503430
H           -1.03854217736499       -1.97230014080087        0.39207391482284
H           -1.36013767795188       -0.09834036059633       -1.18210495301708
H           -1.95145935605000        1.58198269204362        1.29561348298210
H           -3.14221621591534        1.07080746342479        0.09843716807884
H           -1.85365994354677        2.18513438979320       -0.35870189761791
H            0.47172820681281        1.44958911668801       -0.43191799373820
H            0.45567147816616        0.67411362896886        1.14497480701725
H            1.19453262764210       -1.46382952197262        0.14033661236661
H            1.00455375341284       -0.80058622753655       -1.47791139629789
H            4.43305151508358       -0.69966396655934       -0.74239650010765
