29
DEC_00208 MMFF geometry for GFN2-xTB preoptimization
C   2.262770618317 -0.630844768529  0.810565073131
C   1.240673797067 -0.026306470537 -0.164011983337
C   1.983804245924  0.345014926863 -1.456228709797
O   0.300693489681 -1.069960410407 -0.497627245810
C  -1.066875034321 -0.735087910803 -0.185159364172
C  -1.934447881195 -1.922419879560 -0.589536215165
C  -1.451672224167  0.527512618148 -0.979981563532
C  -0.565952686827  1.701320666112 -0.546544652437
C   0.490364775683  1.190902314057  0.452336507084
C  -0.289445594553  0.734071319944  1.700253826204
C  -1.167552956638 -0.466356996230  1.328649484149
H   2.979008027865  0.121263971310  1.156649988510
H   2.821854220367 -1.444132961666  0.332535285632
H   1.779568187778 -1.085380203295  1.681056106693
H   2.677398592330  1.176334926402 -1.294142562558
H   1.294201939736  0.612508666960 -2.262911868866
H   2.555002255139 -0.510666021927 -1.835790264141
H  -1.626709565066 -2.828889914021 -0.056067886022
H  -1.823860533182 -2.139226578094 -1.658060341814
H  -2.993112235560 -1.738760237788 -0.380182606910
H  -1.305914137628  0.354414975696 -2.053524887284
H  -2.507792022194  0.781613925824 -0.831726151491
H  -0.098012872595  2.169669720703 -1.419137808043
H  -1.182579340743  2.481970830446 -0.083869059290
H   1.183756150129  1.997769099449  0.714360515834
H  -0.916472400173  1.551096916884  2.078431413163
H   0.386933575285  0.473277268927  2.521371759132
H  -2.204992640978 -0.277603720301  1.628694182615
H  -0.820637749481 -1.343106074568  1.889599028523
