20
DEC_00211 MMFF geometry for GFN2-xTB preoptimization
C  -3.184301065450 -0.208239696479 -0.050233971704
C  -2.411265359185 -1.361523695763 -0.144262202842
C  -1.015714910373 -1.273722386071 -0.187547481224
C  -0.377356508680 -0.024677181495 -0.136891285768
N   1.050315987759  0.068686247418 -0.180968252526
C   1.806333329622  1.228356119929 -0.139604749688
C   3.145212464738  0.909156627925 -0.204647989969
C   3.234223582597 -0.491968511558 -0.289393125209
C   1.946811798092 -0.982916469636 -0.273351222601
C  -1.168476272280  1.130886138040 -0.042103141831
C  -2.563588663171  1.036189389803  0.000766132698
H  -4.268266009487 -0.279126866539 -0.016770562493
H  -2.893515775100 -2.335224060503 -0.184286057017
H  -0.463063320810 -2.204485824306 -0.260962079154
H   1.349109614283  2.203163411358 -0.066933155311
H   3.964139009254  1.616766889522 -0.191813184720
H   4.135908347804 -1.087057953272 -0.355351621121
H   1.616715005130 -2.009211368760 -0.321715836346
H  -0.738168634668  2.125930623662  0.000964726957
H  -3.165052620074  1.939018566725  0.074243920190
