28
REP_00271 MMFF geometry for GFN2-xTB preoptimization
O   1.319405903568  1.639569013988  2.136588242210
C   1.211087045465  0.880943526443  1.186100063941
O   0.047356758045  0.420980484130  0.670199869072
C  -1.115124906664  0.905686369748  1.345233803690
C  -2.321070119483  0.312722798480  0.663982027811
C  -2.836329370589 -0.923473064002  1.078648370395
C  -3.941443803945 -1.481634037185  0.433963885076
C  -4.536106140200 -0.814690703531 -0.635574004229
C  -4.024021139873  0.408335070747 -1.064905006578
C  -2.918981756002  0.968214740311 -0.421583074096
C   2.370322262717  0.332549451978  0.430950313163
C   3.659624021193  0.707894838307  0.833267019177
C   4.778954084144  0.219659628913  0.156157571250
C   4.616894691882 -0.645200998026 -0.925316715849
C   3.337795728969 -1.023695399143 -1.332164004798
C   2.215185462913 -0.537501637418 -0.657448780894
H  -1.095087851982  0.605789744414  2.400353532489
H  -1.155942778897  2.000816910683  1.293854926134
H  -2.376269082072 -1.459595752446  1.905859333285
H  -4.336264762830 -2.438827123469  0.764387315968
H  -5.395765952973 -1.250479650736 -1.137711866383
H  -4.483247951786  0.925197041598 -1.903502841149
H  -2.523878353421  1.918737303295 -0.773379860622
H   3.796932722000  1.382578028446  1.676333314559
H   5.776349088427  0.514528935768  0.473065784857
H   5.489023856376 -1.025063363798 -1.452199013564
H   3.213397620575 -1.698328771967 -2.175877924082
H   1.227204724440 -0.845713385528 -0.991696454785
