25
REP_00297 MMFF geometry for GFN2-xTB preoptimization
C   3.772331160546 -0.096766758859  0.312743944146
C   2.272728708984 -0.139950141431  0.287178313950
C   1.568563674069 -0.928148828090  1.204039803415
C   0.171203736433 -0.969846606685  1.181986527921
C  -0.555392136438 -0.224342340428  0.242545043216
C  -2.072518147479 -0.288080164367  0.240938047355
C  -2.610238057282 -0.861982368376 -1.072306399706
C  -2.693530526471  1.080125318601  0.533299621337
C   0.152101265886  0.565681175686 -0.676348377599
C   1.547850753380  0.602094792866 -0.647984543960
O   2.234002656004  1.373034116582 -1.544891080287
H   4.119410630195  0.924946069807  0.497724199959
H   4.178825498596 -0.734318149402  1.104944234259
H   4.178441376761 -0.451284106225 -0.640130773313
H   2.103095538494 -1.517946295024  1.945178844274
H  -0.345004042285 -1.593175873191  1.909175142123
H  -2.394303532461 -0.965270063700  1.043360095943
H  -2.175352901336 -1.846818100890 -1.276253491368
H  -2.384105118013 -0.214052486353 -1.926136575481
H  -3.698230041961 -0.979648294998 -1.023772925064
H  -2.470834951143  1.808348863462 -0.254146741737
H  -2.318304588071  1.486227846759  1.479295123527
H  -3.783094547837  0.999107276745  0.612122527399
H  -0.391858669564  1.150491813243 -1.411942937578
H   1.594212260992  1.821573304267 -2.120617622732
