      -----------------------------------------------------------      
     |                   =====================                   |     
     |                           x T B                           |     
     |                   =====================                   |     
     |                         S. Grimme                         |     
     |          Mulliken Center for Theoretical Chemistry        |     
     |                    University of Bonn                     |     
      -----------------------------------------------------------      

   * xtb version 6.7.1 (edcfbbe) compiled by 'conda@5dfe00f5fb80' on 2026-06-10

   xtb is free software: you can redistribute it and/or modify it under
   the terms of the GNU Lesser General Public License as published by
   the Free Software Foundation, either version 3 of the License, or
   (at your option) any later version.
   
   xtb is distributed in the hope that it will be useful,
   but WITHOUT ANY WARRANTY; without even the implied warranty of
   MERCHANTABILITY or FITNESS FOR A PARTICULAR PURPOSE.  See the
   GNU Lesser General Public License for more details.
   
   Cite this work as:
   * C. Bannwarth, E. Caldeweyher, S. Ehlert, A. Hansen, P. Pracht,
     J. Seibert, S. Spicher, S. Grimme, WIREs Comput. Mol. Sci., 2020, 11,
     e01493. DOI: 10.1002/wcms.1493
   
   for GFN2-xTB:
   * C. Bannwarth, S. Ehlert and S. Grimme., J. Chem. Theory Comput., 2019,
     15, 1652-1671. DOI: 10.1021/acs.jctc.8b01176
   for GFN1-xTB:
   * S. Grimme, C. Bannwarth, P. Shushkov, J. Chem. Theory Comput., 2017,
     13, 1989-2009. DOI: 10.1021/acs.jctc.7b00118
   for GFN0-xTB:
   * P. Pracht, E. Caldeweyher, S. Ehlert, S. Grimme, ChemRxiv, 2019, preprint.
     DOI: 10.26434/chemrxiv.8326202.v1
   for GFN-FF:
   * S. Spicher and S. Grimme, Angew. Chem. Int. Ed., 2020, 59, 15665-15673.
     DOI: 10.1002/anie.202004239
   
   for ALPB and GBSA implicit solvation:
   * S. Ehlert, M. Stahn, S. Spicher, S. Grimme, J. Chem. Theory Comput.,
     2021, 17, 4250-4261. DOI: 10.1021/acs.jctc.1c00471
   
   for ddCOSMO and CPCM-X implicit solvation:
   * M. Stahn, S. Ehlert, S. Grimme, J. Phys. Chem. A,
     2023, XX, XXXX-XXXX. DOI: 10.1021/acs.jpca.3c04382
   
   for DFT-D4:
   * E. Caldeweyher, C. Bannwarth and S. Grimme, J. Chem. Phys., 2017,
     147, 034112. DOI: 10.1063/1.4993215
   * E. Caldeweyher, S. Ehlert, A. Hansen, H. Neugebauer, S. Spicher,
     C. Bannwarth and S. Grimme, J. Chem. Phys., 2019, 150, 154122.
     DOI: 10.1063/1.5090222
   * E. Caldeweyher, J.-M. Mewes, S. Ehlert and S. Grimme, Phys. Chem. Chem. Phys.
     2020, 22, 8499-8512. DOI: 10.1039/D0CP00502A
   
   for sTDA-xTB:
   * S. Grimme and C. Bannwarth, J. Chem. Phys., 2016, 145, 054103.
     DOI: 10.1063/1.4959605
   
   in the mass-spec context:
   * V. Asgeirsson, C. Bauer and S. Grimme, Chem. Sci., 2017, 8, 4879.
     DOI: 10.1039/c7sc00601b
   * J. Koopman and S. Grimme, ACS Omega 2019, 4, 12, 15120-15133.
     DOI: 10.1021/acsomega.9b02011
   
   for metadynamics refer to:
   * S. Grimme, J. Chem. Theory Comput., 2019, 155, 2847-2862
     DOI: 10.1021/acs.jctc.9b00143
   
   for SPH calculations refer to:
   * S. Spicher and S. Grimme, J. Chem. Theory Comput., 2021, 17, 1701-1714
     DOI: 10.1021/acs.jctc.0c01306
   
   for ONIOM refer to:
   * C. Plett, A. Katbashev, S. Ehlert, S. Grimme, M. Bursch,
     Phys. Chem. Chem. Phys., 2023, 25, 17860-17868. DOI: 10.1039/D3CP02178E
   
   for DIPRO refer to:
   * J. Kohn, N. Gildemeister, S. Grimme, D. Fazzi, A. Hansen,
     J. Chem. Phys., 2023, just accepted.
   
   for PTB refer to:
   * S. Grimme, M. Mueller, A. Hansen, J. Chem. Phys., 2023, 158, 124111.
     DOI: 10.1063/5.0137838
   
   with help from (in alphabetical order)
   P. Atkinson, C. Bannwarth, F. Bohle, G. Brandenburg, E. Caldeweyher
   M. Checinski, S. Dohm, S. Ehlert, S. Ehrlich, I. Gerasimov, C. Hölzer
   A. Katbashev, J. Kohn, J. Koopman, C. Lavigne, S. Lehtola, F. März, M. Müller,
   F. Musil, H. Neugebauer, J. Pisarek, C. Plett, P. Pracht, F. Pultar,
   J. Seibert, P. Shushkov, S. Spicher, M. Stahn, M. Steiner, T. Strunk,
   J. Stückrath, T. Rose, and J. Unsleber
   
 * started run on 2026/07/08 at 18:22:26.210     
   ID    Z sym.   atoms
    1    8 O      1, 4, 7
    2    6 C      2, 3, 5, 6
    3    1 H      8-17

           -------------------------------------------------
          |                Calculation Setup                |
           -------------------------------------------------

          program call               : /home/ws/xd2484/miniforge3/envs/p3z_dft/bin/xtb xtb_input.xyz --gfn 2 --opt tight --cycles 500 --chrg 0 --uhf 0
          hostname                   : gpu10
          coordinate file            : xtb_input.xyz
          omp threads                :                    16


           -------------------------------------------------
          |                 G F N 2 - x T B                 |
           -------------------------------------------------

        Reference                      10.1021/acs.jctc.8b01176
      * Hamiltonian:
        H0-scaling (s, p, d)           1.850000    2.230000    2.230000
        zeta-weighting                 0.500000
      * Dispersion:
        s8                             2.700000
        a1                             0.520000
        a2                             5.000000
        s9                             5.000000
      * Repulsion:
        kExp                           1.500000    1.000000
        rExp                           1.000000
      * Coulomb:
        alpha                          2.000000
        third order                    shell-resolved
        anisotropic                    true
        a3                             3.000000
        a5                             4.000000
        cn-shift                       1.200000
        cn-exp                         4.000000
        max-rad                        5.000000


          ...................................................
          :                      SETUP                      :
          :.................................................:
          :  # basis functions                  38          :
          :  # atomic orbitals                  38          :
          :  # shells                           24          :
          :  # electrons                        44          :
          :  max. iterations                   250          :
          :  Hamiltonian                  GFN2-xTB          :
          :  restarted?                      false          :
          :  GBSA solvation                  false          :
          :  PC potential                    false          :
          :  electronic temp.          300.0000000     K    :
          :  accuracy                    1.0000000          :
          :  -> integral cutoff          0.2500000E+02      :
          :  -> integral neglect         0.1000000E-07      :
          :  -> SCF convergence          0.1000000E-05 Eh   :
          :  -> wf. convergence          0.1000000E-03 e    :
          :  Broyden damping             0.4000000          :
          :  net charge                          0          :
          :  unpaired electrons                  0          :
          ...................................................

 iter      E             dE          RMSdq      gap      omega  full diag
   1    -25.9996399 -0.259996E+02  0.445E+00   10.90       0.0  T
   2    -26.0445850 -0.449451E-01  0.234E+00   10.37       1.0  T
   3    -26.0454144 -0.829414E-03  0.868E-01   10.47       1.0  T
   4    -26.0456210 -0.206585E-03  0.121E-01   10.51       1.0  T
   5    -26.0456283 -0.730511E-05  0.310E-02   10.54       1.0  T
   6    -26.0456342 -0.595718E-05  0.119E-02   10.53       2.0  T
   7    -26.0456345 -0.288395E-06  0.452E-03   10.52       5.4  T
   8    -26.0456346 -0.656921E-07  0.163E-03   10.53      14.9  T
   9    -26.0456346 -0.210959E-08  0.287E-04   10.53      84.4  T
  10    -26.0456346 -0.466756E-09  0.855E-05   10.53     283.7  T

   *** convergence criteria satisfied after 10 iterations ***

         #    Occupation            Energy/Eh            Energy/eV
      -------------------------------------------------------------
         1        2.0000           -0.7167867             -19.5048
       ...           ...                  ...                  ...
        16        2.0000           -0.4958286             -13.4922
        17        2.0000           -0.4858924             -13.2218
        18        2.0000           -0.4650639             -12.6550
        19        2.0000           -0.4571377             -12.4393
        20        2.0000           -0.4239915             -11.5374
        21        2.0000           -0.4192831             -11.4093
        22        2.0000           -0.4182683             -11.3817 (HOMO)
        23                         -0.0314243              -0.8551 (LUMO)
        24                          0.0381845               1.0391
        25                          0.0503992               1.3714
        26                          0.0546035               1.4858
        27                          0.0798481               2.1728
       ...                                ...                  ...
        38                          0.2512256               6.8362
      -------------------------------------------------------------
                  HL-Gap            0.3868441 Eh           10.5266 eV
             Fermi-level           -0.2248463 Eh           -6.1184 eV

 SCC (total)                   0 d,  0 h,  0 min,  0.182 sec
 SCC setup                      ...        0 min,  0.003 sec (  1.702%)
 Dispersion                     ...        0 min,  0.008 sec (  4.285%)
 classical contributions        ...        0 min,  0.004 sec (  2.023%)
 integral evaluation            ...        0 min,  0.010 sec (  5.483%)
 iterations                     ...        0 min,  0.122 sec ( 66.891%)
 molecular gradient             ...        0 min,  0.036 sec ( 19.518%)
 printout                       ...        0 min,  0.000 sec (  0.082%)

         :::::::::::::::::::::::::::::::::::::::::::::::::::::
         ::                     SUMMARY                     ::
         :::::::::::::::::::::::::::::::::::::::::::::::::::::
         :: total energy             -25.835049492618 Eh    ::
         :: gradient norm              0.039137948975 Eh/a0 ::
         :: HOMO-LUMO gap             10.526562604911 eV    ::
         ::.................................................::
         :: SCC energy               -26.045604098344 Eh    ::
         :: -> isotropic ES            0.067246681279 Eh    ::
         :: -> anisotropic ES          0.001447409211 Eh    ::
         :: -> anisotropic XC         -0.000590160654 Eh    ::
         :: -> dispersion             -0.008671620851 Eh    ::
         :: repulsion energy           0.210554605725 Eh    ::
         :: add. restraining           0.000000000000 Eh    ::
         :: total charge               0.000000000000 e     ::
         :::::::::::::::::::::::::::::::::::::::::::::::::::::

      ----------------------------------------------------------- 
     |                   =====================                   |
     |                        A N C O P T                        |
     |                   =====================                   |
     |               Approximate Normal Coordinate               |
     |                Rational Function Optimizer                |
      ----------------------------------------------------------- 
      ----------------------------------------------------------- 
     |                   =====================                   |
     |                        A N C O P T                        |
     |                   =====================                   |
     |               Approximate Normal Coordinate               |
     |                Rational Function Optimizer                |
      ----------------------------------------------------------- 

          ...................................................
          :                      SETUP                      :
          :.................................................:
          :   optimization level             tight          :
          :   max. optcycles                   500          :
          :   ANC micro-cycles                  20          :
          :   degrees of freedom                45          :
          :.................................................:
          :   RF solver                   davidson          :
          :   write xtbopt.log                true          :
          :   linear?                        false          :
          :   energy convergence         0.1000000E-05 Eh   :
          :   grad. convergence          0.8000000E-03 Eh/α :
          :   maxmium RF displ.          1.0000000          :
          :   Hlow (freq-cutoff)         0.1000000E-01      :
          :   Hmax (freq-cutoff)         5.0000000          :
          :   S6 in model hess.         20.0000000          :
          ...................................................

generating ANC from exact Hessian ...
Using Lindh-Hessian (1995)
 Shifting diagonal of input Hessian by    8.4525119903672355E-003
 Lowest  eigenvalues of input Hessian
    0.000000    0.000000    0.000000    0.000000    0.000000    0.000000
    0.010000    0.011553    0.011992    0.016169    0.019076    0.026081
    0.026584    0.032985    0.043343    0.049731    0.050940    0.063519
 Highest eigenvalues
    1.245556    1.253495    1.283960    1.410373    1.415035    1.464522


........................................................................
.............................. CYCLE    1 ..............................
........................................................................

 iter      E             dE          RMSdq      gap      omega  full diag
   1    -26.0456346 -0.260456E+02  0.282E-05   10.53       0.0  T
   2    -26.0456346 -0.530420E-11  0.126E-05   10.53    1918.0  T
   3    -26.0456346 -0.220268E-12  0.754E-06   10.53    3218.4  T
     SCC iter.                  ...        0 min,  0.040 sec
     gradient                   ...        0 min,  0.037 sec
 * total energy  :   -25.8350495 Eh     change       -0.8540013E-10 Eh
   gradient norm :     0.0391391 Eh/α   predicted     0.0000000E+00 (-100.00%)
   displ. norm   :     0.1622311 α      lambda       -0.2924054E-02
   maximum displ.:     0.0682593 α      in ANC's #7, #13, #10, ...

........................................................................
.............................. CYCLE    2 ..............................
........................................................................

 iter      E             dE          RMSdq      gap      omega  full diag
   1    -26.0513350 -0.260513E+02  0.140E-01   10.84       0.0  T
   2    -26.0513443 -0.928931E-05  0.827E-02   10.84       1.0  T
   3    -26.0513453 -0.948427E-06  0.132E-02   10.85       1.8  T
   4    -26.0513459 -0.666223E-06  0.489E-03   10.85       5.0  T
   5    -26.0513460 -0.695787E-07  0.169E-03   10.85      14.4  T
   6    -26.0513460 -0.309700E-08  0.289E-04   10.85      84.0  T
   7    -26.0513460 -0.175017E-09  0.126E-04   10.85     192.9  T
     SCC iter.                  ...        0 min,  0.095 sec
     gradient                   ...        0 min,  0.041 sec
 * total energy  :   -25.8370528 Eh     change       -0.2003280E-02 Eh
   gradient norm :     0.0219888 Eh/α   predicted    -0.1500505E-02 ( -25.10%)
   displ. norm   :     0.1185593 α      lambda       -0.1030516E-02
   maximum displ.:     0.0669734 α      in ANC's #7, #10, #4, ...

........................................................................
.............................. CYCLE    3 ..............................
........................................................................

 iter      E             dE          RMSdq      gap      omega  full diag
   1    -26.0539225 -0.260539E+02  0.911E-02   11.08       0.0  T
   2    -26.0539324 -0.989179E-05  0.532E-02   11.09       1.0  T
   3    -26.0539329 -0.583902E-06  0.142E-02   11.09       1.7  T
   4    -26.0539334 -0.421010E-06  0.361E-03   11.09       6.7  T
   5    -26.0539334 -0.529109E-07  0.104E-03   11.09      23.2  T
   6    -26.0539334 -0.830536E-09  0.537E-04   11.09      45.2  T
   7    -26.0539334 -0.210953E-09  0.930E-05   11.09     260.8  T
     SCC iter.                  ...        0 min,  0.093 sec
     gradient                   ...        0 min,  0.038 sec
 * total energy  :   -25.8376325 Eh     change       -0.5797143E-03 Eh
   gradient norm :     0.0052603 Eh/α   predicted    -0.5225012E-03 (  -9.87%)
   displ. norm   :     0.0461311 α      lambda       -0.8173470E-04
   maximum displ.:     0.0297638 α      in ANC's #7, #4, #3, ...

........................................................................
.............................. CYCLE    4 ..............................
........................................................................

 iter      E             dE          RMSdq      gap      omega  full diag
   1    -26.0535847 -0.260536E+02  0.258E-02   11.15       0.0  T
   2    -26.0535853 -0.665644E-06  0.150E-02   11.15       1.6  T
   3    -26.0535853 -0.220562E-07  0.382E-03   11.15       6.4  T
   4    -26.0535854 -0.344655E-07  0.837E-04   11.15      29.0  T
   5    -26.0535854 -0.302676E-08  0.236E-04   11.15     102.9  T
     SCC iter.                  ...        0 min,  0.057 sec
     gradient                   ...        0 min,  0.034 sec
 * total energy  :   -25.8376856 Eh     change       -0.5314438E-04 Eh
   gradient norm :     0.0014851 Eh/α   predicted    -0.4095398E-04 ( -22.94%)
   displ. norm   :     0.0511187 α      lambda       -0.2021578E-04
   maximum displ.:     0.0316819 α      in ANC's #4, #7, #3, ...

........................................................................
.............................. CYCLE    5 ..............................
........................................................................

 iter      E             dE          RMSdq      gap      omega  full diag
   1    -26.0530708 -0.260531E+02  0.250E-02   11.17       0.0  T
   2    -26.0530710 -0.166301E-06  0.149E-02   11.17       1.6  T
   3    -26.0530710 -0.344254E-08  0.174E-03   11.17      14.0  T
   4    -26.0530710 -0.175666E-07  0.462E-04   11.18      52.5  T
   5    -26.0530710 -0.387402E-09  0.209E-04   11.18     115.9  T
     SCC iter.                  ...        0 min,  0.058 sec
     gradient                   ...        0 min,  0.028 sec
 * total energy  :   -25.8376990 Eh     change       -0.1337565E-04 Eh
   gradient norm :     0.0014816 Eh/α   predicted    -0.1012007E-04 ( -24.34%)
   displ. norm   :     0.0192399 α      lambda       -0.5044495E-05
   maximum displ.:     0.0135510 α      in ANC's #4, #1, #10, ...

........................................................................
.............................. CYCLE    6 ..............................
........................................................................

 iter      E             dE          RMSdq      gap      omega  full diag
   1    -26.0532087 -0.260532E+02  0.877E-03   11.17       0.0  T
   2    -26.0532088 -0.341829E-07  0.529E-03   11.17       4.6  T
   3    -26.0532088 -0.305847E-08  0.772E-04   11.17      31.4  T
   4    -26.0532088 -0.188372E-08  0.237E-04   11.17     102.5  T
     SCC iter.                  ...        0 min,  0.037 sec
     gradient                   ...        0 min,  0.026 sec
 * total energy  :   -25.8377051 Eh     change       -0.6075343E-05 Eh
   gradient norm :     0.0006944 Eh/α   predicted    -0.2522956E-05 ( -58.47%)
   displ. norm   :     0.0525701 α      lambda       -0.6753290E-05
   maximum displ.:     0.0385394 α      in ANC's #4, #1, #10, ...

........................................................................
.............................. CYCLE    7 ..............................
........................................................................

 iter      E             dE          RMSdq      gap      omega  full diag
   1    -26.0534205 -0.260534E+02  0.206E-02   11.18       0.0  T
   2    -26.0534205 -0.590326E-07  0.126E-02   11.18       1.9  T
   3    -26.0534206 -0.202673E-07  0.990E-04   11.18      24.5  T
   4    -26.0534206 -0.238605E-08  0.447E-04   11.18      54.3  T
     SCC iter.                  ...        0 min,  0.045 sec
     gradient                   ...        0 min,  0.032 sec
 * total energy  :   -25.8377112 Eh     change       -0.6126623E-05 Eh
   gradient norm :     0.0003324 Eh/α   predicted    -0.3380285E-05 ( -44.83%)
   displ. norm   :     0.0264241 α      lambda       -0.1456136E-05
   maximum displ.:     0.0182018 α      in ANC's #1, #4, #3, ...

........................................................................
.............................. CYCLE    8 ..............................
........................................................................

 iter      E             dE          RMSdq      gap      omega  full diag
   1    -26.0534424 -0.260534E+02  0.110E-02   11.18       0.0  T
   2    -26.0534424 -0.103049E-07  0.668E-03   11.18       3.6  T
   3    -26.0534424 -0.559293E-08  0.433E-04   11.18      56.0  T
   4    -26.0534424 -0.239101E-09  0.197E-04   11.18     122.8  T
     SCC iter.                  ...        0 min,  0.046 sec
     gradient                   ...        0 min,  0.028 sec
 * total energy  :   -25.8377130 Eh     change       -0.1797755E-05 Eh
   gradient norm :     0.0004068 Eh/α   predicted    -0.7273160E-06 ( -59.54%)
   displ. norm   :     0.0328829 α      lambda       -0.1754459E-05
   maximum displ.:     0.0223648 α      in ANC's #1, #4, #3, ...

........................................................................
.............................. CYCLE    9 ..............................
........................................................................

 iter      E             dE          RMSdq      gap      omega  full diag
   1    -26.0534465 -0.260534E+02  0.130E-02   11.19       0.0  T
   2    -26.0534465 -0.188234E-07  0.788E-03   11.19       3.1  T
   3    -26.0534465 -0.830902E-08  0.549E-04   11.19      44.2  T
   4    -26.0534465 -0.536382E-09  0.295E-04   11.19      82.2  T
     SCC iter.                  ...        0 min,  0.037 sec
     gradient                   ...        0 min,  0.028 sec
 * total energy  :   -25.8377151 Eh     change       -0.2081173E-05 Eh
   gradient norm :     0.0002534 Eh/α   predicted    -0.8787564E-06 ( -57.78%)
   displ. norm   :     0.0254794 α      lambda       -0.9778316E-06
   maximum displ.:     0.0186990 α      in ANC's #1, #3, #4, ...

........................................................................
.............................. CYCLE   10 ..............................
........................................................................

 iter      E             dE          RMSdq      gap      omega  full diag
   1    -26.0534155 -0.260534E+02  0.976E-03   11.19       0.0  T
   2    -26.0534155 -0.114689E-07  0.589E-03   11.19       4.1  T
   3    -26.0534155 -0.491882E-08  0.446E-04   11.19      54.4  T
   4    -26.0534155 -0.490193E-09  0.241E-04   11.19     100.5  T
     SCC iter.                  ...        0 min,  0.036 sec
     gradient                   ...        0 min,  0.027 sec
 * total energy  :   -25.8377162 Eh     change       -0.1128220E-05 Eh
   gradient norm :     0.0001247 Eh/α   predicted    -0.4893644E-06 ( -56.63%)
   displ. norm   :     0.0167106 α      lambda       -0.4542078E-06
   maximum displ.:     0.0132465 α      in ANC's #1, #3, #4, ...

........................................................................
.............................. CYCLE   11 ..............................
........................................................................

 iter      E             dE          RMSdq      gap      omega  full diag
   1    -26.0534203 -0.260534E+02  0.630E-03   11.19       0.0  T
   2    -26.0534203 -0.378443E-08  0.380E-03   11.19       6.4  T
   3    -26.0534203 -0.189854E-08  0.259E-04   11.19      93.7  T
   4    -26.0534203 -0.921254E-10  0.121E-04   11.19     200.3  T
     SCC iter.                  ...        0 min,  0.031 sec
     gradient                   ...        0 min,  0.027 sec
 * total energy  :   -25.8377168 Eh     change       -0.5431450E-06 Eh
   gradient norm :     0.0000823 Eh/α   predicted    -0.2269263E-06 ( -58.22%)
   displ. norm   :     0.0107393 α      lambda       -0.2592508E-06
   maximum displ.:     0.0090589 α      in ANC's #1, #3, #4, ...

   *** GEOMETRY OPTIMIZATION CONVERGED AFTER 11 ITERATIONS ***

------------------------------------------------------------------------
 total energy gain   :        -0.0026673 Eh       -1.6737 kcal/mol
 total RMSD          :         0.1001200 a0        0.0530 Å
 total power (kW/mol):        -0.6366279 (step)   -5.6791 (real)
------------------------------------------------------------------------

 ANCopt (total)                0 d,  0 h,  0 min,  1.233 sec
 optimizer setup                ...        0 min,  0.001 sec (  0.048%)
 model hessian                  ...        0 min,  0.005 sec (  0.370%)
 ANC generation                 ...        0 min,  0.000 sec (  0.037%)
 coordinate transformation      ...        0 min,  0.000 sec (  0.007%)
 single point calculation       ...        0 min,  1.194 sec ( 96.842%)
 optimization log               ...        0 min,  0.001 sec (  0.083%)
 hessian update                 ...        0 min,  0.029 sec (  2.370%)
 rational function              ...        0 min,  0.002 sec (  0.133%)

================
 final structure:
================
17
 xtb: 6.7.1 (edcfbbe)
O            1.28486274008096       -0.05641496991852        2.65645126176711
C            1.26548146693205       -1.12988605012471        1.75509528259398
C            1.18627738059910       -0.65121803085948        0.30595718886900
O           -0.05194493490415        0.00666741653537        0.14289269897332
C           -0.24585482429024        0.53049919681827       -1.15348577928741
C           -1.63031621223578        1.17671813847783       -1.18612479688292
O           -2.64923595751760        0.23155462825638       -1.00274825289140
H            0.54167244195750        0.51822315493973        2.43512033929003
H            0.40962621196035       -1.78980459031395        1.95695323917696
H            2.19095812709194       -1.68705202021360        1.91218176548109
H            1.26140941910445       -1.50590602494373       -0.38192141215013
H            2.01164645116679        0.04434268168829        0.09469459294286
H            0.52793466967824        1.27621453749102       -1.38687777559312
H           -0.19130974539059       -0.27801227761625       -1.89712861739905
H           -1.67702861771386        1.95249954608545       -0.40849475814808
H           -1.80242146742561        1.63717195350054       -2.16079354631199
H           -2.43175714909458       -0.27559728980364       -0.21089721637921

 Bond Distances (Angstroems)
 ---------------------------
O1-C2=1.4018         O1-H8=0.9652         C2-O1=1.4018         C2-C3=1.5282         C2-H9=1.0994         C2-H10=1.0916        
C3-C2=1.5282         C3-O4=1.4116         C3-H11=1.0997        C3-H12=1.0999        O4-C3=1.4116         O4-C5=1.4116         
C5-O4=1.4116         C5-C6=1.5282         C5-H13=1.0997        C5-H14=1.0999        C6-C5=1.5282         C6-O7=1.4018         
C6-H15=1.0994        C6-H16=1.0916        O7-C6=1.4018         O7-H17=0.9652        H8-O1=0.9652         H9-C2=1.0994         
H10-C2=1.0916        H11-C3=1.0997        H12-C3=1.0999        H13-C5=1.0997        H14-C5=1.0999        H15-C6=1.0994        
H16-C6=1.0916        H17-O7=0.9652        
 C  H  Rav=1.0976 sigma=0.0035  Rmin=1.0916  Rmax=1.0999     8
 C  C  Rav=1.5282 sigma=0.0000  Rmin=1.5282  Rmax=1.5282     2
 O  H  Rav=0.9652 sigma=0.0000  Rmin=0.9652  Rmax=0.9652     2
 O  C  Rav=1.4067 sigma=0.0049  Rmin=1.4018  Rmax=1.4116     4

 selected bond angles (degree)
 --------------------
H8-O1-C2=107.33                C3-C2-O1=111.75                H9-C2-O1=110.63                H9-C2-C3=108.77                
H10-C2-O1=106.65               H10-C2-C3=109.89               H10-C2-H9=109.10               O4-C3-C2=107.52                
H11-C3-C2=110.25               H11-C3-O4=110.48               H12-C3-C2=109.96               H12-C3-O4=109.96               
H12-C3-H11=108.67              C5-O4-C3=113.55                C6-C5-O4=107.52                H13-C5-O4=110.48               
H13-C5-C6=110.25               H14-C5-O4=109.96               H14-C5-C6=109.96               H14-C5-H13=108.67              
O7-C6-C5=111.75                H15-C6-C5=108.77               H15-C6-O7=110.63               H16-C6-C5=109.89               
H16-C6-O7=106.65               H16-C6-H15=109.10              H17-O7-C6=107.33               

 selected dihedral angles (degree)
 ---------------------------------
C3-C2-O1-H8= 51.31            H9-C2-O1-H8=289.95            H10-C2-O1-H8=171.43           O4-C3-C2-O1=295.55            
O4-C3-C2-H9= 57.98            O4-C3-C2-H10=177.35           H11-C3-C2-O1=175.05           H11-C3-C2-H9=297.48           
H11-C3-C2-H10= 56.85          H12-C3-C2-O1= 55.25           H12-C3-C2-H9=177.68           H12-C3-C2-H10=297.05          
C5-O4-C3-C2=178.65            C5-O4-C3-H11=299.01           C5-O4-C3-H12= 58.95           C6-C5-O4-C3=178.65            
H13-C5-O4-C3=299.01           H14-C5-O4-C3= 58.95           O7-C6-C5-O4=295.55            O7-C6-C5-H13=175.05           
O7-C6-C5-H14= 55.25           H15-C6-C5-O4= 57.98           H15-C6-C5-H13=297.48          H15-C6-C5-H14=177.68          
H16-C6-C5-O4=177.35           H16-C6-C5-H13= 56.85          H16-C6-C5-H14=297.05          H17-O7-C6-C5= 51.31           
H17-O7-C6-H15=289.95          H17-O7-C6-H16=171.43          
           -------------------------------------------------
          |                Final Singlepoint                |
           -------------------------------------------------

          ...................................................
          :                      SETUP                      :
          :.................................................:
          :  # basis functions                  38          :
          :  # atomic orbitals                  38          :
          :  # shells                           24          :
          :  # electrons                        44          :
          :  max. iterations                   250          :
          :  Hamiltonian                  GFN2-xTB          :
          :  restarted?                      false          :
          :  GBSA solvation                  false          :
          :  PC potential                    false          :
          :  electronic temp.          300.0000000     K    :
          :  accuracy                    1.0000000          :
          :  -> integral cutoff          0.2500000E+02      :
          :  -> integral neglect         0.1000000E-07      :
          :  -> SCF convergence          0.1000000E-05 Eh   :
          :  -> wf. convergence          0.1000000E-03 e    :
          :  Broyden damping             0.4000000          :
          :  net charge                          0          :
          :  unpaired electrons                  0          :
          ...................................................

 iter      E             dE          RMSdq      gap      omega  full diag
   1    -26.0534203 -0.260534E+02  0.407E-05   11.19       0.0  T
   2    -26.0534203 -0.253308E-11  0.257E-05   11.19     942.0  T
   3    -26.0534203 -0.795808E-12  0.818E-06   11.19    2965.0  T

   *** convergence criteria satisfied after 3 iterations ***

         #    Occupation            Energy/Eh            Energy/eV
      -------------------------------------------------------------
         1        2.0000           -0.7189654             -19.5640
       ...           ...                  ...                  ...
        16        2.0000           -0.4930903             -13.4177
        17        2.0000           -0.4836726             -13.1614
        18        2.0000           -0.4640374             -12.6271
        19        2.0000           -0.4543220             -12.3627
        20        2.0000           -0.4197708             -11.4225
        21        2.0000           -0.4195864             -11.4175
        22        2.0000           -0.4183902             -11.3850 (HOMO)
        23                         -0.0071119              -0.1935 (LUMO)
        24                          0.0617638               1.6807
        25                          0.0678593               1.8465
        26                          0.0742861               2.0214
        27                          0.0867252               2.3599
       ...                                ...                  ...
        38                          0.2645094               7.1977
      -------------------------------------------------------------
                  HL-Gap            0.4112783 Eh           11.1915 eV
             Fermi-level           -0.2127510 Eh           -5.7892 eV

 SCC (total)                   0 d,  0 h,  0 min,  0.074 sec
 SCC setup                      ...        0 min,  0.002 sec (  2.149%)
 Dispersion                     ...        0 min,  0.006 sec (  7.975%)
 classical contributions        ...        0 min,  0.003 sec (  3.943%)
 integral evaluation            ...        0 min,  0.009 sec ( 11.883%)
 iterations                     ...        0 min,  0.027 sec ( 36.384%)
 molecular gradient             ...        0 min,  0.028 sec ( 37.489%)
 printout                       ...        0 min,  0.000 sec (  0.136%)

         :::::::::::::::::::::::::::::::::::::::::::::::::::::
         ::                     SUMMARY                     ::
         :::::::::::::::::::::::::::::::::::::::::::::::::::::
         :: total energy             -25.837716758879 Eh    ::
         :: gradient norm              0.000082504438 Eh/a0 ::
         :: HOMO-LUMO gap             11.191451484731 eV    ::
         ::.................................................::
         :: SCC energy               -26.053387792280 Eh    ::
         :: -> isotropic ES            0.064328764848 Eh    ::
         :: -> anisotropic ES          0.001836132819 Eh    ::
         :: -> anisotropic XC         -0.001604021093 Eh    ::
         :: -> dispersion             -0.008709291166 Eh    ::
         :: repulsion energy           0.215671033401 Eh    ::
         :: add. restraining           0.000000000000 Eh    ::
         :: total charge              -0.000000000000 e     ::
         :::::::::::::::::::::::::::::::::::::::::::::::::::::

           -------------------------------------------------
          |                Property Printout                |
           -------------------------------------------------

    * Orbital Energies and Occupations

         #    Occupation            Energy/Eh            Energy/eV
      -------------------------------------------------------------
         1        2.0000           -0.7189654             -19.5640
       ...           ...                  ...                  ...
        10        2.0000           -0.5708247             -15.5329
        11        2.0000           -0.5541158             -15.0783
        12        2.0000           -0.5477191             -14.9042
        13        2.0000           -0.5346499             -14.5486
        14        2.0000           -0.5156946             -14.0328
        15        2.0000           -0.5127619             -13.9530
        16        2.0000           -0.4930903             -13.4177
        17        2.0000           -0.4836726             -13.1614
        18        2.0000           -0.4640374             -12.6271
        19        2.0000           -0.4543220             -12.3627
        20        2.0000           -0.4197708             -11.4225
        21        2.0000           -0.4195864             -11.4175
        22        2.0000           -0.4183902             -11.3850 (HOMO)
        23                         -0.0071119              -0.1935 (LUMO)
        24                          0.0617638               1.6807
        25                          0.0678593               1.8465
        26                          0.0742861               2.0214
        27                          0.0867252               2.3599
        28                          0.1304180               3.5489
        29                          0.1373470               3.7374
        30                          0.1381505               3.7593
        31                          0.1449572               3.9445
        32                          0.1577724               4.2932
        33                          0.1715162               4.6672
       ...                                ...                  ...
        38                          0.2645094               7.1977
      -------------------------------------------------------------
                  HL-Gap            0.4112783 Eh           11.1915 eV
             Fermi-level           -0.2127510 Eh           -5.7892 eV

     #   Z          covCN         q      C6AA      α(0)
     1   8 O        1.656    -0.433    21.503     6.260
     2   6 C        3.674     0.076    19.537     6.334
     3   6 C        3.698     0.073    19.520     6.319
     4   8 O        1.702    -0.328    19.492     5.961
     5   6 C        3.698     0.073    19.520     6.319
     6   6 C        3.674     0.076    19.537     6.334
     7   8 O        1.656    -0.433    21.503     6.260
     8   1 H        0.805     0.303     0.712     1.325
     9   1 H        0.923     0.035     2.514     2.480
    10   1 H        0.924     0.054     2.270     2.356
    11   1 H        0.923     0.023     2.688     2.564
    12   1 H        0.923     0.033     2.540     2.492
    13   1 H        0.923     0.023     2.688     2.564
    14   1 H        0.923     0.033     2.540     2.492
    15   1 H        0.923     0.035     2.514     2.480
    16   1 H        0.924     0.054     2.270     2.356
    17   1 H        0.805     0.303     0.712     1.325

 Mol. C6AA /au·bohr⁶  :       2077.096391
 Mol. C8AA /au·bohr⁸  :      42397.969439
 Mol. α(0) /au        :         66.220943


Wiberg/Mayer (AO) data.
largest (>0.10) Wiberg bond orders for each atom

 ---------------------------------------------------------------------------
     #   Z sym  total        # sym  WBO       # sym  WBO       # sym  WBO
 ---------------------------------------------------------------------------
     1   8 O    1.964 --     2 C    1.012     8 H    0.892
     2   6 C    3.964 --     1 O    1.012     3 C    0.992    10 H    0.971
                             9 H    0.967
     3   6 C    3.953 --     2 C    0.992     4 O    0.979    11 H    0.967
                            12 H    0.967
     4   8 O    2.065 --     3 C    0.979     5 C    0.979
     5   6 C    3.953 --     6 C    0.992     4 O    0.979    13 H    0.967
                            14 H    0.967
     6   6 C    3.964 --     7 O    1.012     5 C    0.992    16 H    0.971
                            15 H    0.967
     7   8 O    1.964 --     6 C    1.012    17 H    0.892
     8   1 H    0.908 --     1 O    0.892
     9   1 H    0.999 --     2 C    0.967
    10   1 H    0.997 --     2 C    0.971
    11   1 H    0.999 --     3 C    0.967
    12   1 H    0.999 --     3 C    0.967
    13   1 H    0.999 --     5 C    0.967
    14   1 H    0.999 --     5 C    0.967
    15   1 H    0.999 --     6 C    0.967
    16   1 H    0.997 --     6 C    0.971
    17   1 H    0.908 --     7 O    0.892
 ---------------------------------------------------------------------------

Topologies differ in total number of bonds
Writing topology from bond orders to xtbtopo.mol

molecular dipole:
                 x           y           z       tot (Debye)
 q only:        0.292      -0.037      -0.317
   full:        0.440      -0.056      -0.477       1.656
molecular quadrupole (traceless):
                xx          xy          yy          xz          yz          zz
 q only:       -3.459      -1.382       5.632      -6.587      -1.482      -2.173
  q+dip:       -5.006      -0.812       8.307     -10.397      -0.976      -3.301
   full:       -4.968      -1.144       8.192     -10.155      -1.290      -3.224

           -------------------------------------------------
          |                Geometry Summary                 |
           -------------------------------------------------

      molecular mass/u    :      106.1205659
   center of mass at/Å    :       -0.1404027       0.0180228       0.2388909
  moments of inertia/u·Å² :        0.8566784E+02   0.4508645E+03   0.4745679E+03
rotational constants/cm⁻¹ :        0.1967790E+00   0.3738958E-01   0.3552207E-01

 * 16 selected distances

     #   Z          #   Z                                           value/Å
     1   8 O        2   6 C                                       1.4018412
     2   6 C        3   6 C                                       1.5282009 (max)
     3   6 C        4   8 O                                       1.4115942
     4   8 O        5   6 C                                       1.4115942
     5   6 C        6   6 C                                       1.5282009
     6   6 C        7   8 O                                       1.4018412
     1   8 O        8   1 H                                       0.9651572
     2   6 C        9   1 H                                       1.0994215
     2   6 C       10   1 H                                       1.0916123
     3   6 C       11   1 H                                       1.0996879
     3   6 C       12   1 H                                       1.0998504
     5   6 C       13   1 H                                       1.0996880
     5   6 C       14   1 H                                       1.0998504
     6   6 C       15   1 H                                       1.0994215
     6   6 C       16   1 H                                       1.0916123
     7   8 O       17   1 H                                       0.9651572 (min)

 * 4 distinct bonds (by element types)

   Z      Z             #   av. dist./Å        max./Å        min./Å
   1 H    6 C           8     1.0976430     1.0998504     1.0916123
   6 C    6 C           2     1.5282009     1.5282009     1.5282009
   1 H    8 O           2     0.9651572     0.9651572     0.9651572
   6 C    8 O           4     1.4067177     1.4115942     1.4018412


optimized geometry written to: xtbopt.xyz


           -------------------------------------------------
          | TOTAL ENERGY              -25.837716758879 Eh   |
          | GRADIENT NORM               0.000082504438 Eh/α |
          | HOMO-LUMO GAP              11.191451484731 eV   |
           -------------------------------------------------

------------------------------------------------------------------------
 * finished run on 2026/07/08 at 18:22:27.757     
------------------------------------------------------------------------
 total:
 * wall-time:     0 d,  0 h,  0 min,  1.546 sec
 *  cpu-time:     0 d,  0 h,  0 min, 24.666 sec
 * ratio c/w:    15.952 speedup
 SCF:
 * wall-time:     0 d,  0 h,  0 min,  0.182 sec
 *  cpu-time:     0 d,  0 h,  0 min,  2.925 sec
 * ratio c/w:    16.033 speedup
 ANC optimizer:
 * wall-time:     0 d,  0 h,  0 min,  1.313 sec
 *  cpu-time:     0 d,  0 h,  0 min, 20.968 sec
 * ratio c/w:    15.972 speedup

