      -----------------------------------------------------------      
     |                   =====================                   |     
     |                           x T B                           |     
     |                   =====================                   |     
     |                         S. Grimme                         |     
     |          Mulliken Center for Theoretical Chemistry        |     
     |                    University of Bonn                     |     
      -----------------------------------------------------------      

   * xtb version 6.7.1 (edcfbbe) compiled by 'conda@5dfe00f5fb80' on 2026-06-10

   xtb is free software: you can redistribute it and/or modify it under
   the terms of the GNU Lesser General Public License as published by
   the Free Software Foundation, either version 3 of the License, or
   (at your option) any later version.
   
   xtb is distributed in the hope that it will be useful,
   but WITHOUT ANY WARRANTY; without even the implied warranty of
   MERCHANTABILITY or FITNESS FOR A PARTICULAR PURPOSE.  See the
   GNU Lesser General Public License for more details.
   
   Cite this work as:
   * C. Bannwarth, E. Caldeweyher, S. Ehlert, A. Hansen, P. Pracht,
     J. Seibert, S. Spicher, S. Grimme, WIREs Comput. Mol. Sci., 2020, 11,
     e01493. DOI: 10.1002/wcms.1493
   
   for GFN2-xTB:
   * C. Bannwarth, S. Ehlert and S. Grimme., J. Chem. Theory Comput., 2019,
     15, 1652-1671. DOI: 10.1021/acs.jctc.8b01176
   for GFN1-xTB:
   * S. Grimme, C. Bannwarth, P. Shushkov, J. Chem. Theory Comput., 2017,
     13, 1989-2009. DOI: 10.1021/acs.jctc.7b00118
   for GFN0-xTB:
   * P. Pracht, E. Caldeweyher, S. Ehlert, S. Grimme, ChemRxiv, 2019, preprint.
     DOI: 10.26434/chemrxiv.8326202.v1
   for GFN-FF:
   * S. Spicher and S. Grimme, Angew. Chem. Int. Ed., 2020, 59, 15665-15673.
     DOI: 10.1002/anie.202004239
   
   for ALPB and GBSA implicit solvation:
   * S. Ehlert, M. Stahn, S. Spicher, S. Grimme, J. Chem. Theory Comput.,
     2021, 17, 4250-4261. DOI: 10.1021/acs.jctc.1c00471
   
   for ddCOSMO and CPCM-X implicit solvation:
   * M. Stahn, S. Ehlert, S. Grimme, J. Phys. Chem. A,
     2023, XX, XXXX-XXXX. DOI: 10.1021/acs.jpca.3c04382
   
   for DFT-D4:
   * E. Caldeweyher, C. Bannwarth and S. Grimme, J. Chem. Phys., 2017,
     147, 034112. DOI: 10.1063/1.4993215
   * E. Caldeweyher, S. Ehlert, A. Hansen, H. Neugebauer, S. Spicher,
     C. Bannwarth and S. Grimme, J. Chem. Phys., 2019, 150, 154122.
     DOI: 10.1063/1.5090222
   * E. Caldeweyher, J.-M. Mewes, S. Ehlert and S. Grimme, Phys. Chem. Chem. Phys.
     2020, 22, 8499-8512. DOI: 10.1039/D0CP00502A
   
   for sTDA-xTB:
   * S. Grimme and C. Bannwarth, J. Chem. Phys., 2016, 145, 054103.
     DOI: 10.1063/1.4959605
   
   in the mass-spec context:
   * V. Asgeirsson, C. Bauer and S. Grimme, Chem. Sci., 2017, 8, 4879.
     DOI: 10.1039/c7sc00601b
   * J. Koopman and S. Grimme, ACS Omega 2019, 4, 12, 15120-15133.
     DOI: 10.1021/acsomega.9b02011
   
   for metadynamics refer to:
   * S. Grimme, J. Chem. Theory Comput., 2019, 155, 2847-2862
     DOI: 10.1021/acs.jctc.9b00143
   
   for SPH calculations refer to:
   * S. Spicher and S. Grimme, J. Chem. Theory Comput., 2021, 17, 1701-1714
     DOI: 10.1021/acs.jctc.0c01306
   
   for ONIOM refer to:
   * C. Plett, A. Katbashev, S. Ehlert, S. Grimme, M. Bursch,
     Phys. Chem. Chem. Phys., 2023, 25, 17860-17868. DOI: 10.1039/D3CP02178E
   
   for DIPRO refer to:
   * J. Kohn, N. Gildemeister, S. Grimme, D. Fazzi, A. Hansen,
     J. Chem. Phys., 2023, just accepted.
   
   for PTB refer to:
   * S. Grimme, M. Mueller, A. Hansen, J. Chem. Phys., 2023, 158, 124111.
     DOI: 10.1063/5.0137838
   
   with help from (in alphabetical order)
   P. Atkinson, C. Bannwarth, F. Bohle, G. Brandenburg, E. Caldeweyher
   M. Checinski, S. Dohm, S. Ehlert, S. Ehrlich, I. Gerasimov, C. Hölzer
   A. Katbashev, J. Kohn, J. Koopman, C. Lavigne, S. Lehtola, F. März, M. Müller,
   F. Musil, H. Neugebauer, J. Pisarek, C. Plett, P. Pracht, F. Pultar,
   J. Seibert, P. Shushkov, S. Spicher, M. Stahn, M. Steiner, T. Strunk,
   J. Stückrath, T. Rose, and J. Unsleber
   
 * started run on 2026/07/07 at 07:10:31.884     
   ID    Z sym.   atoms
    1    6 C      1-5, 7, 8, 10
    2    8 O      6, 9, 11
    3    1 H      12-29

           -------------------------------------------------
          |                Calculation Setup                |
           -------------------------------------------------

          program call               : /home/ws/xd2484/miniforge3/envs/p3z_dft/bin/xtb xtb_input.xyz --gfn 2 --opt tight --cycles 500 --chrg 0 --uhf 0
          hostname                   : gpu10
          coordinate file            : xtb_input.xyz
          omp threads                :                    16


           -------------------------------------------------
          |                 G F N 2 - x T B                 |
           -------------------------------------------------

        Reference                      10.1021/acs.jctc.8b01176
      * Hamiltonian:
        H0-scaling (s, p, d)           1.850000    2.230000    2.230000
        zeta-weighting                 0.500000
      * Dispersion:
        s8                             2.700000
        a1                             0.520000
        a2                             5.000000
        s9                             5.000000
      * Repulsion:
        kExp                           1.500000    1.000000
        rExp                           1.000000
      * Coulomb:
        alpha                          2.000000
        third order                    shell-resolved
        anisotropic                    true
        a3                             3.000000
        a5                             4.000000
        cn-shift                       1.200000
        cn-exp                         4.000000
        max-rad                        5.000000


          ...................................................
          :                      SETUP                      :
          :.................................................:
          :  # basis functions                  62          :
          :  # atomic orbitals                  62          :
          :  # shells                           40          :
          :  # electrons                        68          :
          :  max. iterations                   250          :
          :  Hamiltonian                  GFN2-xTB          :
          :  restarted?                      false          :
          :  GBSA solvation                  false          :
          :  PC potential                    false          :
          :  electronic temp.          300.0000000     K    :
          :  accuracy                    1.0000000          :
          :  -> integral cutoff          0.2500000E+02      :
          :  -> integral neglect         0.1000000E-07      :
          :  -> SCF convergence          0.1000000E-05 Eh   :
          :  -> wf. convergence          0.1000000E-03 e    :
          :  Broyden damping             0.4000000          :
          :  net charge                          0          :
          :  unpaired electrons                  0          :
          ...................................................

 iter      E             dE          RMSdq      gap      omega  full diag
   1    -38.8178602 -0.388179E+02  0.372E+00   10.66       0.0  T
   2    -38.8874182 -0.695580E-01  0.198E+00   10.24       1.0  T
   3    -38.8886811 -0.126286E-02  0.803E-01   10.36       1.0  T
   4    -38.8891628 -0.481748E-03  0.127E-01   10.37       1.0  T
   5    -38.8892420 -0.792071E-04  0.709E-02   10.39       1.0  T
   6    -38.8892452 -0.320257E-05  0.151E-02   10.39       1.2  T
   7    -38.8892465 -0.131606E-05  0.506E-03   10.39       3.7  T
   8    -38.8892466 -0.532002E-07  0.179E-03   10.39      10.4  T
   9    -38.8892466 -0.310060E-08  0.435E-04   10.39      42.7  T
  10    -38.8892466 -0.125259E-08  0.143E-04   10.39     130.1  T

   *** convergence criteria satisfied after 10 iterations ***

         #    Occupation            Energy/Eh            Energy/eV
      -------------------------------------------------------------
         1        2.0000           -0.7028069             -19.1243
       ...           ...                  ...                  ...
        28        2.0000           -0.4480247             -12.1914
        29        2.0000           -0.4434489             -12.0669
        30        2.0000           -0.4365094             -11.8780
        31        2.0000           -0.4301492             -11.7050
        32        2.0000           -0.4197213             -11.4212
        33        2.0000           -0.4123932             -11.2218
        34        2.0000           -0.4034232             -10.9777 (HOMO)
        35                         -0.0214342              -0.5833 (LUMO)
        36                          0.0088219               0.2401
        37                          0.0462165               1.2576
        38                          0.0584704               1.5911
        39                          0.0785945               2.1387
       ...                                ...                  ...
        62                          0.2921780               7.9506
      -------------------------------------------------------------
                  HL-Gap            0.3819889 Eh           10.3944 eV
             Fermi-level           -0.2124287 Eh           -5.7805 eV

 SCC (total)                   0 d,  0 h,  0 min,  0.178 sec
 SCC setup                      ...        0 min,  0.004 sec (  2.392%)
 Dispersion                     ...        0 min,  0.008 sec (  4.484%)
 classical contributions        ...        0 min,  0.003 sec (  1.658%)
 integral evaluation            ...        0 min,  0.013 sec (  7.552%)
 iterations                     ...        0 min,  0.127 sec ( 71.366%)
 molecular gradient             ...        0 min,  0.022 sec ( 12.422%)
 printout                       ...        0 min,  0.000 sec (  0.108%)

         :::::::::::::::::::::::::::::::::::::::::::::::::::::
         ::                     SUMMARY                     ::
         :::::::::::::::::::::::::::::::::::::::::::::::::::::
         :: total energy             -38.498681818160 Eh    ::
         :: gradient norm              0.043276864150 Eh/a0 ::
         :: HOMO-LUMO gap             10.394448041221 eV    ::
         ::.................................................::
         :: SCC energy               -38.889206256720 Eh    ::
         :: -> isotropic ES            0.070376116753 Eh    ::
         :: -> anisotropic ES          0.004076172499 Eh    ::
         :: -> anisotropic XC          0.007077084682 Eh    ::
         :: -> dispersion             -0.018924688036 Eh    ::
         :: repulsion energy           0.390524438560 Eh    ::
         :: add. restraining           0.000000000000 Eh    ::
         :: total charge               0.000000000000 e     ::
         :::::::::::::::::::::::::::::::::::::::::::::::::::::

      ----------------------------------------------------------- 
     |                   =====================                   |
     |                        A N C O P T                        |
     |                   =====================                   |
     |               Approximate Normal Coordinate               |
     |                Rational Function Optimizer                |
      ----------------------------------------------------------- 
      ----------------------------------------------------------- 
     |                   =====================                   |
     |                        A N C O P T                        |
     |                   =====================                   |
     |               Approximate Normal Coordinate               |
     |                Rational Function Optimizer                |
      ----------------------------------------------------------- 

          ...................................................
          :                      SETUP                      :
          :.................................................:
          :   optimization level             tight          :
          :   max. optcycles                   500          :
          :   ANC micro-cycles                  20          :
          :   degrees of freedom                81          :
          :.................................................:
          :   RF solver                   davidson          :
          :   write xtbopt.log                true          :
          :   linear?                        false          :
          :   energy convergence         0.1000000E-05 Eh   :
          :   grad. convergence          0.8000000E-03 Eh/α :
          :   maxmium RF displ.          1.0000000          :
          :   Hlow (freq-cutoff)         0.1000000E-01      :
          :   Hmax (freq-cutoff)         5.0000000          :
          :   S6 in model hess.         20.0000000          :
          ...................................................

generating ANC from exact Hessian ...
Using Lindh-Hessian (1995)
 Shifting diagonal of input Hessian by    9.3046427101628366E-003
 Lowest  eigenvalues of input Hessian
    0.000000    0.000000    0.000000    0.000000    0.000000    0.000000
    0.010000    0.010046    0.010188    0.012540    0.012734    0.013784
    0.015462    0.016242    0.017912    0.018361    0.020322    0.021024
 Highest eigenvalues
    1.252928    1.269953    1.287770    1.387490    1.406621    1.478292


........................................................................
.............................. CYCLE    1 ..............................
........................................................................

 iter      E             dE          RMSdq      gap      omega  full diag
   1    -38.8892466 -0.388892E+02  0.468E-05   10.39       0.0  T
   2    -38.8892466 -0.469669E-11  0.308E-05   10.39     603.3  T
   3    -38.8892466 -0.163425E-11  0.983E-06   10.39    1888.8  T
     SCC iter.                  ...        0 min,  0.024 sec
     gradient                   ...        0 min,  0.025 sec
 * total energy  :   -38.4986818 Eh     change       -0.6642864E-10 Eh
   gradient norm :     0.0432773 Eh/α   predicted     0.0000000E+00 (-100.00%)
   displ. norm   :     0.1852641 α      lambda       -0.3996112E-02
   maximum displ.:     0.0738038 α      in ANC's #20, #14, #32, ...

........................................................................
.............................. CYCLE    2 ..............................
........................................................................

 iter      E             dE          RMSdq      gap      omega  full diag
   1    -38.9021289 -0.389021E+02  0.143E-01   10.60       0.0  T
   2    -38.9021412 -0.122841E-04  0.840E-02   10.60       1.0  T
   3    -38.9021423 -0.111679E-05  0.101E-02   10.61       1.8  T
   4    -38.9021428 -0.485636E-06  0.346E-03   10.60       5.4  T
   5    -38.9021429 -0.503948E-07  0.129E-03   10.60      14.4  T
   6    -38.9021429 -0.282698E-08  0.490E-04   10.60      37.9  T
   7    -38.9021429 -0.585693E-09  0.123E-04   10.60     150.7  T
     SCC iter.                  ...        0 min,  0.127 sec
     gradient                   ...        0 min,  0.035 sec
 * total energy  :   -38.5013488 Eh     change       -0.2666934E-02 Eh
   gradient norm :     0.0225639 Eh/α   predicted    -0.2066640E-02 ( -22.51%)
   displ. norm   :     0.1265694 α      lambda       -0.1123204E-02
   maximum displ.:     0.0548049 α      in ANC's #14, #5, #20, ...

........................................................................
.............................. CYCLE    3 ..............................
........................................................................

 iter      E             dE          RMSdq      gap      omega  full diag
   1    -38.9081579 -0.389082E+02  0.830E-02   10.79       0.0  T
   2    -38.9081654 -0.749615E-05  0.494E-02   10.79       1.0  T
   3    -38.9081659 -0.512534E-06  0.812E-03   10.79       2.3  T
   4    -38.9081661 -0.248974E-06  0.213E-03   10.79       8.7  T
   5    -38.9081662 -0.327581E-07  0.709E-04   10.79      26.2  T
   6    -38.9081662 -0.920267E-09  0.346E-04   10.79      53.7  T
     SCC iter.                  ...        0 min,  0.095 sec
     gradient                   ...        0 min,  0.049 sec
 * total energy  :   -38.5019802 Eh     change       -0.6314952E-03 Eh
   gradient norm :     0.0063212 Eh/α   predicted    -0.5707033E-03 (  -9.63%)
   displ. norm   :     0.0586924 α      lambda       -0.1038967E-03
   maximum displ.:     0.0430456 α      in ANC's #5, #6, #1, ...

........................................................................
.............................. CYCLE    4 ..............................
........................................................................

 iter      E             dE          RMSdq      gap      omega  full diag
   1    -38.9079002 -0.389079E+02  0.202E-02   10.83       0.0  T
   2    -38.9079007 -0.532372E-06  0.120E-02   10.83       1.5  T
   3    -38.9079007 -0.338449E-07  0.238E-03   10.83       7.8  T
   4    -38.9079008 -0.231324E-07  0.601E-04   10.83      30.9  T
   5    -38.9079008 -0.297482E-08  0.198E-04   10.83      93.8  T
     SCC iter.                  ...        0 min,  0.072 sec
     gradient                   ...        0 min,  0.041 sec
 * total energy  :   -38.5020539 Eh     change       -0.7361192E-04 Eh
   gradient norm :     0.0021275 Eh/α   predicted    -0.5213119E-04 ( -29.18%)
   displ. norm   :     0.0875230 α      lambda       -0.6372076E-04
   maximum displ.:     0.0703497 α      in ANC's #5, #6, #1, ...

........................................................................
.............................. CYCLE    5 ..............................
........................................................................

 iter      E             dE          RMSdq      gap      omega  full diag
   1    -38.9070187 -0.389070E+02  0.222E-02   10.85       0.0  T
   2    -38.9070189 -0.206235E-06  0.132E-02   10.85       1.4  T
   3    -38.9070189 -0.296023E-07  0.138E-03   10.85      13.5  T
   4    -38.9070189 -0.122340E-07  0.547E-04   10.85      34.0  T
   5    -38.9070189 -0.132992E-08  0.235E-04   10.85      79.0  T
     SCC iter.                  ...        0 min,  0.096 sec
     gradient                   ...        0 min,  0.063 sec
 * total energy  :   -38.5020977 Eh     change       -0.4379440E-04 Eh
   gradient norm :     0.0021376 Eh/α   predicted    -0.3212300E-04 ( -26.65%)
   displ. norm   :     0.0800779 α      lambda       -0.3358373E-04
   maximum displ.:     0.0627009 α      in ANC's #5, #1, #6, ...

........................................................................
.............................. CYCLE    6 ..............................
........................................................................

 iter      E             dE          RMSdq      gap      omega  full diag
   1    -38.9065398 -0.389065E+02  0.187E-02   10.84       0.0  T
   2    -38.9065399 -0.521579E-07  0.113E-02   10.84       1.6  T
   3    -38.9065399 -0.207325E-07  0.741E-04   10.84      25.1  T
   4    -38.9065399 -0.211511E-08  0.416E-04   10.84      44.7  T
     SCC iter.                  ...        0 min,  0.073 sec
     gradient                   ...        0 min,  0.048 sec
 * total energy  :   -38.5021268 Eh     change       -0.2916830E-04 Eh
   gradient norm :     0.0027009 Eh/α   predicted    -0.1692473E-04 ( -41.98%)
   displ. norm   :     0.1045316 α      lambda       -0.4416169E-04
   maximum displ.:     0.0749942 α      in ANC's #5, #1, #2, ...

........................................................................
.............................. CYCLE    7 ..............................
........................................................................

 iter      E             dE          RMSdq      gap      omega  full diag
   1    -38.9063389 -0.389063E+02  0.262E-02   10.83       0.0  T
   2    -38.9063390 -0.135364E-06  0.158E-02   10.83       1.2  T
   3    -38.9063391 -0.420759E-07  0.109E-03   10.83      17.0  T
   4    -38.9063391 -0.488682E-08  0.593E-04   10.83      31.3  T
   5    -38.9063391 -0.540155E-09  0.188E-04   10.83      98.9  T
     SCC iter.                  ...        0 min,  0.094 sec
     gradient                   ...        0 min,  0.054 sec
 * total energy  :   -38.5021657 Eh     change       -0.3888840E-04 Eh
   gradient norm :     0.0020845 Eh/α   predicted    -0.2232256E-04 ( -42.60%)
   displ. norm   :     0.1670999 α      lambda       -0.5955281E-04
   maximum displ.:     0.1153025 α      in ANC's #5, #1, #2, ...

........................................................................
.............................. CYCLE    8 ..............................
........................................................................

 iter      E             dE          RMSdq      gap      omega  full diag
   1    -38.9063333 -0.389063E+02  0.427E-02   10.81       0.0  T
   2    -38.9063336 -0.332030E-06  0.257E-02   10.81       1.0  T
   3    -38.9063337 -0.109146E-06  0.171E-03   10.81      10.9  T
   4    -38.9063338 -0.110409E-07  0.936E-04   10.81      19.8  T
   5    -38.9063338 -0.132292E-08  0.270E-04   10.81      68.7  T
     SCC iter.                  ...        0 min,  0.080 sec
     gradient                   ...        0 min,  0.043 sec
 * total energy  :   -38.5022134 Eh     change       -0.4767597E-04 Eh
   gradient norm :     0.0013356 Eh/α   predicted    -0.3061232E-04 ( -35.79%)
   displ. norm   :     0.2687766 α      lambda       -0.4402132E-04
   maximum displ.:     0.1823898 α      in ANC's #5, #1, #2, ...

........................................................................
.............................. CYCLE    9 ..............................
........................................................................

 iter      E             dE          RMSdq      gap      omega  full diag
   1    -38.9062611 -0.389063E+02  0.668E-02   10.78       0.0  T
   2    -38.9062618 -0.712145E-06  0.402E-02   10.78       1.0  T
   3    -38.9062621 -0.273412E-06  0.260E-03   10.78       7.1  T
   4    -38.9062621 -0.231693E-07  0.146E-03   10.78      12.7  T
   5    -38.9062621 -0.336728E-08  0.390E-04   10.78      47.6  T
   6    -38.9062621 -0.605169E-09  0.150E-04   10.78     124.1  T
     SCC iter.                  ...        0 min,  0.083 sec
     gradient                   ...        0 min,  0.042 sec
 * total energy  :   -38.5022546 Eh     change       -0.4117382E-04 Eh
   gradient norm :     0.0021209 Eh/α   predicted    -0.2271904E-04 ( -44.82%)
   displ. norm   :     0.0828715 α      lambda       -0.1835943E-04
   maximum displ.:     0.0527758 α      in ANC's #5, #1, #2, ...

........................................................................
.............................. CYCLE   10 ..............................
........................................................................

 iter      E             dE          RMSdq      gap      omega  full diag
   1    -38.9067754 -0.389068E+02  0.192E-02   10.78       0.0  T
   2    -38.9067755 -0.651177E-07  0.115E-02   10.78       1.6  T
   3    -38.9067755 -0.258261E-07  0.828E-04   10.78      22.4  T
   4    -38.9067755 -0.298925E-08  0.472E-04   10.78      39.3  T
     SCC iter.                  ...        0 min,  0.058 sec
     gradient                   ...        0 min,  0.043 sec
 * total energy  :   -38.5022701 Eh     change       -0.1549626E-04 Eh
   gradient norm :     0.0014582 Eh/α   predicted    -0.9244353E-05 ( -40.34%)
   displ. norm   :     0.2470163 α      lambda       -0.3133041E-04
   maximum displ.:     0.1449662 α      in ANC's #5, #1, #2, ...

........................................................................
.............................. CYCLE   11 ..............................
........................................................................

 iter      E             dE          RMSdq      gap      omega  full diag
   1    -38.9071670 -0.389072E+02  0.554E-02   10.78       0.0  T
   2    -38.9071674 -0.466952E-06  0.334E-02   10.78       1.0  T
   3    -38.9071677 -0.235644E-06  0.230E-03   10.78       8.1  T
   4    -38.9071677 -0.159759E-07  0.131E-03   10.78      14.1  T
   5    -38.9071677 -0.385007E-08  0.347E-04   10.78      53.5  T
   6    -38.9071677 -0.383160E-09  0.132E-04   10.78     141.1  T
     SCC iter.                  ...        0 min,  0.094 sec
     gradient                   ...        0 min,  0.041 sec
 * total energy  :   -38.5022998 Eh     change       -0.2969458E-04 Eh
   gradient norm :     0.0008622 Eh/α   predicted    -0.1609153E-04 ( -45.81%)
   displ. norm   :     0.1068768 α      lambda       -0.1030160E-04
   maximum displ.:     0.0684285 α      in ANC's #1, #2, #5, ...

........................................................................
.............................. CYCLE   12 ..............................
........................................................................

 iter      E             dE          RMSdq      gap      omega  full diag
   1    -38.9071124 -0.389071E+02  0.243E-02   10.78       0.0  T
   2    -38.9071125 -0.967274E-07  0.147E-02   10.78       1.3  T
   3    -38.9071125 -0.504984E-07  0.103E-03   10.78      18.0  T
   4    -38.9071125 -0.229620E-08  0.561E-04   10.78      33.1  T
   5    -38.9071125 -0.634586E-09  0.158E-04   10.78     117.9  T
     SCC iter.                  ...        0 min,  0.070 sec
     gradient                   ...        0 min,  0.029 sec
 * total energy  :   -38.5023121 Eh     change       -0.1234896E-04 Eh
   gradient norm :     0.0006968 Eh/α   predicted    -0.5182155E-05 ( -58.04%)
   displ. norm   :     0.0981492 α      lambda       -0.1174951E-04
   maximum displ.:     0.0615901 α      in ANC's #1, #2, #4, ...

........................................................................
.............................. CYCLE   13 ..............................
........................................................................

 iter      E             dE          RMSdq      gap      omega  full diag
   1    -38.9072854 -0.389073E+02  0.240E-02   10.79       0.0  T
   2    -38.9072855 -0.777663E-07  0.145E-02   10.79       1.3  T
   3    -38.9072856 -0.347100E-07  0.891E-04   10.79      20.8  T
   4    -38.9072856 -0.277814E-08  0.494E-04   10.79      37.6  T
     SCC iter.                  ...        0 min,  0.052 sec
     gradient                   ...        0 min,  0.036 sec
 * total energy  :   -38.5023253 Eh     change       -0.1323025E-04 Eh
   gradient norm :     0.0008065 Eh/α   predicted    -0.5902507E-05 ( -55.39%)
   displ. norm   :     0.1051979 α      lambda       -0.9212753E-05
   maximum displ.:     0.0671406 α      in ANC's #1, #2, #4, ...

........................................................................
.............................. CYCLE   14 ..............................
........................................................................

 iter      E             dE          RMSdq      gap      omega  full diag
   1    -38.9067967 -0.389068E+02  0.261E-02   10.79       0.0  T
   2    -38.9067968 -0.830958E-07  0.157E-02   10.79       1.2  T
   3    -38.9067968 -0.364511E-07  0.918E-04   10.79      20.2  T
   4    -38.9067968 -0.240535E-08  0.516E-04   10.79      36.0  T
     SCC iter.                  ...        0 min,  0.050 sec
     gradient                   ...        0 min,  0.035 sec
 * total energy  :   -38.5023351 Eh     change       -0.9727002E-05 Eh
   gradient norm :     0.0006215 Eh/α   predicted    -0.4633345E-05 ( -52.37%)
   displ. norm   :     0.0691864 α      lambda       -0.5412131E-05
   maximum displ.:     0.0437129 α      in ANC's #1, #2, #4, ...

........................................................................
.............................. CYCLE   15 ..............................
........................................................................

 iter      E             dE          RMSdq      gap      omega  full diag
   1    -38.9070378 -0.389070E+02  0.172E-02   10.79       0.0  T
   2    -38.9070378 -0.328903E-07  0.104E-02   10.79       1.8  T
   3    -38.9070378 -0.121862E-07  0.581E-04   10.79      32.0  T
   4    -38.9070378 -0.151731E-08  0.309E-04   10.79      60.1  T
     SCC iter.                  ...        0 min,  0.055 sec
     gradient                   ...        0 min,  0.041 sec
 * total energy  :   -38.5023416 Eh     change       -0.6572590E-05 Eh
   gradient norm :     0.0004590 Eh/α   predicted    -0.2712016E-05 ( -58.74%)
   displ. norm   :     0.0863341 α      lambda       -0.6789610E-05
   maximum displ.:     0.0556465 α      in ANC's #2, #1, #5, ...

........................................................................
.............................. CYCLE   16 ..............................
........................................................................

 iter      E             dE          RMSdq      gap      omega  full diag
   1    -38.9071372 -0.389071E+02  0.215E-02   10.79       0.0  T
   2    -38.9071373 -0.481207E-07  0.130E-02   10.79       1.4  T
   3    -38.9071373 -0.196530E-07  0.709E-04   10.79      26.2  T
   4    -38.9071373 -0.140258E-08  0.349E-04   10.79      53.2  T
     SCC iter.                  ...        0 min,  0.049 sec
     gradient                   ...        0 min,  0.039 sec
 * total energy  :   -38.5023505 Eh     change       -0.8862886E-05 Eh
   gradient norm :     0.0005842 Eh/α   predicted    -0.3407386E-05 ( -61.55%)
   displ. norm   :     0.1119566 α      lambda       -0.9547080E-05
   maximum displ.:     0.0756340 α      in ANC's #2, #1, #5, ...

........................................................................
.............................. CYCLE   17 ..............................
........................................................................

 iter      E             dE          RMSdq      gap      omega  full diag
   1    -38.9072865 -0.389073E+02  0.264E-02   10.79       0.0  T
   2    -38.9072866 -0.787931E-07  0.159E-02   10.79       1.2  T
   3    -38.9072866 -0.301824E-07  0.905E-04   10.79      20.5  T
   4    -38.9072866 -0.267274E-08  0.452E-04   10.79      41.0  T
     SCC iter.                  ...        0 min,  0.056 sec
     gradient                   ...        0 min,  0.040 sec
 * total energy  :   -38.5023630 Eh     change       -0.1255619E-04 Eh
   gradient norm :     0.0007152 Eh/α   predicted    -0.4802059E-05 ( -61.76%)
   displ. norm   :     0.1728324 α      lambda       -0.1372815E-04
   maximum displ.:     0.1179677 α      in ANC's #2, #1, #5, ...

........................................................................
.............................. CYCLE   18 ..............................
........................................................................

 iter      E             dE          RMSdq      gap      omega  full diag
   1    -38.9071820 -0.389072E+02  0.402E-02   10.79       0.0  T
   2    -38.9071822 -0.169114E-06  0.242E-02   10.79       1.0  T
   3    -38.9071822 -0.724246E-07  0.134E-03   10.79      13.9  T
   4    -38.9071822 -0.409347E-08  0.622E-04   10.79      29.8  T
   5    -38.9071822 -0.110300E-08  0.212E-04   10.79      87.6  T
     SCC iter.                  ...        0 min,  0.069 sec
     gradient                   ...        0 min,  0.040 sec
 * total energy  :   -38.5023804 Eh     change       -0.1734054E-04 Eh
   gradient norm :     0.0009017 Eh/α   predicted    -0.6958413E-05 ( -59.87%)
   displ. norm   :     0.2228684 α      lambda       -0.1562832E-04
   maximum displ.:     0.1515721 α      in ANC's #2, #1, #5, ...

........................................................................
.............................. CYCLE   19 ..............................
........................................................................

 iter      E             dE          RMSdq      gap      omega  full diag
   1    -38.9069054 -0.389069E+02  0.500E-02   10.78       0.0  T
   2    -38.9069057 -0.253269E-06  0.301E-02   10.79       1.0  T
   3    -38.9069058 -0.112469E-06  0.167E-03   10.79      11.2  T
   4    -38.9069058 -0.670452E-08  0.827E-04   10.79      22.5  T
   5    -38.9069058 -0.212648E-08  0.262E-04   10.79      71.0  T
     SCC iter.                  ...        0 min,  0.061 sec
     gradient                   ...        0 min,  0.034 sec
 * total energy  :   -38.5023985 Eh     change       -0.1813947E-04 Eh
   gradient norm :     0.0010686 Eh/α   predicted    -0.7991197E-05 ( -55.95%)
   displ. norm   :     0.2489381 α      lambda       -0.1486796E-04
   maximum displ.:     0.1701746 α      in ANC's #2, #1, #5, ...

........................................................................
.............................. CYCLE   20 ..............................
........................................................................

 iter      E             dE          RMSdq      gap      omega  full diag
   1    -38.9065087 -0.389065E+02  0.556E-02   10.78       0.0  T
   2    -38.9065090 -0.312653E-06  0.335E-02   10.78       1.0  T
   3    -38.9065092 -0.153960E-06  0.188E-03   10.78       9.9  T
   4    -38.9065092 -0.573520E-08  0.762E-04   10.78      24.4  T
   5    -38.9065092 -0.170660E-08  0.268E-04   10.78      69.3  T
     SCC iter.                  ...        0 min,  0.068 sec
     gradient                   ...        0 min,  0.036 sec
 * total energy  :   -38.5024140 Eh     change       -0.1543386E-04 Eh
   gradient norm :     0.0014180 Eh/α   predicted    -0.7643026E-05 ( -50.48%)
   displ. norm   :     0.1963194 α      lambda       -0.1334446E-04
   maximum displ.:     0.1350360 α      in ANC's #2, #1, #5, ...
 * RMSD in coord.:     0.3913763 α      energy gain  -0.3732145E-02 Eh

generating ANC from exact Hessian ...
Using Lindh-Hessian (1995)
 Shifting diagonal of input Hessian by    9.2819588661115452E-003
 Lowest  eigenvalues of input Hessian
    0.000000    0.000000    0.000000    0.000000    0.000000    0.000000
    0.010000    0.010060    0.010234    0.012414    0.013063    0.014145
    0.015565    0.016298    0.018279    0.018761    0.020882    0.021941
 Highest eigenvalues
    1.282310    1.300596    1.323107    1.480765    1.499325    1.568766


........................................................................
.............................. CYCLE   21 ..............................
........................................................................

 iter      E             dE          RMSdq      gap      omega  full diag
   1    -38.9067475 -0.389067E+02  0.425E-02   10.78       0.0  T
   2    -38.9067477 -0.202039E-06  0.256E-02   10.78       1.0  T
   3    -38.9067478 -0.969899E-07  0.155E-03   10.78      12.0  T
   4    -38.9067478 -0.729514E-08  0.857E-04   10.78      21.7  T
   5    -38.9067478 -0.202415E-08  0.231E-04   10.78      80.5  T
     SCC iter.                  ...        0 min,  0.062 sec
     gradient                   ...        0 min,  0.034 sec
 * total energy  :   -38.5024283 Eh     change       -0.1431731E-04 Eh
   gradient norm :     0.0010626 Eh/α   predicted     0.0000000E+00 (-100.00%)
   displ. norm   :     0.0236265 α      lambda       -0.6036644E-05
   maximum displ.:     0.0111094 α      in ANC's #8, #5, #6, ...

........................................................................
.............................. CYCLE   22 ..............................
........................................................................

 iter      E             dE          RMSdq      gap      omega  full diag
   1    -38.9073443 -0.389073E+02  0.679E-03   10.78       0.0  T
   2    -38.9073443 -0.351737E-07  0.400E-03   10.78       4.6  T
   3    -38.9073443 -0.261161E-08  0.584E-04   10.78      31.8  T
   4    -38.9073443 -0.137578E-08  0.179E-04   10.78     103.8  T
     SCC iter.                  ...        0 min,  0.041 sec
     gradient                   ...        0 min,  0.032 sec
 * total energy  :   -38.5024347 Eh     change       -0.6422636E-05 Eh
   gradient norm :     0.0003192 Eh/α   predicted    -0.3036301E-05 ( -52.72%)
   displ. norm   :     0.0491697 α      lambda       -0.6332680E-05
   maximum displ.:     0.0227191 α      in ANC's #8, #5, #2, ...

........................................................................
.............................. CYCLE   23 ..............................
........................................................................

 iter      E             dE          RMSdq      gap      omega  full diag
   1    -38.9075343 -0.389075E+02  0.106E-02   10.78       0.0  T
   2    -38.9075343 -0.251846E-07  0.640E-03   10.78       2.9  T
   3    -38.9075343 -0.538761E-08  0.464E-04   10.78      40.0  T
   4    -38.9075343 -0.160026E-08  0.228E-04   10.78      81.3  T
     SCC iter.                  ...        0 min,  0.049 sec
     gradient                   ...        0 min,  0.034 sec
 * total energy  :   -38.5024414 Eh     change       -0.6746562E-05 Eh
   gradient norm :     0.0006622 Eh/α   predicted    -0.3171361E-05 ( -52.99%)
   displ. norm   :     0.0543810 α      lambda       -0.4271853E-05
   maximum displ.:     0.0241634 α      in ANC's #5, #8, #2, ...

........................................................................
.............................. CYCLE   24 ..............................
........................................................................

 iter      E             dE          RMSdq      gap      omega  full diag
   1    -38.9073339 -0.389073E+02  0.114E-02   10.78       0.0  T
   2    -38.9073340 -0.206215E-07  0.689E-03   10.78       2.7  T
   3    -38.9073340 -0.785963E-08  0.450E-04   10.78      41.3  T
   4    -38.9073340 -0.806651E-09  0.248E-04   10.78      75.0  T
     SCC iter.                  ...        0 min,  0.047 sec
     gradient                   ...        0 min,  0.033 sec
 * total energy  :   -38.5024455 Eh     change       -0.4041244E-05 Eh
   gradient norm :     0.0004349 Eh/α   predicted    -0.2143397E-05 ( -46.96%)
   displ. norm   :     0.0290488 α      lambda       -0.1504994E-05
   maximum displ.:     0.0148584 α      in ANC's #2, #1, #5, ...

........................................................................
.............................. CYCLE   25 ..............................
........................................................................

 iter      E             dE          RMSdq      gap      omega  full diag
   1    -38.9072359 -0.389072E+02  0.643E-03   10.78       0.0  T
   2    -38.9072359 -0.638943E-08  0.388E-03   10.78       4.8  T
   3    -38.9072359 -0.233941E-08  0.263E-04   10.78      70.7  T
   4    -38.9072359 -0.458314E-09  0.147E-04   10.78     126.1  T
     SCC iter.                  ...        0 min,  0.049 sec
     gradient                   ...        0 min,  0.037 sec
 * total energy  :   -38.5024471 Eh     change       -0.1645148E-05 Eh
   gradient norm :     0.0001910 Eh/α   predicted    -0.7538487E-06 ( -54.18%)
   displ. norm   :     0.0289787 α      lambda       -0.1345877E-05
   maximum displ.:     0.0170421 α      in ANC's #1, #2, #3, ...

........................................................................
.............................. CYCLE   26 ..............................
........................................................................

 iter      E             dE          RMSdq      gap      omega  full diag
   1    -38.9071395 -0.389071E+02  0.634E-03   10.78       0.0  T
   2    -38.9071395 -0.695329E-08  0.381E-03   10.78       4.9  T
   3    -38.9071395 -0.257734E-08  0.289E-04   10.78      64.4  T
   4    -38.9071395 -0.537860E-09  0.161E-04   10.78     115.0  T
     SCC iter.                  ...        0 min,  0.098 sec
     gradient                   ...        0 min,  0.037 sec
 * total energy  :   -38.5024488 Eh     change       -0.1616813E-05 Eh
   gradient norm :     0.0002621 Eh/α   predicted    -0.6768574E-06 ( -58.14%)
   displ. norm   :     0.0328886 α      lambda       -0.1374344E-05
   maximum displ.:     0.0204202 α      in ANC's #1, #2, #6, ...

........................................................................
.............................. CYCLE   27 ..............................
........................................................................

 iter      E             dE          RMSdq      gap      omega  full diag
   1    -38.9071222 -0.389071E+02  0.727E-03   10.77       0.0  T
   2    -38.9071222 -0.804374E-08  0.438E-03   10.77       4.2  T
   3    -38.9071222 -0.310779E-08  0.317E-04   10.77      58.5  T
   4    -38.9071222 -0.652776E-09  0.177E-04   10.77     105.0  T
     SCC iter.                  ...        0 min,  0.051 sec
     gradient                   ...        0 min,  0.035 sec
 * total energy  :   -38.5024504 Eh     change       -0.1651295E-05 Eh
   gradient norm :     0.0003493 Eh/α   predicted    -0.6900995E-06 ( -58.21%)
   displ. norm   :     0.0348616 α      lambda       -0.1211284E-05
   maximum displ.:     0.0226098 α      in ANC's #1, #2, #3, ...

........................................................................
.............................. CYCLE   28 ..............................
........................................................................

 iter      E             dE          RMSdq      gap      omega  full diag
   1    -38.9071423 -0.389071E+02  0.764E-03   10.77       0.0  T
   2    -38.9071423 -0.917329E-08  0.460E-03   10.77       4.0  T
   3    -38.9071423 -0.417855E-08  0.325E-04   10.77      57.2  T
   4    -38.9071423 -0.277936E-09  0.175E-04   10.77     106.2  T
     SCC iter.                  ...        0 min,  0.049 sec
     gradient                   ...        0 min,  0.034 sec
 * total energy  :   -38.5024519 Eh     change       -0.1522622E-05 Eh
   gradient norm :     0.0002773 Eh/α   predicted    -0.6068042E-06 ( -60.15%)
   displ. norm   :     0.0368655 α      lambda       -0.1209050E-05
   maximum displ.:     0.0248007 α      in ANC's #1, #2, #3, ...

........................................................................
.............................. CYCLE   29 ..............................
........................................................................

 iter      E             dE          RMSdq      gap      omega  full diag
   1    -38.9071820 -0.389072E+02  0.791E-03   10.77       0.0  T
   2    -38.9071820 -0.962432E-08  0.476E-03   10.77       3.9  T
   3    -38.9071820 -0.398158E-08  0.317E-04   10.77      58.6  T
   4    -38.9071820 -0.271214E-09  0.169E-04   10.77     110.0  T
     SCC iter.                  ...        0 min,  0.042 sec
     gradient                   ...        0 min,  0.028 sec
 * total energy  :   -38.5024535 Eh     change       -0.1592175E-05 Eh
   gradient norm :     0.0001509 Eh/α   predicted    -0.6060426E-06 ( -61.94%)
   displ. norm   :     0.0450725 α      lambda       -0.1472744E-05
   maximum displ.:     0.0309385 α      in ANC's #1, #2, #3, ...

........................................................................
.............................. CYCLE   30 ..............................
........................................................................

 iter      E             dE          RMSdq      gap      omega  full diag
   1    -38.9072202 -0.389072E+02  0.941E-03   10.77       0.0  T
   2    -38.9072202 -0.127884E-07  0.565E-03   10.77       3.3  T
   3    -38.9072202 -0.529128E-08  0.369E-04   10.77      50.3  T
   4    -38.9072202 -0.357105E-09  0.197E-04   10.77      94.3  T
     SCC iter.                  ...        0 min,  0.070 sec
     gradient                   ...        0 min,  0.034 sec
 * total energy  :   -38.5024555 Eh     change       -0.1949249E-05 Eh
   gradient norm :     0.0001731 Eh/α   predicted    -0.7382620E-06 ( -62.13%)
   displ. norm   :     0.0576248 α      lambda       -0.1769012E-05
   maximum displ.:     0.0400039 α      in ANC's #1, #2, #3, ...

........................................................................
.............................. CYCLE   31 ..............................
........................................................................

 iter      E             dE          RMSdq      gap      omega  full diag
   1    -38.9072269 -0.389072E+02  0.117E-02   10.77       0.0  T
   2    -38.9072269 -0.158609E-07  0.704E-03   10.77       2.6  T
   3    -38.9072269 -0.722203E-08  0.421E-04   10.77      44.1  T
   4    -38.9072269 -0.366768E-09  0.215E-04   10.77      86.4  T
     SCC iter.                  ...        0 min,  0.041 sec
     gradient                   ...        0 min,  0.028 sec
 * total energy  :   -38.5024578 Eh     change       -0.2300559E-05 Eh
   gradient norm :     0.0002507 Eh/α   predicted    -0.8877824E-06 ( -61.41%)
   displ. norm   :     0.0648776 α      lambda       -0.1742859E-05
   maximum displ.:     0.0455874 α      in ANC's #1, #2, #3, ...

........................................................................
.............................. CYCLE   32 ..............................
........................................................................

 iter      E             dE          RMSdq      gap      omega  full diag
   1    -38.9071938 -0.389072E+02  0.132E-02   10.77       0.0  T
   2    -38.9071938 -0.170773E-07  0.793E-03   10.77       2.3  T
   3    -38.9071938 -0.872417E-08  0.455E-04   10.77      40.8  T
   4    -38.9071938 -0.323141E-09  0.195E-04   10.77      95.2  T
     SCC iter.                  ...        0 min,  0.041 sec
     gradient                   ...        0 min,  0.029 sec
 * total energy  :   -38.5024600 Eh     change       -0.2235734E-05 Eh
   gradient norm :     0.0002373 Eh/α   predicted    -0.8744979E-06 ( -60.89%)
   displ. norm   :     0.0605157 α      lambda       -0.1431843E-05
   maximum displ.:     0.0429932 α      in ANC's #1, #2, #6, ...

........................................................................
.............................. CYCLE   33 ..............................
........................................................................

 iter      E             dE          RMSdq      gap      omega  full diag
   1    -38.9071720 -0.389072E+02  0.123E-02   10.77       0.0  T
   2    -38.9071720 -0.146815E-07  0.736E-03   10.77       2.5  T
   3    -38.9071721 -0.745730E-08  0.425E-04   10.77      43.7  T
   4    -38.9071721 -0.313726E-09  0.205E-04   10.77      90.4  T
     SCC iter.                  ...        0 min,  0.050 sec
     gradient                   ...        0 min,  0.034 sec
 * total energy  :   -38.5024619 Eh     change       -0.1847140E-05 Eh
   gradient norm :     0.0001665 Eh/α   predicted    -0.7174196E-06 ( -61.16%)
   displ. norm   :     0.0544379 α      lambda       -0.1186804E-05
   maximum displ.:     0.0389756 α      in ANC's #1, #2, #6, ...

........................................................................
.............................. CYCLE   34 ..............................
........................................................................

 iter      E             dE          RMSdq      gap      omega  full diag
   1    -38.9071424 -0.389071E+02  0.113E-02   10.77       0.0  T
   2    -38.9071424 -0.110739E-07  0.678E-03   10.77       2.7  T
   3    -38.9071424 -0.556032E-08  0.367E-04   10.77      50.6  T
   4    -38.9071424 -0.236952E-09  0.171E-04   10.77     108.4  T
     SCC iter.                  ...        0 min,  0.048 sec
     gradient                   ...        0 min,  0.027 sec
 * total energy  :   -38.5024634 Eh     change       -0.1566457E-05 Eh
   gradient norm :     0.0001366 Eh/α   predicted    -0.5958829E-06 ( -61.96%)
   displ. norm   :     0.0541845 α      lambda       -0.1139319E-05
   maximum displ.:     0.0388356 α      in ANC's #1, #2, #6, ...

........................................................................
.............................. CYCLE   35 ..............................
........................................................................

 iter      E             dE          RMSdq      gap      omega  full diag
   1    -38.9071389 -0.389071E+02  0.114E-02   10.77       0.0  T
   2    -38.9071389 -0.120877E-07  0.685E-03   10.77       2.7  T
   3    -38.9071389 -0.591484E-08  0.384E-04   10.77      48.4  T
   4    -38.9071389 -0.282739E-09  0.187E-04   10.77      99.1  T
     SCC iter.                  ...        0 min,  0.040 sec
     gradient                   ...        0 min,  0.032 sec
 * total energy  :   -38.5024649 Eh     change       -0.1484773E-05 Eh
   gradient norm :     0.0001542 Eh/α   predicted    -0.5718688E-06 ( -61.48%)
   displ. norm   :     0.0569360 α      lambda       -0.1069805E-05
   maximum displ.:     0.0408345 α      in ANC's #1, #2, #5, ...

........................................................................
.............................. CYCLE   36 ..............................
........................................................................

 iter      E             dE          RMSdq      gap      omega  full diag
   1    -38.9071222 -0.389071E+02  0.123E-02   10.77       0.0  T
   2    -38.9071222 -0.138513E-07  0.737E-03   10.77       2.5  T
   3    -38.9071222 -0.645898E-08  0.397E-04   10.77      46.8  T
   4    -38.9071222 -0.302343E-09  0.180E-04   10.77     103.2  T
     SCC iter.                  ...        0 min,  0.046 sec
     gradient                   ...        0 min,  0.035 sec
 * total energy  :   -38.5024662 Eh     change       -0.1345715E-05 Eh
   gradient norm :     0.0001994 Eh/α   predicted    -0.5368997E-06 ( -60.10%)
   displ. norm   :     0.0538273 α      lambda       -0.8311345E-06
   maximum displ.:     0.0388515 α      in ANC's #1, #2, #5, ...

........................................................................
.............................. CYCLE   37 ..............................
........................................................................

 iter      E             dE          RMSdq      gap      omega  full diag
   1    -38.9071296 -0.389071E+02  0.118E-02   10.77       0.0  T
   2    -38.9071296 -0.143595E-07  0.712E-03   10.77       2.6  T
   3    -38.9071296 -0.666802E-08  0.406E-04   10.77      45.7  T
   4    -38.9071296 -0.329337E-09  0.189E-04   10.77      98.3  T
     SCC iter.                  ...        0 min,  0.049 sec
     gradient                   ...        0 min,  0.034 sec
 * total energy  :   -38.5024673 Eh     change       -0.1008671E-05 Eh
   gradient norm :     0.0001683 Eh/α   predicted    -0.4168629E-06 ( -58.67%)
   displ. norm   :     0.0456793 α      lambda       -0.5672676E-06
   maximum displ.:     0.0332223 α      in ANC's #1, #2, #5, ...

........................................................................
.............................. CYCLE   38 ..............................
........................................................................

 iter      E             dE          RMSdq      gap      omega  full diag
   1    -38.9071536 -0.389072E+02  0.101E-02   10.77       0.0  T
   2    -38.9071536 -0.118186E-07  0.611E-03   10.77       3.0  T
   3    -38.9071536 -0.525486E-08  0.359E-04   10.77      51.7  T
   4    -38.9071536 -0.304539E-09  0.176E-04   10.77     105.8  T
     SCC iter.                  ...        0 min,  0.041 sec
     gradient                   ...        0 min,  0.034 sec
 * total energy  :   -38.5024679 Eh     change       -0.6712970E-06 Eh
   gradient norm :     0.0001358 Eh/α   predicted    -0.2844890E-06 ( -57.62%)
   displ. norm   :     0.0356130 α      lambda       -0.3683227E-06
   maximum displ.:     0.0262534 α      in ANC's #1, #2, #9, ...

   *** GEOMETRY OPTIMIZATION CONVERGED AFTER 38 ITERATIONS ***

------------------------------------------------------------------------
 total energy gain   :        -0.0037861 Eh       -2.3758 kcal/mol
 total RMSD          :         0.5071159 a0        0.2684 Å
 total power (kW/mol):        -0.2615903 (step)   -1.9934 (real)
------------------------------------------------------------------------

 ANCopt (total)                0 d,  0 h,  0 min,  4.987 sec
 optimizer setup                ...        0 min,  0.001 sec (  0.014%)
 model hessian                  ...        0 min,  0.035 sec (  0.703%)
 ANC generation                 ...        0 min,  0.003 sec (  0.052%)
 coordinate transformation      ...        0 min,  0.000 sec (  0.009%)
 single point calculation       ...        0 min,  4.801 sec ( 96.277%)
 optimization log               ...        0 min,  0.004 sec (  0.089%)
 hessian update                 ...        0 min,  0.132 sec (  2.656%)
 rational function              ...        0 min,  0.003 sec (  0.066%)

================
 final structure:
================
29
 xtb: 6.7.1 (edcfbbe)
C           -3.30626161630835       -0.50178628563941        0.92936078958490
C           -2.75719767685695        0.22364060475776       -0.29709955489832
C           -3.34340700596836        1.63251018359306       -0.37506123664616
C           -1.22755512960757        0.30176494572438       -0.27014188097966
C           -0.55333181098969       -1.06880160324520       -0.38208388343912
O            0.81612301570447       -0.99788432213521       -0.71655467512158
C            1.65212155118422       -0.50888838941881        0.31232552448080
C            3.09839340459708       -0.69336762688446       -0.15690917926694
O            3.28326646118497       -0.06522734831746       -1.40735110976251
C            4.08758655940644       -0.04579345055432        0.82048438354554
O            3.89188012665975        1.33955156315162        0.89633770993378
H           -2.97891919846433       -0.00588792582206        1.84082740639987
H           -4.39375817174657       -0.49904170631465        0.91141508488692
H           -2.97171455110789       -1.53534281637167        0.95699429262410
H           -3.06022652435697       -0.32867619393123       -1.19401664779699
H           -2.98529961293154        2.15119755405365       -1.26133392207003
H           -3.05677579420314        2.21093779221206        0.50066354663022
H           -4.42924804080284        1.59177260921674       -0.41797515921050
H           -0.91183997396359        0.79668586124711        0.65074240072512
H           -0.88746721191565        0.90863879639159       -1.11298120782134
H           -0.67198869686025       -1.63565315558477        0.55178189079766
H           -1.00608374267316       -1.63725786379834       -1.19952711030278
H            1.46859281505614        0.55741107874305        0.49810517715517
H            1.48505228969895       -1.06611489437229        1.24447049769423
H            3.31347939857488       -1.76968670109947       -0.24273514536632
H            2.51829835971722       -0.29598980724269       -1.94900359392191
H            5.10823524537701       -0.27355981978566        0.48322713282981
H            3.94542914243763       -0.44532653115029        1.82623118801276
H            3.87261638915542        1.66017545257401       -0.01589357504666

 Bond Distances (Angstroems)
 ---------------------------
C1-C2=1.5271         C1-H12=1.0880        C1-H13=1.0876        C1-H14=1.0867        C2-C1=1.5271         C2-C3=1.5280         
C2-C4=1.5319         C2-H15=1.0961        C3-C2=1.5280         C3-H16=1.0875        C3-H17=1.0879        C3-H18=1.0875        
C4-C2=1.5319         C4-C5=1.5315         C4-H19=1.0921        C4-H20=1.0929        C5-C4=1.5315         C5-O6=1.4115         
C5-H21=1.0989        C5-H22=1.0938        O6-C5=1.4115         O6-C7=1.4130         C7-O6=1.4130         C7-C8=1.5316         
C7-H23=1.0978        C7-H24=1.0988        C8-C7=1.5316         C8-O9=1.4115         C8-C10=1.5340        C8-H25=1.1010        
O9-C8=1.4115         O9-H26=0.9653        C10-C8=1.5340        C10-O11=1.4012       C10-H27=1.0988       C10-H28=1.0915       
O11-C10=1.4012       O11-H29=0.9671       H12-C1=1.0880        H13-C1=1.0876        H14-C1=1.0867        H15-C2=1.0961        
H16-C3=1.0875        H17-C3=1.0879        H18-C3=1.0875        H19-C4=1.0921        H20-C4=1.0929        H21-C5=1.0989        
H22-C5=1.0938        H23-C7=1.0978        H24-C7=1.0988        H25-C8=1.1010        H26-O9=0.9653        H27-C10=1.0988       
H28-C10=1.0915       H29-O11=0.9671       
 C  H  Rav=1.0929 sigma=0.0049  Rmin=1.0867  Rmax=1.1010    16
 C  C  Rav=1.5307 sigma=0.0024  Rmin=1.5271  Rmax=1.5340     6
 O  H  Rav=0.9662 sigma=0.0009  Rmin=0.9653  Rmax=0.9671     2
 O  C  Rav=1.4093 sigma=0.0047  Rmin=1.4012  Rmax=1.4130     4

 selected bond angles (degree)
 --------------------
H12-C1-C2=110.37               H13-C1-C2=110.19               H13-C1-H12=108.27              H14-C1-C2=111.20               
H14-C1-H12=108.64              H14-C1-H13=108.10              C3-C2-C1=109.94                C4-C2-C1=111.66                
C4-C2-C3=109.69                H15-C2-C1=108.57               H15-C2-C3=108.47               H15-C2-C4=108.43               
H16-C3-C2=110.79               H17-C3-C2=110.37               H17-C3-H16=108.40              H18-C3-C2=110.52               
H18-C3-H16=108.33              H18-C3-H17=108.35              C5-C4-C2=113.12                H19-C4-C2=109.06               
H19-C4-C5=109.87               H20-C4-C2=109.00               H20-C4-C5=107.67               H20-C4-H19=107.98              
O6-C5-C4=113.55                H21-C5-C4=110.61               H21-C5-O6=109.39               H22-C5-C4=109.72               
H22-C5-O6=104.51               H22-C5-H21=108.80              C7-O6-C5=114.76                C8-C7-O6=107.09                
H23-C7-O6=111.13               H23-C7-C8=109.07               H24-C7-O6=110.63               H24-C7-C8=110.02               
H24-C7-H23=108.88              O9-C8-C7=109.97                C10-C8-C7=111.28               C10-C8-O9=106.99               
H25-C8-C7=109.03               H25-C8-O9=109.90               H25-C8-C10=109.66              H26-O9-C8=106.67               
O11-C10-C8=111.21              H27-C10-C8=108.42              H27-C10-O11=110.57             H28-C10-C8=110.40              
H28-C10-O11=107.09             H28-C10-H27=109.14             

 selected dihedral angles (degree)
 ---------------------------------
C3-C2-C1-H12=295.60           C3-C2-C1-H13= 55.13           C3-C2-C1-H14=174.96           C4-C2-C1-H12= 57.59           
C4-C2-C1-H13=177.12           C4-C2-C1-H14=296.96           H15-C2-C1-H12=177.09          H15-C2-C1-H13=296.61          
H15-C2-C1-H14= 56.45          H16-C3-C2-C1=181.77           H16-C3-C2-C4= 58.61           H16-C3-C2-H15=300.35          
H17-C3-C2-C1= 61.69           H17-C3-C2-C4=298.54           H17-C3-C2-H15=180.27          H18-C3-C2-C1=301.86           
H18-C3-C2-C4=178.70           H18-C3-C2-H15= 60.43          C5-C4-C2-C1= 65.60            C5-C4-C2-C3=187.74            
C5-C4-C2-H15=306.03           H19-C4-C2-C1=303.01           H19-C4-C2-C3= 65.15           H19-C4-C2-H15=183.44          
H20-C4-C2-C1=185.34           H20-C4-C2-C3=307.48           H20-C4-C2-H15= 65.77          O6-C5-C4-C2=163.97            
O6-C5-C4-H19=286.11           O6-C5-C4-H20= 43.48           H21-C5-C4-C2=287.40           H21-C5-C4-H19= 49.54          
H21-C5-C4-H20=166.90          H22-C5-C4-C2= 47.44           H22-C5-C4-H19=169.58          H22-C5-C4-H20=286.95          
C7-O6-C5-C4= 71.09            C7-O6-C5-H21=307.00           C7-O6-C5-H22=190.63           C8-C7-O6-C5=172.04            
H23-C7-O6-C5=291.07           H24-C7-O6-C5= 52.14           O9-C8-C7-O6= 55.11            O9-C8-C7-H23=294.76           
O9-C8-C7-H24=175.39           C10-C8-C7-O6=173.47           C10-C8-C7-H23= 53.12          C10-C8-C7-H24=293.75          
H25-C8-C7-O6=294.54           H25-C8-C7-H23=174.19          H25-C8-C7-H24= 54.83          H26-O9-C8-C7=315.81           
H26-O9-C8-C10=194.83          H26-O9-C8-H25= 75.84          O11-C10-C8-C7=297.33          O11-C10-C8-O9= 57.47          
O11-C10-C8-H25=176.62         H27-C10-C8-C7=175.57          H27-C10-C8-O9=295.71          H27-C10-C8-H25= 54.86         
H28-C10-C8-C7= 56.06          H28-C10-C8-O9=176.20          H28-C10-C8-H25=295.35         
           -------------------------------------------------
          |                Final Singlepoint                |
           -------------------------------------------------

          ...................................................
          :                      SETUP                      :
          :.................................................:
          :  # basis functions                  62          :
          :  # atomic orbitals                  62          :
          :  # shells                           40          :
          :  # electrons                        68          :
          :  max. iterations                   250          :
          :  Hamiltonian                  GFN2-xTB          :
          :  restarted?                      false          :
          :  GBSA solvation                  false          :
          :  PC potential                    false          :
          :  electronic temp.          300.0000000     K    :
          :  accuracy                    1.0000000          :
          :  -> integral cutoff          0.2500000E+02      :
          :  -> integral neglect         0.1000000E-07      :
          :  -> SCF convergence          0.1000000E-05 Eh   :
          :  -> wf. convergence          0.1000000E-03 e    :
          :  Broyden damping             0.4000000          :
          :  net charge                          0          :
          :  unpaired electrons                  0          :
          ...................................................

 iter      E             dE          RMSdq      gap      omega  full diag
   1    -38.9071536 -0.389072E+02  0.593E-05   10.77       0.0  T
   2    -38.9071536 -0.945022E-11  0.361E-05   10.77     514.9  T
   3    -38.9071536 -0.141398E-11  0.143E-05   10.77    1295.4  T

   *** convergence criteria satisfied after 3 iterations ***

         #    Occupation            Energy/Eh            Energy/eV
      -------------------------------------------------------------
         1        2.0000           -0.7069635             -19.2375
       ...           ...                  ...                  ...
        28        2.0000           -0.4471518             -12.1676
        29        2.0000           -0.4427980             -12.0491
        30        2.0000           -0.4371520             -11.8955
        31        2.0000           -0.4309813             -11.7276
        32        2.0000           -0.4190795             -11.4037
        33        2.0000           -0.4112631             -11.1910
        34        2.0000           -0.4012456             -10.9184 (HOMO)
        35                         -0.0055436              -0.1508 (LUMO)
        36                          0.0387908               1.0556
        37                          0.0552313               1.5029
        38                          0.0802790               2.1845
        39                          0.0846302               2.3029
       ...                                ...                  ...
        62                          0.2991608               8.1406
      -------------------------------------------------------------
                  HL-Gap            0.3957020 Eh           10.7676 eV
             Fermi-level           -0.2033946 Eh           -5.5346 eV

 SCC (total)                   0 d,  0 h,  0 min,  0.099 sec
 SCC setup                      ...        0 min,  0.004 sec (  3.837%)
 Dispersion                     ...        0 min,  0.008 sec (  7.675%)
 classical contributions        ...        0 min,  0.004 sec (  3.740%)
 integral evaluation            ...        0 min,  0.011 sec ( 11.243%)
 iterations                     ...        0 min,  0.037 sec ( 37.530%)
 molecular gradient             ...        0 min,  0.036 sec ( 35.793%)
 printout                       ...        0 min,  0.000 sec (  0.150%)

         :::::::::::::::::::::::::::::::::::::::::::::::::::::
         ::                     SUMMARY                     ::
         :::::::::::::::::::::::::::::::::::::::::::::::::::::
         :: total energy             -38.502467928345 Eh    ::
         :: gradient norm              0.000136073663 Eh/a0 ::
         :: HOMO-LUMO gap             10.767599310961 eV    ::
         ::.................................................::
         :: SCC energy               -38.907129339573 Eh    ::
         :: -> isotropic ES            0.067619993490 Eh    ::
         :: -> anisotropic ES          0.003423651516 Eh    ::
         :: -> anisotropic XC          0.005959844372 Eh    ::
         :: -> dispersion             -0.019028047898 Eh    ::
         :: repulsion energy           0.404661411228 Eh    ::
         :: add. restraining           0.000000000000 Eh    ::
         :: total charge               0.000000000000 e     ::
         :::::::::::::::::::::::::::::::::::::::::::::::::::::

           -------------------------------------------------
          |                Property Printout                |
           -------------------------------------------------

    * Orbital Energies and Occupations

         #    Occupation            Energy/Eh            Energy/eV
      -------------------------------------------------------------
         1        2.0000           -0.7069635             -19.2375
       ...           ...                  ...                  ...
        22        2.0000           -0.4911955             -13.3661
        23        2.0000           -0.4842274             -13.1765
        24        2.0000           -0.4737126             -12.8904
        25        2.0000           -0.4688165             -12.7571
        26        2.0000           -0.4604603             -12.5298
        27        2.0000           -0.4537657             -12.3476
        28        2.0000           -0.4471518             -12.1676
        29        2.0000           -0.4427980             -12.0491
        30        2.0000           -0.4371520             -11.8955
        31        2.0000           -0.4309813             -11.7276
        32        2.0000           -0.4190795             -11.4037
        33        2.0000           -0.4112631             -11.1910
        34        2.0000           -0.4012456             -10.9184 (HOMO)
        35                         -0.0055436              -0.1508 (LUMO)
        36                          0.0387908               1.0556
        37                          0.0552313               1.5029
        38                          0.0802790               2.1845
        39                          0.0846302               2.3029
        40                          0.0933461               2.5401
        41                          0.0947738               2.5789
        42                          0.1158996               3.1538
        43                          0.1198114               3.2602
        44                          0.1238644               3.3705
        45                          0.1356259               3.6906
       ...                                ...                  ...
        62                          0.2991608               8.1406
      -------------------------------------------------------------
                  HL-Gap            0.3957020 Eh           10.7676 eV
             Fermi-level           -0.2033946 Eh           -5.5346 eV

     #   Z          covCN         q      C6AA      α(0)
     1   6 C        3.756    -0.110    22.653     6.786
     2   6 C        3.850    -0.012    20.755     6.480
     3   6 C        3.757    -0.108    22.622     6.781
     4   6 C        3.804    -0.074    21.907     6.663
     5   6 C        3.695     0.080    19.411     6.303
     6   8 O        1.701    -0.331    19.549     5.970
     7   6 C        3.696     0.072    19.535     6.323
     8   6 C        3.723     0.100    19.034     6.230
     9   8 O        1.656    -0.447    21.774     6.299
    10   6 C        3.676     0.071    19.602     6.343
    11   8 O        1.656    -0.437    21.588     6.272
    12   1 H        0.925     0.038     2.471     2.458
    13   1 H        0.925     0.039     2.461     2.453
    14   1 H        0.925     0.032     2.557     2.501
    15   1 H        0.924     0.028     2.611     2.527
    16   1 H        0.925     0.035     2.510     2.478
    17   1 H        0.925     0.038     2.470     2.458
    18   1 H        0.925     0.038     2.474     2.460
    19   1 H        0.924     0.038     2.478     2.462
    20   1 H        0.924     0.044     2.395     2.420
    21   1 H        0.923     0.022     2.705     2.572
    22   1 H        0.924     0.047     2.355     2.400
    23   1 H        0.924     0.044     2.400     2.423
    24   1 H        0.923     0.021     2.713     2.576
    25   1 H        0.923     0.025     2.659     2.550
    26   1 H        0.805     0.310     0.691     1.306
    27   1 H        0.923     0.038     2.472     2.459
    28   1 H        0.924     0.045     2.381     2.413
    29   1 H        0.805     0.310     0.690     1.305

 Mol. C6AA /au·bohr⁶  :       5914.308210
 Mol. C8AA /au·bohr⁸  :     122768.727425
 Mol. α(0) /au        :        112.669500


Wiberg/Mayer (AO) data.
largest (>0.10) Wiberg bond orders for each atom

 ---------------------------------------------------------------------------
     #   Z sym  total        # sym  WBO       # sym  WBO       # sym  WBO
 ---------------------------------------------------------------------------
     1   6 C    3.996 --     2 C    1.010    12 H    0.987    13 H    0.986
                            14 H    0.986
     2   6 C    3.996 --     1 C    1.010     3 C    1.008     4 C    0.996
                            15 H    0.969
     3   6 C    3.996 --     2 C    1.008    17 H    0.987    16 H    0.987
                            18 H    0.986
     4   6 C    3.996 --     5 C    0.996     2 C    0.996    19 H    0.976
                            20 H    0.975
     5   6 C    3.949 --     4 C    0.996     6 O    0.977    22 H    0.969
                            21 H    0.967
     6   8 O    2.069 --     7 C    0.982     5 C    0.977
     7   6 C    3.954 --     8 C    0.982     6 O    0.982    24 H    0.967
                            23 H    0.965
     8   6 C    3.962 --     9 O    0.996     7 C    0.982    10 C    0.979
                            25 H    0.960
     9   8 O    1.959 --     8 C    0.996    26 H    0.882
    10   6 C    3.965 --    11 O    1.015     8 C    0.979    28 H    0.973
                            27 H    0.967
    11   8 O    1.962 --    10 C    1.015    29 H    0.884
    12   1 H    0.999 --     1 C    0.987
    13   1 H    0.998 --     1 C    0.986
    14   1 H    0.999 --     1 C    0.986
    15   1 H    0.999 --     2 C    0.969
    16   1 H    0.999 --     3 C    0.987
    17   1 H    0.999 --     3 C    0.987
    18   1 H    0.998 --     3 C    0.986
    19   1 H    0.999 --     4 C    0.976
    20   1 H    0.998 --     4 C    0.975
    21   1 H    1.000 --     5 C    0.967
    22   1 H    0.997 --     5 C    0.969
    23   1 H    0.998 --     7 C    0.965
    24   1 H    1.000 --     7 C    0.967
    25   1 H    0.999 --     8 C    0.960
    26   1 H    0.904 --     9 O    0.882
    27   1 H    0.998 --    10 C    0.967
    28   1 H    0.998 --    10 C    0.973
    29   1 H    0.904 --    11 O    0.884
 ---------------------------------------------------------------------------

Topologies differ in total number of bonds
Writing topology from bond orders to xtbtopo.mol

molecular dipole:
                 x           y           z       tot (Debye)
 q only:       -0.705      -0.220      -0.005
   full:       -0.931      -0.439      -0.042       2.618
molecular quadrupole (traceless):
                xx          xy          yy          xz          yz          zz
 q only:       -1.464      -3.653       1.083      -0.354      -3.273       0.381
  q+dip:       -4.480      -5.341       2.347      -1.185      -4.136       2.134
   full:       -4.083      -5.281       2.231      -1.047      -4.384       1.852

           -------------------------------------------------
          |                Geometry Summary                 |
           -------------------------------------------------

      molecular mass/u    :      162.2270355
   center of mass at/Å    :        0.5791150      -0.0192665      -0.0651937
  moments of inertia/u·Å² :        0.2309395E+03   0.1358058E+04   0.1406439E+04
rotational constants/cm⁻¹ :        0.7299589E-01   0.1241304E-01   0.1198604E-01

 * 28 selected distances

     #   Z          #   Z                                           value/Å
     1   6 C        2   6 C                                       1.5270628
     2   6 C        3   6 C                                       1.5279507
     2   6 C        4   6 C                                       1.5318737
     4   6 C        5   6 C                                       1.5315225
     5   6 C        6   8 O                                       1.4114910
     6   8 O        7   6 C                                       1.4130129
     7   6 C        8   6 C                                       1.5316385
     8   6 C        9   8 O                                       1.4115040
     8   6 C       10   6 C                                       1.5339994 (max)
    10   6 C       11   8 O                                       1.4011552
     1   6 C       12   1 H                                       1.0880441
     1   6 C       13   1 H                                       1.0876482
     1   6 C       14   1 H                                       1.0867036
     2   6 C       15   1 H                                       1.0960569
     3   6 C       16   1 H                                       1.0875463
     3   6 C       17   1 H                                       1.0879476
     3   6 C       18   1 H                                       1.0874521
     4   6 C       19   1 H                                       1.0920856
     4   6 C       20   1 H                                       1.0928559
     5   6 C       21   1 H                                       1.0988656
     5   6 C       22   1 H                                       1.0937735
     7   6 C       23   1 H                                       1.0978122
     7   6 C       24   1 H                                       1.0987757
     8   6 C       25   1 H                                       1.1009501
     9   8 O       26   1 H                                       0.9653057 (min)
    10   6 C       27   1 H                                       1.0987920
    10   6 C       28   1 H                                       1.0914954
    11   8 O       29   1 H                                       0.9671282

 * 4 distinct bonds (by element types)

   Z      Z             #   av. dist./Å        max./Å        min./Å
   1 H    6 C          16     1.0929253     1.1009501     1.0867036
   6 C    6 C           6     1.5306746     1.5339994     1.5270628
   1 H    8 O           2     0.9662169     0.9671282     0.9653057
   6 C    8 O           4     1.4092908     1.4130129     1.4011552


optimized geometry written to: xtbopt.xyz


           -------------------------------------------------
          | TOTAL ENERGY              -38.502467928345 Eh   |
          | GRADIENT NORM               0.000136073663 Eh/α |
          | HOMO-LUMO GAP              10.767599310961 eV   |
           -------------------------------------------------

------------------------------------------------------------------------
 * finished run on 2026/07/07 at 07:10:37.213     
------------------------------------------------------------------------
 total:
 * wall-time:     0 d,  0 h,  0 min,  5.329 sec
 *  cpu-time:     0 d,  0 h,  1 min, 24.406 sec
 * ratio c/w:    15.840 speedup
 SCF:
 * wall-time:     0 d,  0 h,  0 min,  0.178 sec
 *  cpu-time:     0 d,  0 h,  0 min,  2.689 sec
 * ratio c/w:    15.096 speedup
 ANC optimizer:
 * wall-time:     0 d,  0 h,  0 min,  5.091 sec
 *  cpu-time:     0 d,  0 h,  1 min, 21.245 sec
 * ratio c/w:    15.960 speedup

