      -----------------------------------------------------------      
     |                   =====================                   |     
     |                           x T B                           |     
     |                   =====================                   |     
     |                         S. Grimme                         |     
     |          Mulliken Center for Theoretical Chemistry        |     
     |                    University of Bonn                     |     
      -----------------------------------------------------------      

   * xtb version 6.7.1 (edcfbbe) compiled by 'conda@5dfe00f5fb80' on 2026-06-10

   xtb is free software: you can redistribute it and/or modify it under
   the terms of the GNU Lesser General Public License as published by
   the Free Software Foundation, either version 3 of the License, or
   (at your option) any later version.
   
   xtb is distributed in the hope that it will be useful,
   but WITHOUT ANY WARRANTY; without even the implied warranty of
   MERCHANTABILITY or FITNESS FOR A PARTICULAR PURPOSE.  See the
   GNU Lesser General Public License for more details.
   
   Cite this work as:
   * C. Bannwarth, E. Caldeweyher, S. Ehlert, A. Hansen, P. Pracht,
     J. Seibert, S. Spicher, S. Grimme, WIREs Comput. Mol. Sci., 2020, 11,
     e01493. DOI: 10.1002/wcms.1493
   
   for GFN2-xTB:
   * C. Bannwarth, S. Ehlert and S. Grimme., J. Chem. Theory Comput., 2019,
     15, 1652-1671. DOI: 10.1021/acs.jctc.8b01176
   for GFN1-xTB:
   * S. Grimme, C. Bannwarth, P. Shushkov, J. Chem. Theory Comput., 2017,
     13, 1989-2009. DOI: 10.1021/acs.jctc.7b00118
   for GFN0-xTB:
   * P. Pracht, E. Caldeweyher, S. Ehlert, S. Grimme, ChemRxiv, 2019, preprint.
     DOI: 10.26434/chemrxiv.8326202.v1
   for GFN-FF:
   * S. Spicher and S. Grimme, Angew. Chem. Int. Ed., 2020, 59, 15665-15673.
     DOI: 10.1002/anie.202004239
   
   for ALPB and GBSA implicit solvation:
   * S. Ehlert, M. Stahn, S. Spicher, S. Grimme, J. Chem. Theory Comput.,
     2021, 17, 4250-4261. DOI: 10.1021/acs.jctc.1c00471
   
   for ddCOSMO and CPCM-X implicit solvation:
   * M. Stahn, S. Ehlert, S. Grimme, J. Phys. Chem. A,
     2023, XX, XXXX-XXXX. DOI: 10.1021/acs.jpca.3c04382
   
   for DFT-D4:
   * E. Caldeweyher, C. Bannwarth and S. Grimme, J. Chem. Phys., 2017,
     147, 034112. DOI: 10.1063/1.4993215
   * E. Caldeweyher, S. Ehlert, A. Hansen, H. Neugebauer, S. Spicher,
     C. Bannwarth and S. Grimme, J. Chem. Phys., 2019, 150, 154122.
     DOI: 10.1063/1.5090222
   * E. Caldeweyher, J.-M. Mewes, S. Ehlert and S. Grimme, Phys. Chem. Chem. Phys.
     2020, 22, 8499-8512. DOI: 10.1039/D0CP00502A
   
   for sTDA-xTB:
   * S. Grimme and C. Bannwarth, J. Chem. Phys., 2016, 145, 054103.
     DOI: 10.1063/1.4959605
   
   in the mass-spec context:
   * V. Asgeirsson, C. Bauer and S. Grimme, Chem. Sci., 2017, 8, 4879.
     DOI: 10.1039/c7sc00601b
   * J. Koopman and S. Grimme, ACS Omega 2019, 4, 12, 15120-15133.
     DOI: 10.1021/acsomega.9b02011
   
   for metadynamics refer to:
   * S. Grimme, J. Chem. Theory Comput., 2019, 155, 2847-2862
     DOI: 10.1021/acs.jctc.9b00143
   
   for SPH calculations refer to:
   * S. Spicher and S. Grimme, J. Chem. Theory Comput., 2021, 17, 1701-1714
     DOI: 10.1021/acs.jctc.0c01306
   
   for ONIOM refer to:
   * C. Plett, A. Katbashev, S. Ehlert, S. Grimme, M. Bursch,
     Phys. Chem. Chem. Phys., 2023, 25, 17860-17868. DOI: 10.1039/D3CP02178E
   
   for DIPRO refer to:
   * J. Kohn, N. Gildemeister, S. Grimme, D. Fazzi, A. Hansen,
     J. Chem. Phys., 2023, just accepted.
   
   for PTB refer to:
   * S. Grimme, M. Mueller, A. Hansen, J. Chem. Phys., 2023, 158, 124111.
     DOI: 10.1063/5.0137838
   
   with help from (in alphabetical order)
   P. Atkinson, C. Bannwarth, F. Bohle, G. Brandenburg, E. Caldeweyher
   M. Checinski, S. Dohm, S. Ehlert, S. Ehrlich, I. Gerasimov, C. Hölzer
   A. Katbashev, J. Kohn, J. Koopman, C. Lavigne, S. Lehtola, F. März, M. Müller,
   F. Musil, H. Neugebauer, J. Pisarek, C. Plett, P. Pracht, F. Pultar,
   J. Seibert, P. Shushkov, S. Spicher, M. Stahn, M. Steiner, T. Strunk,
   J. Stückrath, T. Rose, and J. Unsleber
   
 * started run on 2026/07/07 at 06:27:02.075     
   ID    Z sym.   atoms
    1    6 C      1-7, 9, 11-21
    2    8 O      8, 10, 22
    3    1 H      23-48

           -------------------------------------------------
          |                Calculation Setup                |
           -------------------------------------------------

          program call               : /home/ws/xd2484/miniforge3/envs/p3z_dft/bin/xtb xtb_input.xyz --gfn 2 --opt tight --cycles 500 --chrg 0 --uhf 0
          hostname                   : gpu10
          coordinate file            : xtb_input.xyz
          omp threads                :                    16


           -------------------------------------------------
          |                 G F N 2 - x T B                 |
           -------------------------------------------------

        Reference                      10.1021/acs.jctc.8b01176
      * Hamiltonian:
        H0-scaling (s, p, d)           1.850000    2.230000    2.230000
        zeta-weighting                 0.500000
      * Dispersion:
        s8                             2.700000
        a1                             0.520000
        a2                             5.000000
        s9                             5.000000
      * Repulsion:
        kExp                           1.500000    1.000000
        rExp                           1.000000
      * Coulomb:
        alpha                          2.000000
        third order                    shell-resolved
        anisotropic                    true
        a3                             3.000000
        a5                             4.000000
        cn-shift                       1.200000
        cn-exp                         4.000000
        max-rad                        5.000000


          ...................................................
          :                      SETUP                      :
          :.................................................:
          :  # basis functions                 114          :
          :  # atomic orbitals                 114          :
          :  # shells                           70          :
          :  # electrons                       120          :
          :  max. iterations                   250          :
          :  Hamiltonian                  GFN2-xTB          :
          :  restarted?                      false          :
          :  GBSA solvation                  false          :
          :  PC potential                    false          :
          :  electronic temp.          300.0000000     K    :
          :  accuracy                    1.0000000          :
          :  -> integral cutoff          0.2500000E+02      :
          :  -> integral neglect         0.1000000E-07      :
          :  -> SCF convergence          0.1000000E-05 Eh   :
          :  -> wf. convergence          0.1000000E-03 e    :
          :  Broyden damping             0.4000000          :
          :  net charge                          0          :
          :  unpaired electrons                  0          :
          ...................................................

 iter      E             dE          RMSdq      gap      omega  full diag
   1    -66.8630669 -0.668631E+02  0.382E+00    3.43       0.0  T
   2    -66.9715518 -0.108485E+00  0.209E+00    2.70       1.0  T
   3    -66.9688790  0.267276E-02  0.131E+00    3.09       1.0  T
   4    -66.9886688 -0.197898E-01  0.472E-01    2.67       1.0  T
   5    -66.9954169 -0.674808E-02  0.144E-01    2.64       1.0  T
   6    -66.9960596 -0.642705E-03  0.563E-02    2.67       1.0  T
   7    -66.9960798 -0.202046E-04  0.369E-02    2.68       1.0  T
   8    -66.9961072 -0.274222E-04  0.110E-02    2.69       1.3  T
   9    -66.9961095 -0.225660E-05  0.444E-03    2.69       3.3  T
  10    -66.9961097 -0.231980E-06  0.192E-03    2.69       7.5  T
  11    -66.9961098 -0.751135E-07  0.105E-03    2.69      13.8  T
  12    -66.9961098 -0.238925E-07  0.438E-04    2.69      33.0  T
  13    -66.9961098 -0.158656E-08  0.120E-04    2.69     119.8  T

   *** convergence criteria satisfied after 13 iterations ***

         #    Occupation            Energy/Eh            Energy/eV
      -------------------------------------------------------------
         1        2.0000           -0.7473451             -20.3363
       ...           ...                  ...                  ...
        54        2.0000           -0.4269442             -11.6177
        55        2.0000           -0.4159891             -11.3196
        56        2.0000           -0.4123005             -11.2193
        57        2.0000           -0.4058121             -11.0427
        58        2.0000           -0.3997813             -10.8786
        59        2.0000           -0.3930953             -10.6967
        60        2.0000           -0.3806340             -10.3576 (HOMO)
        61                         -0.2818876              -7.6706 (LUMO)
        62                         -0.2429759              -6.6117
        63                         -0.2146611              -5.8412
        64                         -0.2033304              -5.5329
        65                         -0.1826333              -4.9697
       ...                                ...                  ...
       114                          0.6825719              18.5737
      -------------------------------------------------------------
                  HL-Gap            0.0987464 Eh            2.6870 eV
             Fermi-level           -0.3312608 Eh           -9.0141 eV

 SCC (total)                   0 d,  0 h,  0 min,  0.361 sec
 SCC setup                      ...        0 min,  0.007 sec (  1.837%)
 Dispersion                     ...        0 min,  0.014 sec (  3.877%)
 classical contributions        ...        0 min,  0.007 sec (  1.853%)
 integral evaluation            ...        0 min,  0.023 sec (  6.301%)
 iterations                     ...        0 min,  0.261 sec ( 72.300%)
 molecular gradient             ...        0 min,  0.050 sec ( 13.716%)
 printout                       ...        0 min,  0.000 sec (  0.106%)

         :::::::::::::::::::::::::::::::::::::::::::::::::::::
         ::                     SUMMARY                     ::
         :::::::::::::::::::::::::::::::::::::::::::::::::::::
         :: total energy             -66.086538503872 Eh    ::
         :: gradient norm              0.091741607871 Eh/a0 ::
         :: HOMO-LUMO gap              2.687025656795 eV    ::
         ::.................................................::
         :: SCC energy               -66.995475257366 Eh    ::
         :: -> isotropic ES            0.077948894934 Eh    ::
         :: -> anisotropic ES          0.009149827742 Eh    ::
         :: -> anisotropic XC          0.027847825320 Eh    ::
         :: -> dispersion             -0.044740368382 Eh    ::
         :: repulsion energy           0.908936753495 Eh    ::
         :: add. restraining           0.000000000000 Eh    ::
         :: total charge               0.000000000000 e     ::
         :::::::::::::::::::::::::::::::::::::::::::::::::::::

      ----------------------------------------------------------- 
     |                   =====================                   |
     |                        A N C O P T                        |
     |                   =====================                   |
     |               Approximate Normal Coordinate               |
     |                Rational Function Optimizer                |
      ----------------------------------------------------------- 
      ----------------------------------------------------------- 
     |                   =====================                   |
     |                        A N C O P T                        |
     |                   =====================                   |
     |               Approximate Normal Coordinate               |
     |                Rational Function Optimizer                |
      ----------------------------------------------------------- 

          ...................................................
          :                      SETUP                      :
          :.................................................:
          :   optimization level             tight          :
          :   max. optcycles                   500          :
          :   ANC micro-cycles                  20          :
          :   degrees of freedom               138          :
          :.................................................:
          :   RF solver                   davidson          :
          :   write xtbopt.log                true          :
          :   linear?                        false          :
          :   energy convergence         0.1000000E-05 Eh   :
          :   grad. convergence          0.8000000E-03 Eh/α :
          :   maxmium RF displ.          1.0000000          :
          :   Hlow (freq-cutoff)         0.1000000E-01      :
          :   Hmax (freq-cutoff)         5.0000000          :
          :   S6 in model hess.         20.0000000          :
          ...................................................

generating ANC from exact Hessian ...
Using Lindh-Hessian (1995)
 Shifting diagonal of input Hessian by    9.7835426731572913E-003
 Lowest  eigenvalues of input Hessian
    0.000000    0.000000    0.000000    0.000000    0.000000    0.000000
    0.010000    0.010097    0.010208    0.010516    0.010730    0.011204
    0.011593    0.011971    0.012639    0.013284    0.014189    0.015030
 Highest eigenvalues
    1.788402    1.849804    1.890594    1.902996    2.176251    2.276915


........................................................................
.............................. CYCLE    1 ..............................
........................................................................

 iter      E             dE          RMSdq      gap      omega  full diag
   1    -66.9961098 -0.669961E+02  0.475E-05    2.69       0.0  T
   2    -66.9961098 -0.179057E-10  0.270E-05    2.69     534.7  T
   3    -66.9961098 -0.153477E-11  0.175E-05    2.69     824.6  T
     SCC iter.                  ...        0 min,  0.049 sec
     gradient                   ...        0 min,  0.038 sec
 * total energy  :   -66.0865385 Eh     change       -0.2045368E-09 Eh
   gradient norm :     0.0917418 Eh/α   predicted     0.0000000E+00 (-100.00%)
   displ. norm   :     0.2644588 α      lambda       -0.1231696E-01
   maximum displ.:     0.0699715 α      in ANC's #13, #58, #12, ...

........................................................................
.............................. CYCLE    2 ..............................
........................................................................

 iter      E             dE          RMSdq      gap      omega  full diag
   1    -67.0325917 -0.670326E+02  0.207E-01    2.74       0.0  T
   2    -67.0327431 -0.151476E-03  0.123E-01    2.74       1.0  T
   3    -67.0327096  0.335398E-04  0.478E-02    2.72       1.0  T
   4    -67.0327493 -0.397441E-04  0.185E-02    2.73       1.0  T
   5    -67.0327630 -0.136909E-04  0.375E-03    2.74       3.8  T
   6    -67.0327632 -0.211263E-06  0.210E-03    2.74       6.9  T
   7    -67.0327633 -0.243237E-07  0.849E-04    2.74      17.0  T
   8    -67.0327633 -0.425008E-08  0.487E-04    2.74      29.6  T
     SCC iter.                  ...        0 min,  0.122 sec
     gradient                   ...        0 min,  0.038 sec
 * total energy  :   -66.0946115 Eh     change       -0.8072993E-02 Eh
   gradient norm :     0.0322825 Eh/α   predicted    -0.6593602E-02 ( -18.33%)
   displ. norm   :     0.2138464 α      lambda       -0.2475633E-02
   maximum displ.:     0.1018438 α      in ANC's #13, #12, #6, ...

........................................................................
.............................. CYCLE    3 ..............................
........................................................................

 iter      E             dE          RMSdq      gap      omega  full diag
   1    -67.0460907 -0.670461E+02  0.110E-01    2.78       0.0  T
   2    -67.0461349 -0.442013E-04  0.649E-02    2.77       1.0  T
   3    -67.0461297  0.516674E-05  0.227E-02    2.76       1.0  T
   4    -67.0461359 -0.621683E-05  0.877E-03    2.77       1.6  T
   5    -67.0461390 -0.309738E-05  0.193E-03    2.77       7.5  T
   6    -67.0461391 -0.599319E-07  0.962E-04    2.77      15.0  T
   7    -67.0461391 -0.711330E-08  0.497E-04    2.77      29.0  T
     SCC iter.                  ...        0 min,  0.113 sec
     gradient                   ...        0 min,  0.047 sec
 * total energy  :   -66.0960580 Eh     change       -0.1446536E-02 Eh
   gradient norm :     0.0075873 Eh/α   predicted    -0.1294870E-02 ( -10.48%)
   displ. norm   :     0.1693517 α      lambda       -0.4420468E-03
   maximum displ.:     0.0828289 α      in ANC's #13, #6, #12, ...

........................................................................
.............................. CYCLE    4 ..............................
........................................................................

 iter      E             dE          RMSdq      gap      omega  full diag
   1    -67.0464181 -0.670464E+02  0.504E-02    2.77       0.0  T
   2    -67.0464204 -0.234738E-05  0.297E-02    2.77       1.0  T
   3    -67.0464191  0.129329E-05  0.667E-03    2.77       2.2  T
   4    -67.0464205 -0.138068E-05  0.275E-03    2.77       5.3  T
   5    -67.0464208 -0.305461E-06  0.836E-04    2.77      17.3  T
   6    -67.0464208 -0.433506E-08  0.470E-04    2.77      30.7  T
     SCC iter.                  ...        0 min,  0.176 sec
     gradient                   ...        0 min,  0.048 sec
 * total energy  :   -66.0964081 Eh     change       -0.3501128E-03 Eh
   gradient norm :     0.0057714 Eh/α   predicted    -0.2273648E-03 ( -35.06%)
   displ. norm   :     0.3730667 α      lambda       -0.6816638E-03
   maximum displ.:     0.1746977 α      in ANC's #6, #13, #9, ...

........................................................................
.............................. CYCLE    5 ..............................
........................................................................

 iter      E             dE          RMSdq      gap      omega  full diag
   1    -67.0444374 -0.670444E+02  0.106E-01    2.76       0.0  T
   2    -67.0444438 -0.638318E-05  0.627E-02    2.76       1.0  T
   3    -67.0444370  0.675297E-05  0.139E-02    2.76       1.0  T
   4    -67.0444450 -0.798162E-05  0.441E-03    2.76       3.3  T
   5    -67.0444456 -0.596526E-06  0.189E-03    2.76       7.7  T
   6    -67.0444456 -0.363587E-07  0.918E-04    2.76      15.7  T
   7    -67.0444456 -0.104051E-07  0.424E-04    2.76      34.0  T
     SCC iter.                  ...        0 min,  0.195 sec
     gradient                   ...        0 min,  0.037 sec
 * total energy  :   -66.0968840 Eh     change       -0.4758593E-03 Eh
   gradient norm :     0.0096623 Eh/α   predicted    -0.3882782E-03 ( -18.40%)
   displ. norm   :     0.3482283 α      lambda       -0.4465436E-03
   maximum displ.:     0.1799654 α      in ANC's #6, #9, #5, ...

........................................................................
.............................. CYCLE    6 ..............................
........................................................................

 iter      E             dE          RMSdq      gap      omega  full diag
   1    -67.0429207 -0.670429E+02  0.932E-02    2.75       0.0  T
   2    -67.0429260 -0.524636E-05  0.553E-02    2.75       1.0  T
   3    -67.0429234  0.255134E-05  0.998E-03    2.76       1.4  T
   4    -67.0429272 -0.379620E-05  0.312E-03    2.76       4.6  T
   5    -67.0429274 -0.155241E-06  0.187E-03    2.76       7.7  T
   6    -67.0429274 -0.571412E-07  0.752E-04    2.76      19.2  T
   7    -67.0429274 -0.480748E-08  0.240E-04    2.76      60.2  T
     SCC iter.                  ...        0 min,  0.091 sec
     gradient                   ...        0 min,  0.031 sec
 * total energy  :   -66.0972034 Eh     change       -0.3193686E-03 Eh
   gradient norm :     0.0127510 Eh/α   predicted    -0.2503502E-03 ( -21.61%)
   displ. norm   :     0.3556450 α      lambda       -0.4782933E-03
   maximum displ.:     0.2010012 α      in ANC's #6, #9, #5, ...

........................................................................
.............................. CYCLE    7 ..............................
........................................................................

 iter      E             dE          RMSdq      gap      omega  full diag
   1    -67.0429651 -0.670430E+02  0.922E-02    2.74       0.0  T
   2    -67.0429696 -0.451172E-05  0.545E-02    2.75       1.0  T
   3    -67.0429679  0.164829E-05  0.858E-03    2.76       1.7  T
   4    -67.0429706 -0.272922E-05  0.302E-03    2.76       4.8  T
   5    -67.0429708 -0.153860E-06  0.185E-03    2.76       7.8  T
   6    -67.0429709 -0.576211E-07  0.776E-04    2.76      18.6  T
   7    -67.0429709 -0.486769E-08  0.279E-04    2.76      51.7  T
     SCC iter.                  ...        0 min,  0.074 sec
     gradient                   ...        0 min,  0.032 sec
 * total energy  :   -66.0975685 Eh     change       -0.3651744E-03 Eh
   gradient norm :     0.0128120 Eh/α   predicted    -0.2693952E-03 ( -26.23%)
   displ. norm   :     0.3995232 α      lambda       -0.6440075E-03
   maximum displ.:     0.2283057 α      in ANC's #6, #9, #19, ...

........................................................................
.............................. CYCLE    8 ..............................
........................................................................

 iter      E             dE          RMSdq      gap      omega  full diag
   1    -67.0459228 -0.670459E+02  0.916E-02    2.74       0.0  T
   2    -67.0459272 -0.437004E-05  0.537E-02    2.76       1.0  T
   3    -67.0459249  0.227850E-05  0.965E-03    2.76       1.5  T
   4    -67.0459281 -0.320738E-05  0.370E-03    2.76       3.9  T
   5    -67.0459285 -0.420061E-06  0.185E-03    2.76       7.8  T
   6    -67.0459286 -0.427319E-07  0.781E-04    2.76      18.5  T
   7    -67.0459286 -0.318803E-08  0.382E-04    2.76      37.8  T
     SCC iter.                  ...        0 min,  0.073 sec
     gradient                   ...        0 min,  0.030 sec
 * total energy  :   -66.0980414 Eh     change       -0.4728509E-03 Eh
   gradient norm :     0.0098935 Eh/α   predicted    -0.3734402E-03 ( -21.02%)
   displ. norm   :     0.4458814 α      lambda       -0.5654776E-03
   maximum displ.:     0.2564163 α      in ANC's #6, #9, #19, ...

........................................................................
.............................. CYCLE    9 ..............................
........................................................................

 iter      E             dE          RMSdq      gap      omega  full diag
   1    -67.0456394 -0.670456E+02  0.109E-01    2.76       0.0  T
   2    -67.0456523 -0.129260E-04  0.647E-02    2.78       1.0  T
   3    -67.0456519  0.368380E-06  0.919E-03    2.78       1.6  T
   4    -67.0456537 -0.177886E-05  0.399E-03    2.78       3.6  T
   5    -67.0456541 -0.404100E-06  0.219E-03    2.78       6.6  T
   6    -67.0456542 -0.645253E-07  0.941E-04    2.78      15.3  T
   7    -67.0456542 -0.770940E-08  0.305E-04    2.78      47.3  T
     SCC iter.                  ...        0 min,  0.075 sec
     gradient                   ...        0 min,  0.029 sec
 * total energy  :   -66.0984364 Eh     change       -0.3949846E-03 Eh
   gradient norm :     0.0157243 Eh/α   predicted    -0.3389512E-03 ( -14.19%)
   displ. norm   :     0.3793121 α      lambda       -0.7204443E-03
   maximum displ.:     0.2162532 α      in ANC's #6, #9, #19, ...

........................................................................
.............................. CYCLE   10 ..............................
........................................................................

 iter      E             dE          RMSdq      gap      omega  full diag
   1    -67.0512830 -0.670513E+02  0.806E-02    2.79       0.0  T
   2    -67.0513030 -0.200783E-04  0.479E-02    2.80       1.0  T
   3    -67.0513007  0.235777E-05  0.178E-02    2.80       1.0  T
   4    -67.0513063 -0.565521E-05  0.320E-03    2.80       4.5  T
   5    -67.0513065 -0.148917E-06  0.211E-03    2.80       6.8  T
   6    -67.0513066 -0.101703E-06  0.953E-04    2.80      15.1  T
   7    -67.0513066 -0.658747E-08  0.358E-04    2.80      40.4  T
     SCC iter.                  ...        0 min,  0.153 sec
     gradient                   ...        0 min,  0.040 sec
 * total energy  :   -66.0986925 Eh     change       -0.2561269E-03 Eh
   gradient norm :     0.0143080 Eh/α   predicted    -0.4120884E-03 (  60.89%)
   displ. norm   :     0.4389595 α      lambda       -0.6307292E-03
   maximum displ.:     0.2480226 α      in ANC's #6, #9, #19, ...

........................................................................
.............................. CYCLE   11 ..............................
........................................................................

 iter      E             dE          RMSdq      gap      omega  full diag
   1    -67.0452852 -0.670453E+02  0.111E-01    2.80       0.0  T
   2    -67.0453164 -0.312314E-04  0.670E-02    2.81       1.0  T
   3    -67.0453070  0.942850E-05  0.234E-02    2.82       1.0  T
   4    -67.0453218 -0.148046E-04  0.634E-03    2.82       2.3  T
   5    -67.0453228 -0.100983E-05  0.339E-03    2.82       4.3  T
   6    -67.0453231 -0.234933E-06  0.154E-03    2.82       9.4  T
   7    -67.0453231 -0.159317E-07  0.656E-04    2.82      22.0  T
   8    -67.0453231 -0.748832E-08  0.320E-04    2.82      45.2  T
     SCC iter.                  ...        0 min,  0.186 sec
     gradient                   ...        0 min,  0.037 sec
 * total energy  :   -66.0989897 Eh     change       -0.2972182E-03 Eh
   gradient norm :     0.0148805 Eh/α   predicted    -0.3761309E-03 (  26.55%)
   displ. norm   :     0.1077302 α      lambda       -0.2880291E-03
   maximum displ.:     0.0690310 α      in ANC's #5, #19, #13, ...

........................................................................
.............................. CYCLE   12 ..............................
........................................................................

 iter      E             dE          RMSdq      gap      omega  full diag
   1    -67.0476832 -0.670477E+02  0.292E-02    2.82       0.0  T
   2    -67.0476879 -0.469060E-05  0.177E-02    2.81       1.0  T
   3    -67.0476873  0.550635E-06  0.107E-02    2.81       1.3  T
   4    -67.0476889 -0.156427E-05  0.425E-03    2.81       3.4  T
   5    -67.0476897 -0.800821E-06  0.751E-04    2.81      19.2  T
   6    -67.0476897 -0.798858E-08  0.438E-04    2.81      32.9  T
     SCC iter.                  ...        0 min,  0.062 sec
     gradient                   ...        0 min,  0.029 sec
 * total energy  :   -66.0991958 Eh     change       -0.2060520E-03 Eh
   gradient norm :     0.0089818 Eh/α   predicted    -0.1456878E-03 ( -29.30%)
   displ. norm   :     0.3330917 α      lambda       -0.4215619E-03
   maximum displ.:     0.1762322 α      in ANC's #6, #9, #13, ...

........................................................................
.............................. CYCLE   13 ..............................
........................................................................

 iter      E             dE          RMSdq      gap      omega  full diag
   1    -67.0479529 -0.670480E+02  0.678E-02    2.81       0.0  T
   2    -67.0479561 -0.318282E-05  0.400E-02    2.81       1.0  T
   3    -67.0479395  0.165337E-04  0.202E-02    2.82       1.0  T
   4    -67.0479585 -0.189239E-04  0.300E-03    2.82       4.8  T
   5    -67.0479587 -0.201772E-06  0.141E-03    2.82      10.2  T
   6    -67.0479587 -0.229561E-08  0.626E-04    2.81      23.0  T
   7    -67.0479587 -0.465018E-08  0.261E-04    2.81      55.2  T
     SCC iter.                  ...        0 min,  0.072 sec
     gradient                   ...        0 min,  0.036 sec
 * total energy  :   -66.0995034 Eh     change       -0.3075721E-03 Eh
   gradient norm :     0.0070565 Eh/α   predicted    -0.2341684E-03 ( -23.87%)
   displ. norm   :     0.4597470 α      lambda       -0.4034872E-03
   maximum displ.:     0.2344382 α      in ANC's #6, #9, #5, ...

........................................................................
.............................. CYCLE   14 ..............................
........................................................................

 iter      E             dE          RMSdq      gap      omega  full diag
   1    -67.0472151 -0.670472E+02  0.995E-02    2.81       0.0  T
   2    -67.0472267 -0.115629E-04  0.584E-02    2.82       1.0  T
   3    -67.0472096  0.170834E-04  0.218E-02    2.82       1.0  T
   4    -67.0472287 -0.190732E-04  0.666E-03    2.82       2.2  T
   5    -67.0472304 -0.172175E-05  0.213E-03    2.82       6.8  T
   6    -67.0472304 -0.192784E-07  0.942E-04    2.82      15.3  T
   7    -67.0472304 -0.464155E-08  0.378E-04    2.82      38.2  T
     SCC iter.                  ...        0 min,  0.167 sec
     gradient                   ...        0 min,  0.034 sec
 * total energy  :   -66.0998063 Eh     change       -0.3029193E-03 Eh
   gradient norm :     0.0133874 Eh/α   predicted    -0.2443882E-03 ( -19.32%)
   displ. norm   :     0.4505061 α      lambda       -0.5384749E-03
   maximum displ.:     0.2457220 α      in ANC's #5, #6, #7, ...

........................................................................
.............................. CYCLE   15 ..............................
........................................................................

 iter      E             dE          RMSdq      gap      omega  full diag
   1    -67.0488002 -0.670488E+02  0.902E-02    2.82       0.0  T
   2    -67.0488061 -0.588015E-05  0.532E-02    2.82       1.0  T
   3    -67.0487977  0.839930E-05  0.151E-02    2.83       1.0  T
   4    -67.0488070 -0.938307E-05  0.497E-03    2.83       2.9  T
   5    -67.0488080 -0.925669E-06  0.173E-03    2.83       8.3  T
   6    -67.0488080 -0.111696E-07  0.870E-04    2.83      16.6  T
   7    -67.0488080 -0.458775E-08  0.341E-04    2.83      42.3  T
     SCC iter.                  ...        0 min,  0.091 sec
     gradient                   ...        0 min,  0.023 sec
 * total energy  :   -66.1001992 Eh     change       -0.3929679E-03 Eh
   gradient norm :     0.0068074 Eh/α   predicted    -0.3238819E-03 ( -17.58%)
   displ. norm   :     0.4822192 α      lambda       -0.4431459E-03
   maximum displ.:     0.2745914 α      in ANC's #5, #6, #7, ...

........................................................................
.............................. CYCLE   16 ..............................
........................................................................

 iter      E             dE          RMSdq      gap      omega  full diag
   1    -67.0476133 -0.670476E+02  0.109E-01    2.83       0.0  T
   2    -67.0476289 -0.155108E-04  0.636E-02    2.84       1.0  T
   3    -67.0476259  0.297892E-05  0.128E-02    2.84       1.1  T
   4    -67.0476293 -0.338406E-05  0.676E-03    2.84       2.1  T
   5    -67.0476311 -0.186845E-05  0.221E-03    2.84       6.5  T
   6    -67.0476312 -0.470579E-07  0.108E-03    2.84      13.3  T
   7    -67.0476312 -0.804008E-08  0.317E-04    2.84      45.6  T
   8    -67.0476312 -0.999023E-09  0.106E-04    2.84     136.7  T
     SCC iter.                  ...        0 min,  0.112 sec
     gradient                   ...        0 min,  0.036 sec
 * total energy  :   -66.1005169 Eh     change       -0.3176528E-03 Eh
   gradient norm :     0.0120866 Eh/α   predicted    -0.2731006E-03 ( -14.03%)
   displ. norm   :     0.4377962 α      lambda       -0.5632548E-03
   maximum displ.:     0.3306668 α      in ANC's #5, #4, #18, ...

........................................................................
.............................. CYCLE   17 ..............................
........................................................................

 iter      E             dE          RMSdq      gap      omega  full diag
   1    -67.0527848 -0.670528E+02  0.969E-02    2.85       0.0  T
   2    -67.0528050 -0.201884E-04  0.577E-02    2.84       1.0  T
   3    -67.0528011  0.390177E-05  0.193E-02    2.84       1.0  T
   4    -67.0528088 -0.762683E-05  0.269E-03    2.84       5.4  T
   5    -67.0528088 -0.599144E-07  0.192E-03    2.84       7.5  T
   6    -67.0528089 -0.705648E-07  0.928E-04    2.84      15.6  T
   7    -67.0528089 -0.578542E-08  0.280E-04    2.84      51.5  T
     SCC iter.                  ...        0 min,  0.100 sec
     gradient                   ...        0 min,  0.031 sec
 * total energy  :   -66.1007599 Eh     change       -0.2430222E-03 Eh
   gradient norm :     0.0121561 Eh/α   predicted    -0.3356122E-03 (  38.10%)
   displ. norm   :     0.4780675 α      lambda       -0.5111070E-03
   maximum displ.:     0.2910334 α      in ANC's #5, #6, #19, ...

........................................................................
.............................. CYCLE   18 ..............................
........................................................................

 iter      E             dE          RMSdq      gap      omega  full diag
   1    -67.0474233 -0.670474E+02  0.110E-01    2.84       0.0  T
   2    -67.0474631 -0.398326E-04  0.650E-02    2.86       1.0  T
   3    -67.0474588  0.426156E-05  0.262E-02    2.86       1.0  T
   4    -67.0474702 -0.113271E-04  0.526E-03    2.86       2.7  T
   5    -67.0474708 -0.589346E-06  0.315E-03    2.86       4.6  T
   6    -67.0474710 -0.216235E-06  0.147E-03    2.86       9.8  T
   7    -67.0474710 -0.215078E-08  0.558E-04    2.86      25.9  T
   8    -67.0474710 -0.102245E-07  0.219E-04    2.86      65.9  T
     SCC iter.                  ...        0 min,  0.125 sec
     gradient                   ...        0 min,  0.045 sec
 * total energy  :   -66.1010020 Eh     change       -0.2421163E-03 Eh
   gradient norm :     0.0116796 Eh/α   predicted    -0.3139618E-03 (  29.67%)
   displ. norm   :     0.1167242 α      lambda       -0.2116383E-03
   maximum displ.:     0.0654595 α      in ANC's #5, #9, #4, ...

........................................................................
.............................. CYCLE   19 ..............................
........................................................................

 iter      E             dE          RMSdq      gap      omega  full diag
   1    -67.0493265 -0.670493E+02  0.238E-02    2.87       0.0  T
   2    -67.0493300 -0.350157E-05  0.143E-02    2.87       1.0  T
   3    -67.0493301 -0.187543E-07  0.654E-03    2.86       2.2  T
   4    -67.0493305 -0.399429E-06  0.169E-03    2.86       8.6  T
   5    -67.0493305 -0.663397E-07  0.856E-04    2.86      16.9  T
   6    -67.0493306 -0.255718E-07  0.322E-04    2.86      44.8  T
     SCC iter.                  ...        0 min,  0.080 sec
     gradient                   ...        0 min,  0.037 sec
 * total energy  :   -66.1011598 Eh     change       -0.1577416E-03 Eh
   gradient norm :     0.0055001 Eh/α   predicted    -0.1072625E-03 ( -32.00%)
   displ. norm   :     0.3501828 α      lambda       -0.2366332E-03
   maximum displ.:     0.2327738 α      in ANC's #5, #4, #8, ...

........................................................................
.............................. CYCLE   20 ..............................
........................................................................

 iter      E             dE          RMSdq      gap      omega  full diag
   1    -67.0487495 -0.670487E+02  0.710E-02    2.87       0.0  T
   2    -67.0487537 -0.420421E-05  0.417E-02    2.87       1.0  T
   3    -67.0487474  0.633069E-05  0.132E-02    2.86       1.1  T
   4    -67.0487543 -0.686890E-05  0.423E-03    2.86       3.4  T
   5    -67.0487550 -0.745490E-06  0.127E-03    2.86      11.3  T
   6    -67.0487550 -0.126137E-07  0.741E-04    2.86      19.5  T
   7    -67.0487550 -0.330242E-08  0.359E-04    2.86      40.2  T
     SCC iter.                  ...        0 min,  0.087 sec
     gradient                   ...        0 min,  0.037 sec
 * total energy  :   -66.1013123 Eh     change       -0.1525676E-03 Eh
   gradient norm :     0.0045757 Eh/α   predicted    -0.1328286E-03 ( -12.94%)
   displ. norm   :     0.2290883 α      lambda       -0.1025819E-03
   maximum displ.:     0.1357996 α      in ANC's #5, #4, #2, ...
 * RMSD in coord.:     0.6729703 α      energy gain  -0.1477384E-01 Eh

generating ANC from exact Hessian ...
Using Lindh-Hessian (1995)
 Shifting diagonal of input Hessian by    9.7983230151359804E-003
 Lowest  eigenvalues of input Hessian
    0.000000    0.000000    0.000000    0.000000    0.000000    0.000000
    0.010000    0.010092    0.010345    0.010544    0.010836    0.011340
    0.011721    0.011872    0.012807    0.013095    0.014330    0.015457
 Highest eigenvalues
    1.846092    1.866101    1.954515    1.963561    2.250146    2.364522


........................................................................
.............................. CYCLE   21 ..............................
........................................................................

 iter      E             dE          RMSdq      gap      omega  full diag
   1    -67.0500743 -0.670501E+02  0.431E-02    2.88       0.0  T
   2    -67.0500759 -0.159103E-05  0.255E-02    2.88       1.0  T
   3    -67.0500751  0.807210E-06  0.499E-03    2.87       2.9  T
   4    -67.0500759 -0.809915E-06  0.251E-03    2.87       5.7  T
   5    -67.0500762 -0.277101E-06  0.780E-04    2.87      18.5  T
   6    -67.0500762 -0.486318E-08  0.393E-04    2.87      36.7  T
     SCC iter.                  ...        0 min,  0.075 sec
     gradient                   ...        0 min,  0.037 sec
 * total energy  :   -66.1013817 Eh     change       -0.6932249E-04 Eh
   gradient norm :     0.0042515 Eh/α   predicted     0.0000000E+00 (-100.00%)
   displ. norm   :     0.0467282 α      lambda       -0.4240798E-04
   maximum displ.:     0.0205887 α      in ANC's #3, #7, #11, ...

........................................................................
.............................. CYCLE   22 ..............................
........................................................................

 iter      E             dE          RMSdq      gap      omega  full diag
   1    -67.0504740 -0.670505E+02  0.177E-02    2.87       0.0  T
   2    -67.0504744 -0.432750E-06  0.106E-02    2.87       1.4  T
   3    -67.0504738  0.617549E-06  0.408E-03    2.87       3.5  T
   4    -67.0504745 -0.679660E-06  0.123E-03    2.87      11.7  T
   5    -67.0504746 -0.593366E-07  0.319E-04    2.87      45.3  T
   6    -67.0504746 -0.661785E-09  0.196E-04    2.87      73.6  T
     SCC iter.                  ...        0 min,  0.075 sec
     gradient                   ...        0 min,  0.028 sec
 * total energy  :   -66.1014254 Eh     change       -0.4378073E-04 Eh
   gradient norm :     0.0017955 Eh/α   predicted    -0.2687834E-04 ( -38.61%)
   displ. norm   :     0.2285074 α      lambda       -0.1089780E-03
   maximum displ.:     0.1025399 α      in ANC's #3, #7, #11, ...

........................................................................
.............................. CYCLE   23 ..............................
........................................................................

 iter      E             dE          RMSdq      gap      omega  full diag
   1    -67.0509701 -0.670510E+02  0.777E-02    2.85       0.0  T
   2    -67.0509746 -0.451623E-05  0.459E-02    2.86       1.0  T
   3    -67.0509689  0.572304E-05  0.122E-02    2.86       1.2  T
   4    -67.0509750 -0.610835E-05  0.430E-03    2.86       3.4  T
   5    -67.0509757 -0.750903E-06  0.124E-03    2.86      11.6  T
   6    -67.0509757 -0.557493E-08  0.704E-04    2.86      20.5  T
   7    -67.0509757 -0.297229E-08  0.356E-04    2.86      40.5  T
     SCC iter.                  ...        0 min,  0.115 sec
     gradient                   ...        0 min,  0.052 sec
 * total energy  :   -66.1015071 Eh     change       -0.8168194E-04 Eh
   gradient norm :     0.0062232 Eh/α   predicted    -0.5575563E-04 ( -31.74%)
   displ. norm   :     0.0738646 α      lambda       -0.4346647E-04
   maximum displ.:     0.0373176 α      in ANC's #3, #7, #11, ...

........................................................................
.............................. CYCLE   24 ..............................
........................................................................

 iter      E             dE          RMSdq      gap      omega  full diag
   1    -67.0509119 -0.670509E+02  0.236E-02    2.86       0.0  T
   2    -67.0509121 -0.196974E-06  0.139E-02    2.86       1.0  T
   3    -67.0509119  0.186630E-06  0.245E-03    2.86       5.9  T
   4    -67.0509122 -0.236454E-06  0.731E-04    2.86      19.8  T
   5    -67.0509122 -0.129858E-07  0.351E-04    2.86      41.2  T
     SCC iter.                  ...        0 min,  0.072 sec
     gradient                   ...        0 min,  0.048 sec
 * total energy  :   -66.1015456 Eh     change       -0.3842503E-04 Eh
   gradient norm :     0.0046060 Eh/α   predicted    -0.2185755E-04 ( -43.12%)
   displ. norm   :     0.2594688 α      lambda       -0.1308154E-03
   maximum displ.:     0.1292311 α      in ANC's #3, #7, #11, ...

........................................................................
.............................. CYCLE   25 ..............................
........................................................................

 iter      E             dE          RMSdq      gap      omega  full diag
   1    -67.0503182 -0.670503E+02  0.811E-02    2.87       0.0  T
   2    -67.0503200 -0.180469E-05  0.478E-02    2.87       1.0  T
   3    -67.0503173  0.269265E-05  0.894E-03    2.87       1.6  T
   4    -67.0503206 -0.327560E-05  0.238E-03    2.87       6.1  T
   5    -67.0503207 -0.136481E-06  0.117E-03    2.87      12.4  T
   6    -67.0503207 -0.740171E-08  0.561E-04    2.87      25.7  T
   7    -67.0503207 -0.324582E-08  0.289E-04    2.87      49.9  T
     SCC iter.                  ...        0 min,  0.088 sec
     gradient                   ...        0 min,  0.029 sec
 * total energy  :   -66.1016263 Eh     change       -0.8074696E-04 Eh
   gradient norm :     0.0021308 Eh/α   predicted    -0.6981157E-04 ( -13.54%)
   displ. norm   :     0.1207389 α      lambda       -0.2763785E-04
   maximum displ.:     0.0633476 α      in ANC's #3, #7, #2, ...

........................................................................
.............................. CYCLE   26 ..............................
........................................................................

 iter      E             dE          RMSdq      gap      omega  full diag
   1    -67.0503770 -0.670504E+02  0.351E-02    2.88       0.0  T
   2    -67.0503773 -0.257197E-06  0.207E-02    2.88       1.0  T
   3    -67.0503766  0.654763E-06  0.414E-03    2.88       3.5  T
   4    -67.0503774 -0.766578E-06  0.102E-03    2.88      14.2  T
   5    -67.0503774 -0.270118E-07  0.509E-04    2.88      28.4  T
   6    -67.0503774 -0.116505E-08  0.192E-04    2.88      75.3  T
     SCC iter.                  ...        0 min,  0.090 sec
     gradient                   ...        0 min,  0.045 sec
 * total energy  :   -66.1016470 Eh     change       -0.2066970E-04 Eh
   gradient norm :     0.0024306 Eh/α   predicted    -0.1402359E-04 ( -32.15%)
   displ. norm   :     0.1484259 α      lambda       -0.3453904E-04
   maximum displ.:     0.0790685 α      in ANC's #3, #7, #5, ...

........................................................................
.............................. CYCLE   27 ..............................
........................................................................

 iter      E             dE          RMSdq      gap      omega  full diag
   1    -67.0508916 -0.670509E+02  0.403E-02    2.88       0.0  T
   2    -67.0508919 -0.320223E-06  0.237E-02    2.88       1.0  T
   3    -67.0508899  0.200358E-05  0.678E-03    2.88       2.1  T
   4    -67.0508921 -0.223631E-05  0.116E-03    2.88      12.4  T
   5    -67.0508922 -0.340997E-07  0.569E-04    2.88      25.3  T
   6    -67.0508922 -0.108743E-08  0.186E-04    2.88      77.6  T
     SCC iter.                  ...        0 min,  0.105 sec
     gradient                   ...        0 min,  0.033 sec
 * total energy  :   -66.1016725 Eh     change       -0.2555566E-04 Eh
   gradient norm :     0.0019437 Eh/α   predicted    -0.1765252E-04 ( -30.93%)
   displ. norm   :     0.2156253 α      lambda       -0.3071017E-04
   maximum displ.:     0.1131007 α      in ANC's #3, #5, #7, ...

........................................................................
.............................. CYCLE   28 ..............................
........................................................................

 iter      E             dE          RMSdq      gap      omega  full diag
   1    -67.0513708 -0.670514E+02  0.500E-02    2.88       0.0  T
   2    -67.0513715 -0.677697E-06  0.295E-02    2.89       1.0  T
   3    -67.0513668  0.469237E-05  0.104E-02    2.89       1.4  T
   4    -67.0513720 -0.520351E-05  0.156E-03    2.89       9.3  T
   5    -67.0513721 -0.629739E-07  0.728E-04    2.89      19.8  T
   6    -67.0513721 -0.177342E-08  0.309E-04    2.89      46.7  T
     SCC iter.                  ...        0 min,  0.078 sec
     gradient                   ...        0 min,  0.036 sec
 * total energy  :   -66.1017028 Eh     change       -0.3031526E-04 Eh
   gradient norm :     0.0019157 Eh/α   predicted    -0.1567272E-04 ( -48.30%)
   displ. norm   :     0.1769451 α      lambda       -0.2531436E-04
   maximum displ.:     0.0950047 α      in ANC's #5, #3, #7, ...

........................................................................
.............................. CYCLE   29 ..............................
........................................................................

 iter      E             dE          RMSdq      gap      omega  full diag
   1    -67.0509457 -0.670509E+02  0.382E-02    2.89       0.0  T
   2    -67.0509462 -0.460345E-06  0.225E-02    2.89       1.0  T
   3    -67.0509435  0.265500E-05  0.779E-03    2.89       1.9  T
   4    -67.0509465 -0.293378E-05  0.119E-03    2.89      12.1  T
   5    -67.0509465 -0.395723E-07  0.524E-04    2.89      27.5  T
   6    -67.0509465 -0.882778E-09  0.223E-04    2.89      64.7  T
     SCC iter.                  ...        0 min,  0.093 sec
     gradient                   ...        0 min,  0.045 sec
 * total energy  :   -66.1017312 Eh     change       -0.2831842E-04 Eh
   gradient norm :     0.0021368 Eh/α   predicted    -0.1283481E-04 ( -54.68%)
   displ. norm   :     0.1381145 α      lambda       -0.3668634E-04
   maximum displ.:     0.0836835 α      in ANC's #5, #3, #8, ...

........................................................................
.............................. CYCLE   30 ..............................
........................................................................

 iter      E             dE          RMSdq      gap      omega  full diag
   1    -67.0513013 -0.670513E+02  0.210E-02    2.89       0.0  T
   2    -67.0513015 -0.173941E-06  0.125E-02    2.89       1.2  T
   3    -67.0513008  0.714709E-06  0.409E-03    2.89       3.5  T
   4    -67.0513016 -0.783623E-06  0.795E-04    2.89      18.2  T
   5    -67.0513016 -0.232546E-07  0.269E-04    2.89      53.7  T
     SCC iter.                  ...        0 min,  0.068 sec
     gradient                   ...        0 min,  0.046 sec
 * total energy  :   -66.1017608 Eh     change       -0.2967118E-04 Eh
   gradient norm :     0.0025283 Eh/α   predicted    -0.1869385E-04 ( -37.00%)
   displ. norm   :     0.2460959 α      lambda       -0.5291088E-04
   maximum displ.:     0.1434421 α      in ANC's #5, #3, #16, ...

........................................................................
.............................. CYCLE   31 ..............................
........................................................................

 iter      E             dE          RMSdq      gap      omega  full diag
   1    -67.0499928 -0.670500E+02  0.419E-02    2.89       0.0  T
   2    -67.0499933 -0.478865E-06  0.247E-02    2.89       1.0  T
   3    -67.0499901  0.319868E-05  0.876E-03    2.89       1.6  T
   4    -67.0499936 -0.352923E-05  0.119E-03    2.89      12.1  T
   5    -67.0499937 -0.378998E-07  0.555E-04    2.89      26.0  T
   6    -67.0499937 -0.931578E-09  0.326E-04    2.89      44.3  T
     SCC iter.                  ...        0 min,  0.101 sec
     gradient                   ...        0 min,  0.050 sec
 * total energy  :   -66.1017998 Eh     change       -0.3902055E-04 Eh
   gradient norm :     0.0019572 Eh/α   predicted    -0.2806876E-04 ( -28.07%)
   displ. norm   :     0.3291496 α      lambda       -0.3970513E-04
   maximum displ.:     0.2021701 α      in ANC's #5, #3, #4, ...

........................................................................
.............................. CYCLE   32 ..............................
........................................................................

 iter      E             dE          RMSdq      gap      omega  full diag
   1    -67.0491804 -0.670492E+02  0.541E-02    2.90       0.0  T
   2    -67.0491808 -0.433921E-06  0.321E-02    2.90       1.0  T
   3    -67.0491756  0.518982E-05  0.108E-02    2.90       1.3  T
   4    -67.0491813 -0.570025E-05  0.123E-03    2.90      11.7  T
   5    -67.0491813 -0.331968E-07  0.626E-04    2.90      23.0  T
   6    -67.0491813 -0.154782E-08  0.250E-04    2.90      57.8  T
     SCC iter.                  ...        0 min,  0.102 sec
     gradient                   ...        0 min,  0.041 sec
 * total energy  :   -66.1018408 Eh     change       -0.4090771E-04 Eh
   gradient norm :     0.0024908 Eh/α   predicted    -0.2081681E-04 ( -49.11%)
   displ. norm   :     0.1784998 α      lambda       -0.4115200E-04
   maximum displ.:     0.1101510 α      in ANC's #5, #3, #4, ...

........................................................................
.............................. CYCLE   33 ..............................
........................................................................

 iter      E             dE          RMSdq      gap      omega  full diag
   1    -67.0495416 -0.670495E+02  0.318E-02    2.90       0.0  T
   2    -67.0495417 -0.122468E-06  0.189E-02    2.90       1.0  T
   3    -67.0495403  0.140853E-05  0.554E-03    2.90       2.6  T
   4    -67.0495419 -0.154643E-05  0.598E-04    2.90      24.2  T
   5    -67.0495419 -0.458137E-08  0.319E-04    2.90      45.3  T
   6    -67.0495419 -0.455486E-09  0.131E-04    2.90     109.8  T
     SCC iter.                  ...        0 min,  0.078 sec
     gradient                   ...        0 min,  0.033 sec
 * total energy  :   -66.1018777 Eh     change       -0.3692014E-04 Eh
   gradient norm :     0.0023419 Eh/α   predicted    -0.2123416E-04 ( -42.49%)
   displ. norm   :     0.5280348 α      lambda       -0.1308076E-03
   maximum displ.:     0.3163292 α      in ANC's #5, #3, #4, ...

........................................................................
.............................. CYCLE   34 ..............................
........................................................................

 iter      E             dE          RMSdq      gap      omega  full diag
   1    -67.0483361 -0.670483E+02  0.979E-02    2.91       0.0  T
   2    -67.0483368 -0.732995E-06  0.581E-02    2.91       1.0  T
   3    -67.0483197  0.171342E-04  0.193E-02    2.91       1.0  T
   4    -67.0483384 -0.187257E-04  0.162E-03    2.91       8.9  T
   5    -67.0483384 -0.169217E-07  0.927E-04    2.91      15.6  T
   6    -67.0483384 -0.204523E-08  0.403E-04    2.91      35.8  T
     SCC iter.                  ...        0 min,  0.072 sec
     gradient                   ...        0 min,  0.027 sec
 * total energy  :   -66.1019790 Eh     change       -0.1013674E-03 Eh
   gradient norm :     0.0042362 Eh/α   predicted    -0.8364519E-04 ( -17.48%)
   displ. norm   :     0.3990293 α      lambda       -0.1388463E-03
   maximum displ.:     0.2215354 α      in ANC's #5, #4, #3, ...

........................................................................
.............................. CYCLE   35 ..............................
........................................................................

 iter      E             dE          RMSdq      gap      omega  full diag
   1    -67.0503211 -0.670503E+02  0.779E-02    2.91       0.0  T
   2    -67.0503220 -0.874044E-06  0.462E-02    2.91       1.0  T
   3    -67.0503160  0.595021E-05  0.112E-02    2.91       1.3  T
   4    -67.0503226 -0.659834E-05  0.161E-03    2.91       9.0  T
   5    -67.0503227 -0.422990E-07  0.857E-04    2.91      16.8  T
   6    -67.0503227 -0.504457E-09  0.442E-04    2.91      32.7  T
     SCC iter.                  ...        0 min,  0.075 sec
     gradient                   ...        0 min,  0.033 sec
 * total energy  :   -66.1020675 Eh     change       -0.8846643E-04 Eh
   gradient norm :     0.0048573 Eh/α   predicted    -0.8048294E-04 (  -9.02%)
   displ. norm   :     0.4616158 α      lambda       -0.1075281E-03
   maximum displ.:     0.2424065 α      in ANC's #5, #3, #7, ...

........................................................................
.............................. CYCLE   36 ..............................
........................................................................

 iter      E             dE          RMSdq      gap      omega  full diag
   1    -67.0460489 -0.670460E+02  0.937E-02    2.92       0.0  T
   2    -67.0460504 -0.146527E-05  0.556E-02    2.92       1.0  T
   3    -67.0460294  0.209856E-04  0.221E-02    2.92       1.0  T
   4    -67.0460524 -0.230261E-04  0.210E-03    2.92       6.9  T
   5    -67.0460525 -0.951754E-07  0.104E-03    2.92      13.9  T
   6    -67.0460525 -0.385747E-08  0.619E-04    2.92      23.3  T
   7    -67.0460525 -0.609242E-08  0.225E-04    2.92      64.1  T
     SCC iter.                  ...        0 min,  0.103 sec
     gradient                   ...        0 min,  0.053 sec
 * total energy  :   -66.1021154 Eh     change       -0.4793380E-04 Eh
   gradient norm :     0.0062894 Eh/α   predicted    -0.6522168E-04 (  36.07%)
   displ. norm   :     0.1573326 α      lambda       -0.1537880E-03
   maximum displ.:     0.0749378 α      in ANC's #8, #6, #9, ...

........................................................................
.............................. CYCLE   37 ..............................
........................................................................

 iter      E             dE          RMSdq      gap      omega  full diag
   1    -67.0527495 -0.670527E+02  0.390E-02    2.93       0.0  T
   2    -67.0527515 -0.206462E-05  0.227E-02    2.93       1.0  T
   3    -67.0527505  0.102674E-05  0.664E-03    2.94       2.2  T
   4    -67.0527517 -0.119594E-05  0.235E-03    2.94       6.2  T
   5    -67.0527519 -0.192809E-06  0.813E-04    2.94      17.7  T
   6    -67.0527519 -0.925132E-08  0.391E-04    2.94      36.9  T
     SCC iter.                  ...        0 min,  0.081 sec
     gradient                   ...        0 min,  0.042 sec
 * total energy  :   -66.1021394 Eh     change       -0.2393072E-04 Eh
   gradient norm :     0.0062123 Eh/α   predicted    -0.7879959E-04 ( 229.28%)
   displ. norm   :     0.1688397 α      lambda       -0.9987033E-04
   maximum displ.:     0.0927460 α      in ANC's #5, #4, #3, ...

........................................................................
.............................. CYCLE   38 ..............................
........................................................................

 iter      E             dE          RMSdq      gap      omega  full diag
   1    -67.0506668 -0.670507E+02  0.348E-02    2.93       0.0  T
   2    -67.0506683 -0.144142E-05  0.206E-02    2.93       1.0  T
   3    -67.0506667  0.156929E-05  0.665E-03    2.93       2.2  T
   4    -67.0506684 -0.174342E-05  0.213E-03    2.93       6.8  T
   5    -67.0506686 -0.187313E-06  0.679E-04    2.93      21.2  T
   6    -67.0506686 -0.452052E-08  0.360E-04    2.93      40.1  T
     SCC iter.                  ...        0 min,  0.146 sec
     gradient                   ...        0 min,  0.031 sec
 * total energy  :   -66.1021949 Eh     change       -0.5550701E-04 Eh
   gradient norm :     0.0019596 Eh/α   predicted    -0.5135995E-04 (  -7.47%)
   displ. norm   :     0.2559979 α      lambda       -0.3082184E-04
   maximum displ.:     0.1335646 α      in ANC's #3, #5, #4, ...

........................................................................
.............................. CYCLE   39 ..............................
........................................................................

 iter      E             dE          RMSdq      gap      omega  full diag
   1    -67.0476419 -0.670476E+02  0.556E-02    2.93       0.0  T
   2    -67.0476425 -0.615261E-06  0.330E-02    2.93       1.0  T
   3    -67.0476355  0.696987E-05  0.127E-02    2.93       1.1  T
   4    -67.0476432 -0.763996E-05  0.123E-03    2.93      11.8  T
   5    -67.0476432 -0.351813E-07  0.600E-04    2.93      24.1  T
   6    -67.0476432 -0.120957E-08  0.383E-04    2.93      37.7  T
     SCC iter.                  ...        0 min,  0.126 sec
     gradient                   ...        0 min,  0.049 sec
 * total energy  :   -66.1022145 Eh     change       -0.1966202E-04 Eh
   gradient norm :     0.0038476 Eh/α   predicted    -0.1586106E-04 ( -19.33%)
   displ. norm   :     0.0766059 α      lambda       -0.3640957E-04
   maximum displ.:     0.0444954 α      in ANC's #3, #4, #1, ...

........................................................................
.............................. CYCLE   40 ..............................
........................................................................

 iter      E             dE          RMSdq      gap      omega  full diag
   1    -67.0488990 -0.670489E+02  0.185E-02    2.93       0.0  T
   2    -67.0488991 -0.726933E-07  0.109E-02    2.93       1.3  T
   3    -67.0488991  0.566545E-07  0.144E-03    2.93      10.1  T
   4    -67.0488991 -0.756814E-07  0.489E-04    2.93      29.5  T
   5    -67.0488991 -0.576273E-08  0.234E-04    2.93      61.7  T
     SCC iter.                  ...        0 min,  0.077 sec
     gradient                   ...        0 min,  0.044 sec
 * total energy  :   -66.1022452 Eh     change       -0.3065958E-04 Eh
   gradient norm :     0.0028553 Eh/α   predicted    -0.1831301E-04 ( -40.27%)
   displ. norm   :     0.2642841 α      lambda       -0.8035355E-04
   maximum displ.:     0.1538384 α      in ANC's #3, #4, #7, ...

........................................................................
.............................. CYCLE   41 ..............................
........................................................................

 iter      E             dE          RMSdq      gap      omega  full diag
   1    -67.0509708 -0.670510E+02  0.675E-02    2.94       0.0  T
   2    -67.0509712 -0.471794E-06  0.399E-02    2.94       1.0  T
   3    -67.0509701  0.115974E-05  0.541E-03    2.94       2.7  T
   4    -67.0509714 -0.136677E-05  0.135E-03    2.94      10.7  T
   5    -67.0509715 -0.425221E-07  0.668E-04    2.94      21.6  T
   6    -67.0509715 -0.631474E-09  0.285E-04    2.94      50.6  T
     SCC iter.                  ...        0 min,  0.084 sec
     gradient                   ...        0 min,  0.035 sec
 * total energy  :   -66.1023001 Eh     change       -0.5486547E-04 Eh
   gradient norm :     0.0024580 Eh/α   predicted    -0.4298514E-04 ( -21.65%)
   displ. norm   :     0.3180176 α      lambda       -0.4879714E-04
   maximum displ.:     0.1807387 α      in ANC's #3, #4, #7, ...

........................................................................
.............................. CYCLE   42 ..............................
........................................................................

 iter      E             dE          RMSdq      gap      omega  full diag
   1    -67.0505406 -0.670505E+02  0.734E-02    2.94       0.0  T
   2    -67.0505410 -0.348487E-06  0.435E-02    2.94       1.0  T
   3    -67.0505363  0.469980E-05  0.101E-02    2.94       1.4  T
   4    -67.0505415 -0.518657E-05  0.114E-03    2.94      12.7  T
   5    -67.0505415 -0.952291E-08  0.619E-04    2.94      23.3  T
   6    -67.0505415 -0.129806E-08  0.197E-04    2.94      73.4  T
     SCC iter.                  ...        0 min,  0.069 sec
     gradient                   ...        0 min,  0.028 sec
 * total energy  :   -66.1023362 Eh     change       -0.3613914E-04 Eh
   gradient norm :     0.0029271 Eh/α   predicted    -0.2687160E-04 ( -25.64%)
   displ. norm   :     0.3475958 α      lambda       -0.5935875E-04
   maximum displ.:     0.1962418 α      in ANC's #3, #4, #1, ...
 * RMSD in coord.:     0.6215298 α      energy gain  -0.1023867E-02 Eh

generating ANC from exact Hessian ...
Using Lindh-Hessian (1995)
 Shifting diagonal of input Hessian by    9.7930245425702327E-003
 Lowest  eigenvalues of input Hessian
    0.000000    0.000000    0.000000    0.000000    0.000000    0.000000
    0.010000    0.010078    0.010332    0.010589    0.010888    0.011294
    0.011702    0.011814    0.012818    0.013154    0.014293    0.015346
 Highest eigenvalues
    1.846604    1.869290    1.948389    1.961982    2.246510    2.365460


........................................................................
.............................. CYCLE   43 ..............................
........................................................................

 iter      E             dE          RMSdq      gap      omega  full diag
   1    -67.0507605 -0.670508E+02  0.875E-02    2.94       0.0  T
   2    -67.0507611 -0.634670E-06  0.518E-02    2.94       1.0  T
   3    -67.0507576  0.352523E-05  0.883E-03    2.94       1.6  T
   4    -67.0507616 -0.393464E-05  0.140E-03    2.94      10.3  T
   5    -67.0507616 -0.418767E-07  0.705E-04    2.94      20.5  T
   6    -67.0507616 -0.198425E-08  0.246E-04    2.94      58.7  T
     SCC iter.                  ...        0 min,  0.062 sec
     gradient                   ...        0 min,  0.025 sec
 * total energy  :   -66.1023724 Eh     change       -0.3616820E-04 Eh
   gradient norm :     0.0029390 Eh/α   predicted     0.0000000E+00 (-100.00%)
   displ. norm   :     0.0282503 α      lambda       -0.2006485E-04
   maximum displ.:     0.0122985 α      in ANC's #10, #9, #4, ...

........................................................................
.............................. CYCLE   44 ..............................
........................................................................

 iter      E             dE          RMSdq      gap      omega  full diag
   1    -67.0509855 -0.670510E+02  0.802E-03    2.94       0.0  T
   2    -67.0509857 -0.181985E-06  0.475E-03    2.94       3.0  T
   3    -67.0509857  0.560010E-08  0.112E-03    2.94      12.9  T
   4    -67.0509857 -0.101680E-07  0.408E-04    2.94      35.4  T
   5    -67.0509857 -0.556290E-08  0.155E-04    2.94      93.1  T
     SCC iter.                  ...        0 min,  0.063 sec
     gradient                   ...        0 min,  0.029 sec
 * total energy  :   -66.1023894 Eh     change       -0.1700888E-04 Eh
   gradient norm :     0.0012067 Eh/α   predicted    -0.1137132E-04 ( -33.14%)
   displ. norm   :     0.0987696 α      lambda       -0.2741962E-04
   maximum displ.:     0.0405760 α      in ANC's #9, #10, #1, ...

........................................................................
.............................. CYCLE   45 ..............................
........................................................................

 iter      E             dE          RMSdq      gap      omega  full diag
   1    -67.0513585 -0.670514E+02  0.228E-02    2.94       0.0  T
   2    -67.0513593 -0.826975E-06  0.135E-02    2.95       1.1  T
   3    -67.0513592  0.791217E-07  0.248E-03    2.94       5.8  T
   4    -67.0513593 -0.707740E-07  0.125E-03    2.94      11.6  T
   5    -67.0513593 -0.630405E-07  0.350E-04    2.94      41.2  T
   6    -67.0513593 -0.183547E-08  0.173E-04    2.94      83.5  T
     SCC iter.                  ...        0 min,  0.053 sec
     gradient                   ...        0 min,  0.022 sec
 * total energy  :   -66.1024089 Eh     change       -0.1948197E-04 Eh
   gradient norm :     0.0028106 Eh/α   predicted    -0.1377011E-04 ( -29.32%)
   displ. norm   :     0.0453548 α      lambda       -0.1538482E-04
   maximum displ.:     0.0203011 α      in ANC's #1, #9, #4, ...

........................................................................
.............................. CYCLE   46 ..............................
........................................................................

 iter      E             dE          RMSdq      gap      omega  full diag
   1    -67.0512860 -0.670513E+02  0.107E-02    2.94       0.0  T
   2    -67.0512860 -0.377032E-07  0.630E-03    2.94       2.3  T
   3    -67.0512860  0.518456E-07  0.119E-03    2.94      12.2  T
   4    -67.0512860 -0.593206E-07  0.379E-04    2.94      38.0  T
   5    -67.0512860 -0.506506E-08  0.139E-04    2.94     103.8  T
     SCC iter.                  ...        0 min,  0.059 sec
     gradient                   ...        0 min,  0.027 sec
 * total energy  :   -66.1024210 Eh     change       -0.1213715E-04 Eh
   gradient norm :     0.0022417 Eh/α   predicted    -0.7712373E-05 ( -36.46%)
   displ. norm   :     0.1174631 α      lambda       -0.3252002E-04
   maximum displ.:     0.0551175 α      in ANC's #1, #4, #9, ...

........................................................................
.............................. CYCLE   47 ..............................
........................................................................

 iter      E             dE          RMSdq      gap      omega  full diag
   1    -67.0509129 -0.670509E+02  0.259E-02    2.94       0.0  T
   2    -67.0509131 -0.211767E-06  0.153E-02    2.94       1.0  T
   3    -67.0509130  0.850294E-07  0.179E-03    2.94       8.1  T
   4    -67.0509131 -0.123073E-06  0.559E-04    2.94      25.8  T
   5    -67.0509131 -0.569339E-08  0.313E-04    2.94      46.1  T
     SCC iter.                  ...        0 min,  0.052 sec
     gradient                   ...        0 min,  0.027 sec
 * total energy  :   -66.1024442 Eh     change       -0.2322089E-04 Eh
   gradient norm :     0.0014142 Eh/α   predicted    -0.1648616E-04 ( -29.00%)
   displ. norm   :     0.1921743 α      lambda       -0.2358672E-04
   maximum displ.:     0.0948439 α      in ANC's #1, #4, #14, ...

........................................................................
.............................. CYCLE   48 ..............................
........................................................................

 iter      E             dE          RMSdq      gap      omega  full diag
   1    -67.0502577 -0.670503E+02  0.417E-02    2.94       0.0  T
   2    -67.0502580 -0.279599E-06  0.246E-02    2.94       1.0  T
   3    -67.0502578  0.129847E-06  0.220E-03    2.94       6.6  T
   4    -67.0502580 -0.183676E-06  0.812E-04    2.94      17.8  T
   5    -67.0502580 -0.185004E-07  0.434E-04    2.94      33.2  T
     SCC iter.                  ...        0 min,  0.055 sec
     gradient                   ...        0 min,  0.027 sec
 * total energy  :   -66.1024664 Eh     change       -0.2216814E-04 Eh
   gradient norm :     0.0031895 Eh/α   predicted    -0.1198728E-04 ( -45.93%)
   displ. norm   :     0.0914404 α      lambda       -0.2320360E-04
   maximum displ.:     0.0487430 α      in ANC's #1, #4, #14, ...

........................................................................
.............................. CYCLE   49 ..............................
........................................................................

 iter      E             dE          RMSdq      gap      omega  full diag
   1    -67.0503827 -0.670504E+02  0.197E-02    2.94       0.0  T
   2    -67.0503827 -0.498330E-07  0.117E-02    2.94       1.2  T
   3    -67.0503826  0.950915E-07  0.153E-03    2.94       9.5  T
   4    -67.0503827 -0.105336E-06  0.449E-04    2.94      32.2  T
   5    -67.0503827 -0.749479E-08  0.155E-04    2.94      93.3  T
     SCC iter.                  ...        0 min,  0.113 sec
     gradient                   ...        0 min,  0.041 sec
 * total energy  :   -66.1024874 Eh     change       -0.2103428E-04 Eh
   gradient norm :     0.0030077 Eh/α   predicted    -0.1170170E-04 ( -44.37%)
   displ. norm   :     0.2975602 α      lambda       -0.7898051E-04
   maximum displ.:     0.1593361 α      in ANC's #1, #14, #4, ...

........................................................................
.............................. CYCLE   50 ..............................
........................................................................

 iter      E             dE          RMSdq      gap      omega  full diag
   1    -67.0501054 -0.670501E+02  0.638E-02    2.94       0.0  T
   2    -67.0501059 -0.451352E-06  0.378E-02    2.94       1.0  T
   3    -67.0501049  0.100053E-05  0.496E-03    2.94       2.9  T
   4    -67.0501060 -0.113204E-05  0.129E-03    2.94      11.2  T
   5    -67.0501061 -0.546615E-07  0.504E-04    2.94      28.6  T
   6    -67.0501061 -0.178403E-08  0.182E-04    2.94      79.4  T
     SCC iter.                  ...        0 min,  0.073 sec
     gradient                   ...        0 min,  0.028 sec
 * total energy  :   -66.1025456 Eh     change       -0.5812691E-04 Eh
   gradient norm :     0.0028022 Eh/α   predicted    -0.4298933E-04 ( -26.04%)
   displ. norm   :     0.2504338 α      lambda       -0.5172428E-04
   maximum displ.:     0.1403306 α      in ANC's #1, #4, #14, ...

........................................................................
.............................. CYCLE   51 ..............................
........................................................................

 iter      E             dE          RMSdq      gap      omega  full diag
   1    -67.0498968 -0.670499E+02  0.538E-02    2.94       0.0  T
   2    -67.0498971 -0.277577E-06  0.318E-02    2.94       1.0  T
   3    -67.0498968  0.273238E-06  0.288E-03    2.94       5.0  T
   4    -67.0498972 -0.346457E-06  0.971E-04    2.94      14.9  T
   5    -67.0498972 -0.251083E-07  0.419E-04    2.94      34.4  T
     SCC iter.                  ...        0 min,  0.063 sec
     gradient                   ...        0 min,  0.027 sec
 * total energy  :   -66.1025836 Eh     change       -0.3802130E-04 Eh
   gradient norm :     0.0028431 Eh/α   predicted    -0.2750142E-04 ( -27.67%)
   displ. norm   :     0.2057229 α      lambda       -0.4638813E-04
   maximum displ.:     0.1227309 α      in ANC's #1, #4, #14, ...

........................................................................
.............................. CYCLE   52 ..............................
........................................................................

 iter      E             dE          RMSdq      gap      omega  full diag
   1    -67.0507479 -0.670507E+02  0.444E-02    2.94       0.0  T
   2    -67.0507482 -0.345232E-06  0.262E-02    2.94       1.0  T
   3    -67.0507482  0.522454E-07  0.187E-03    2.94       7.7  T
   4    -67.0507483 -0.964616E-07  0.906E-04    2.94      15.9  T
   5    -67.0507483 -0.235790E-07  0.366E-04    2.94      39.4  T
     SCC iter.                  ...        0 min,  0.053 sec
     gradient                   ...        0 min,  0.028 sec
 * total energy  :   -66.1026165 Eh     change       -0.3296988E-04 Eh
   gradient norm :     0.0019256 Eh/α   predicted    -0.2417776E-04 ( -26.67%)
   displ. norm   :     0.6924255 α      lambda       -0.6303069E-04
   maximum displ.:     0.3944446 α      in ANC's #1, #14, #4, ...

........................................................................
.............................. CYCLE   53 ..............................
........................................................................

 iter      E             dE          RMSdq      gap      omega  full diag
   1    -67.0440199 -0.670440E+02  0.150E-01    2.92       0.0  T
   2    -67.0440251 -0.524929E-05  0.888E-02    2.93       1.0  T
   3    -67.0440230  0.213943E-05  0.910E-03    2.92       1.6  T
   4    -67.0440255 -0.249733E-05  0.428E-03    2.93       3.4  T
   5    -67.0440261 -0.665077E-06  0.152E-03    2.93       9.5  T
   6    -67.0440262 -0.617733E-08  0.630E-04    2.93      22.9  T
   7    -67.0440262 -0.937209E-08  0.227E-04    2.93      63.7  T
     SCC iter.                  ...        0 min,  0.060 sec
     gradient                   ...        0 min,  0.021 sec
 * total energy  :   -66.1024982 Eh     change        0.1183536E-03 Eh
   gradient norm :     0.0116342 Eh/α   predicted    -0.3823141E-04 (-132.30%)
   displ. norm   :     0.2106735 α      lambda       -0.3188490E-03
   maximum displ.:     0.1016775 α      in ANC's #1, #14, #4, ...

........................................................................
.............................. CYCLE   54 ..............................
........................................................................

 iter      E             dE          RMSdq      gap      omega  full diag
   1    -67.0495473 -0.670495E+02  0.510E-02    2.93       0.0  T
   2    -67.0495498 -0.248642E-05  0.297E-02    2.93       1.0  T
   3    -67.0495484  0.133785E-05  0.690E-03    2.93       2.1  T
   4    -67.0495497 -0.126097E-05  0.307E-03    2.93       4.7  T
   5    -67.0495501 -0.415183E-06  0.790E-04    2.93      18.3  T
   6    -67.0495501 -0.166709E-08  0.338E-04    2.93      42.7  T
     SCC iter.                  ...        0 min,  0.065 sec
     gradient                   ...        0 min,  0.022 sec
 * total energy  :   -66.1026710 Eh     change       -0.1728037E-03 Eh
   gradient norm :     0.0026081 Eh/α   predicted    -0.1665025E-03 (  -3.65%)
   displ. norm   :     0.0759184 α      lambda       -0.2880567E-04
   maximum displ.:     0.0473920 α      in ANC's #1, #7, #8, ...

........................................................................
.............................. CYCLE   55 ..............................
........................................................................

 iter      E             dE          RMSdq      gap      omega  full diag
   1    -67.0508881 -0.670509E+02  0.154E-02    2.93       0.0  T
   2    -67.0508883 -0.176983E-06  0.905E-03    2.93       1.6  T
   3    -67.0508882  0.204631E-07  0.125E-03    2.93      11.6  T
   4    -67.0508883 -0.291643E-07  0.508E-04    2.93      28.4  T
   5    -67.0508883 -0.896267E-08  0.227E-04    2.93      63.5  T
     SCC iter.                  ...        0 min,  0.041 sec
     gradient                   ...        0 min,  0.020 sec
 * total energy  :   -66.1026922 Eh     change       -0.2118799E-04 Eh
   gradient norm :     0.0012151 Eh/α   predicted    -0.1448609E-04 ( -31.63%)
   displ. norm   :     0.2375742 α      lambda       -0.2923155E-04
   maximum displ.:     0.1457478 α      in ANC's #1, #7, #14, ...

........................................................................
.............................. CYCLE   56 ..............................
........................................................................

 iter      E             dE          RMSdq      gap      omega  full diag
   1    -67.0520593 -0.670521E+02  0.441E-02    2.92       0.0  T
   2    -67.0520596 -0.331519E-06  0.261E-02    2.92       1.0  T
   3    -67.0520594  0.170180E-06  0.248E-03    2.92       5.8  T
   4    -67.0520596 -0.208895E-06  0.107E-03    2.92      13.5  T
   5    -67.0520597 -0.381802E-07  0.410E-04    2.92      35.2  T
   6    -67.0520597 -0.142850E-08  0.177E-04    2.92      81.5  T
     SCC iter.                  ...        0 min,  0.062 sec
     gradient                   ...        0 min,  0.029 sec
 * total energy  :   -66.1027254 Eh     change       -0.3317833E-04 Eh
   gradient norm :     0.0022881 Eh/α   predicted    -0.1498504E-04 ( -54.83%)
   displ. norm   :     0.3816307 α      lambda       -0.5359919E-04
   maximum displ.:     0.2325765 α      in ANC's #1, #7, #14, ...

........................................................................
.............................. CYCLE   57 ..............................
........................................................................

 iter      E             dE          RMSdq      gap      omega  full diag
   1    -67.0506888 -0.670507E+02  0.699E-02    2.92       0.0  T
   2    -67.0506893 -0.490792E-06  0.414E-02    2.91       1.0  T
   3    -67.0506875  0.180914E-05  0.680E-03    2.91       2.1  T
   4    -67.0506895 -0.205662E-05  0.124E-03    2.91      11.7  T
   5    -67.0506896 -0.283997E-07  0.611E-04    2.91      23.6  T
   6    -67.0506896 -0.108281E-08  0.299E-04    2.91      48.2  T
     SCC iter.                  ...        0 min,  0.075 sec
     gradient                   ...        0 min,  0.031 sec
 * total energy  :   -66.1027682 Eh     change       -0.4287875E-04 Eh
   gradient norm :     0.0022833 Eh/α   predicted    -0.3070523E-04 ( -28.39%)
   displ. norm   :     0.3573868 α      lambda       -0.3693992E-04
   maximum displ.:     0.2186019 α      in ANC's #1, #7, #14, ...

........................................................................
.............................. CYCLE   58 ..............................
........................................................................

 iter      E             dE          RMSdq      gap      omega  full diag
   1    -67.0486434 -0.670486E+02  0.611E-02    2.91       0.0  T
   2    -67.0486439 -0.518834E-06  0.362E-02    2.91       1.0  T
   3    -67.0486417  0.222230E-05  0.753E-03    2.91       1.9  T
   4    -67.0486442 -0.248468E-05  0.120E-03    2.91      12.1  T
   5    -67.0486442 -0.286014E-07  0.590E-04    2.91      24.4  T
   6    -67.0486442  0.602839E-09  0.341E-04    2.91      42.4  T
     SCC iter.                  ...        0 min,  0.075 sec
     gradient                   ...        0 min,  0.036 sec
 * total energy  :   -66.1027798 Eh     change       -0.1153549E-04 Eh
   gradient norm :     0.0041087 Eh/α   predicted    -0.2083272E-04 (  80.60%)
   displ. norm   :     0.0655608 α      lambda       -0.3944046E-04
   maximum displ.:     0.0275849 α      in ANC's #1, #14, #4, ...

........................................................................
.............................. CYCLE   59 ..............................
........................................................................

 iter      E             dE          RMSdq      gap      omega  full diag
   1    -67.0505064 -0.670505E+02  0.216E-02    2.91       0.0  T
   2    -67.0505067 -0.264810E-06  0.127E-02    2.91       1.1  T
   3    -67.0505064  0.302341E-06  0.308E-03    2.91       4.7  T
   4    -67.0505067 -0.334491E-06  0.911E-04    2.91      15.8  T
   5    -67.0505068 -0.288084E-07  0.285E-04    2.91      50.7  T
     SCC iter.                  ...        0 min,  0.065 sec
     gradient                   ...        0 min,  0.036 sec
 * total energy  :   -66.1028049 Eh     change       -0.2514077E-04 Eh
   gradient norm :     0.0015271 Eh/α   predicted    -0.1980844E-04 ( -21.21%)
   displ. norm   :     0.1965667 α      lambda       -0.2216383E-04
   maximum displ.:     0.1058834 α      in ANC's #1, #5, #8, ...

........................................................................
.............................. CYCLE   60 ..............................
........................................................................

 iter      E             dE          RMSdq      gap      omega  full diag
   1    -67.0512816 -0.670513E+02  0.366E-02    2.91       0.0  T
   2    -67.0512819 -0.322165E-06  0.215E-02    2.91       1.0  T
   3    -67.0512815  0.385864E-06  0.334E-03    2.91       4.3  T
   4    -67.0512820 -0.440181E-06  0.108E-03    2.91      13.4  T
   5    -67.0512820 -0.407680E-07  0.385E-04    2.91      37.5  T
   6    -67.0512820 -0.110632E-08  0.183E-04    2.91      78.7  T
     SCC iter.                  ...        0 min,  0.075 sec
     gradient                   ...        0 min,  0.037 sec
 * total energy  :   -66.1028252 Eh     change       -0.2025028E-04 Eh
   gradient norm :     0.0017328 Eh/α   predicted    -0.1127537E-04 ( -44.32%)
   displ. norm   :     0.1725923 α      lambda       -0.1303178E-04
   maximum displ.:     0.1033509 α      in ANC's #1, #5, #7, ...

........................................................................
.............................. CYCLE   61 ..............................
........................................................................

 iter      E             dE          RMSdq      gap      omega  full diag
   1    -67.0510000 -0.670510E+02  0.277E-02    2.91       0.0  T
   2    -67.0510001 -0.968229E-07  0.164E-02    2.91       1.0  T
   3    -67.0509997  0.365271E-06  0.317E-03    2.91       4.6  T
   4    -67.0510002 -0.422294E-06  0.560E-04    2.91      25.8  T
   5    -67.0510002 -0.447542E-08  0.294E-04    2.91      49.1  T
     SCC iter.                  ...        0 min,  0.053 sec
     gradient                   ...        0 min,  0.029 sec
 * total energy  :   -66.1028406 Eh     change       -0.1539258E-04 Eh
   gradient norm :     0.0014216 Eh/α   predicted    -0.6605919E-05 ( -57.08%)
   displ. norm   :     0.1967666 α      lambda       -0.1719638E-04
   maximum displ.:     0.1186456 α      in ANC's #1, #5, #4, ...

........................................................................
.............................. CYCLE   62 ..............................
........................................................................

 iter      E             dE          RMSdq      gap      omega  full diag
   1    -67.0504755 -0.670505E+02  0.323E-02    2.90       0.0  T
   2    -67.0504757 -0.168173E-06  0.191E-02    2.90       1.0  T
   3    -67.0504754  0.356794E-06  0.328E-03    2.90       4.4  T
   4    -67.0504758 -0.429178E-06  0.700E-04    2.90      20.6  T
   5    -67.0504758 -0.886536E-08  0.339E-04    2.90      42.6  T
     SCC iter.                  ...        0 min,  0.052 sec
     gradient                   ...        0 min,  0.023 sec
 * total energy  :   -66.1028580 Eh     change       -0.1745696E-04 Eh
   gradient norm :     0.0012684 Eh/α   predicted    -0.8748261E-05 ( -49.89%)
   displ. norm   :     0.1785746 α      lambda       -0.1340120E-04
   maximum displ.:     0.1028465 α      in ANC's #1, #5, #16, ...

........................................................................
.............................. CYCLE   63 ..............................
........................................................................

 iter      E             dE          RMSdq      gap      omega  full diag
   1    -67.0510636 -0.670511E+02  0.351E-02    2.90       0.0  T
   2    -67.0510637 -0.144703E-06  0.206E-02    2.90       1.0  T
   3    -67.0510637  0.499487E-07  0.167E-03    2.90       8.7  T
   4    -67.0510638 -0.100851E-06  0.729E-04    2.90      19.8  T
   5    -67.0510638 -0.110986E-07  0.368E-04    2.90      39.2  T
     SCC iter.                  ...        0 min,  0.054 sec
     gradient                   ...        0 min,  0.028 sec
 * total energy  :   -66.1028686 Eh     change       -0.1062170E-04 Eh
   gradient norm :     0.0012827 Eh/α   predicted    -0.6797946E-05 ( -36.00%)
   displ. norm   :     0.0910854 α      lambda       -0.5451501E-05
   maximum displ.:     0.0584664 α      in ANC's #1, #5, #4, ...

........................................................................
.............................. CYCLE   64 ..............................
........................................................................

 iter      E             dE          RMSdq      gap      omega  full diag
   1    -67.0505213 -0.670505E+02  0.146E-02    2.90       0.0  T
   2    -67.0505213 -0.503553E-07  0.857E-03    2.90       1.7  T
   3    -67.0505211  0.190350E-06  0.238E-03    2.90       6.1  T
   4    -67.0505214 -0.217866E-06  0.320E-04    2.90      45.2  T
   5    -67.0505214 -0.208703E-08  0.177E-04    2.90      81.4  T
     SCC iter.                  ...        0 min,  0.052 sec
     gradient                   ...        0 min,  0.034 sec
 * total energy  :   -66.1028736 Eh     change       -0.4977803E-05 Eh
   gradient norm :     0.0007944 Eh/α   predicted    -0.2739193E-05 ( -44.97%)
   displ. norm   :     0.0378488 α      lambda       -0.3919922E-05
   maximum displ.:     0.0199777 α      in ANC's #1, #19, #15, ...

........................................................................
.............................. CYCLE   65 ..............................
........................................................................

 iter      E             dE          RMSdq      gap      omega  full diag
   1    -67.0509616 -0.670510E+02  0.726E-03    2.90       0.0  T
   2    -67.0509616 -0.307202E-07  0.429E-03    2.90       3.4  T
   3    -67.0509615  0.872337E-07  0.150E-03    2.90       9.6  T
   4    -67.0509616 -0.969016E-07  0.299E-04    2.90      48.3  T
   5    -67.0509616 -0.307925E-08  0.106E-04    2.90     136.0  T
     SCC iter.                  ...        0 min,  0.063 sec
     gradient                   ...        0 min,  0.036 sec
 * total energy  :   -66.1028772 Eh     change       -0.3568121E-05 Eh
   gradient norm :     0.0008328 Eh/α   predicted    -0.1962733E-05 ( -44.99%)
   displ. norm   :     0.0455242 α      lambda       -0.3323507E-05
   maximum displ.:     0.0262932 α      in ANC's #1, #10, #19, ...

........................................................................
.............................. CYCLE   66 ..............................
........................................................................

 iter      E             dE          RMSdq      gap      omega  full diag
   1    -67.0509438 -0.670509E+02  0.703E-03    2.90       0.0  T
   2    -67.0509438 -0.148705E-07  0.417E-03    2.90       3.5  T
   3    -67.0509438  0.209795E-07  0.798E-04    2.90      18.1  T
   4    -67.0509438 -0.256059E-07  0.225E-04    2.90      64.1  T
     SCC iter.                  ...        0 min,  0.045 sec
     gradient                   ...        0 min,  0.028 sec
 * total energy  :   -66.1028804 Eh     change       -0.3193698E-05 Eh
   gradient norm :     0.0007889 Eh/α   predicted    -0.1664877E-05 ( -47.87%)
   displ. norm   :     0.0518390 α      lambda       -0.3053842E-05
   maximum displ.:     0.0309272 α      in ANC's #1, #10, #15, ...
 * RMSD in coord.:     0.4867120 α      energy gain  -0.5441702E-03 Eh

generating ANC from exact Hessian ...
Using Lindh-Hessian (1995)
 Shifting diagonal of input Hessian by    9.7929977930087779E-003
 Lowest  eigenvalues of input Hessian
    0.000000    0.000000    0.000000    0.000000    0.000000    0.000000
    0.010000    0.010069    0.010380    0.010579    0.010877    0.011323
    0.011757    0.011858    0.012780    0.013322    0.014266    0.015394
 Highest eigenvalues
    1.845155    1.868346    1.949206    1.961023    2.245724    2.362649


........................................................................
.............................. CYCLE   67 ..............................
........................................................................

 iter      E             dE          RMSdq      gap      omega  full diag
   1    -67.0508666 -0.670509E+02  0.971E-03    2.90       0.0  T
   2    -67.0508666 -0.354175E-07  0.572E-03    2.90       2.5  T
   3    -67.0508666  0.340139E-07  0.105E-03    2.90      13.7  T
   4    -67.0508666 -0.414684E-07  0.353E-04    2.90      40.9  T
   5    -67.0508666 -0.363836E-08  0.155E-04    2.90      93.4  T
     SCC iter.                  ...        0 min,  0.052 sec
     gradient                   ...        0 min,  0.028 sec
 * total energy  :   -66.1028836 Eh     change       -0.3221236E-05 Eh
   gradient norm :     0.0007469 Eh/α   predicted     0.0000000E+00 (-100.00%)
   displ. norm   :     0.0110627 α      lambda       -0.1670210E-05
   maximum displ.:     0.0044003 α      in ANC's #1, #2, #8, ...

........................................................................
.............................. CYCLE   68 ..............................
........................................................................

 iter      E             dE          RMSdq      gap      omega  full diag
   1    -67.0510032 -0.670510E+02  0.292E-03    2.90       0.0  T
   2    -67.0510032 -0.125453E-07  0.167E-03    2.90       8.6  T
   3    -67.0510032  0.295516E-08  0.468E-04    2.90      30.8  T
   4    -67.0510032 -0.455483E-08  0.131E-04    2.90     109.9  T
     SCC iter.                  ...        0 min,  0.042 sec
     gradient                   ...        0 min,  0.024 sec
 * total energy  :   -66.1028854 Eh     change       -0.1786857E-05 Eh
   gradient norm :     0.0002728 Eh/α   predicted    -0.8419309E-06 ( -52.88%)
   displ. norm   :     0.0243727 α      lambda       -0.1254569E-05
   maximum displ.:     0.0100316 α      in ANC's #1, #2, #13, ...

........................................................................
.............................. CYCLE   69 ..............................
........................................................................

 iter      E             dE          RMSdq      gap      omega  full diag
   1    -67.0510414 -0.670510E+02  0.436E-03    2.90       0.0  T
   2    -67.0510415 -0.188404E-07  0.254E-03    2.90       5.7  T
   3    -67.0510414  0.173214E-07  0.753E-04    2.90      19.2  T
   4    -67.0510415 -0.199647E-07  0.245E-04    2.90      58.8  T
     SCC iter.                  ...        0 min,  0.051 sec
     gradient                   ...        0 min,  0.029 sec
 * total energy  :   -66.1028872 Eh     change       -0.1814832E-05 Eh
   gradient norm :     0.0004552 Eh/α   predicted    -0.8991542E-06 ( -50.46%)
   displ. norm   :     0.0381356 α      lambda       -0.1918841E-05
   maximum displ.:     0.0168148 α      in ANC's #1, #2, #13, ...

........................................................................
.............................. CYCLE   70 ..............................
........................................................................

 iter      E             dE          RMSdq      gap      omega  full diag
   1    -67.0510063 -0.670510E+02  0.675E-03    2.90       0.0  T
   2    -67.0510064 -0.231809E-07  0.398E-03    2.90       3.6  T
   3    -67.0510063  0.417247E-07  0.105E-03    2.90      13.7  T
   4    -67.0510064 -0.464565E-07  0.306E-04    2.90      47.2  T
   5    -67.0510064 -0.334950E-08  0.115E-04    2.90     126.0  T
     SCC iter.                  ...        0 min,  0.063 sec
     gradient                   ...        0 min,  0.027 sec
 * total energy  :   -66.1028892 Eh     change       -0.1976129E-05 Eh
   gradient norm :     0.0007104 Eh/α   predicted    -0.9601758E-06 ( -51.41%)
   displ. norm   :     0.0651430 α      lambda       -0.2826156E-05
   maximum displ.:     0.0287878 α      in ANC's #1, #2, #13, ...

........................................................................
.............................. CYCLE   71 ..............................
........................................................................

 iter      E             dE          RMSdq      gap      omega  full diag
   1    -67.0509503 -0.670510E+02  0.104E-02    2.90       0.0  T
   2    -67.0509503 -0.274668E-07  0.616E-03    2.90       2.3  T
   3    -67.0509503  0.159411E-07  0.800E-04    2.90      18.0  T
   4    -67.0509503 -0.227889E-07  0.337E-04    2.90      42.9  T
     SCC iter.                  ...        0 min,  0.043 sec
     gradient                   ...        0 min,  0.027 sec
 * total energy  :   -66.1028924 Eh     change       -0.3237436E-05 Eh
   gradient norm :     0.0008073 Eh/α   predicted    -0.1416884E-05 ( -56.23%)
   displ. norm   :     0.1354594 α      lambda       -0.5541291E-05
   maximum displ.:     0.0605177 α      in ANC's #1, #2, #13, ...

........................................................................
.............................. CYCLE   72 ..............................
........................................................................

 iter      E             dE          RMSdq      gap      omega  full diag
   1    -67.0506857 -0.670507E+02  0.209E-02    2.90       0.0  T
   2    -67.0506858 -0.902166E-07  0.124E-02    2.90       1.2  T
   3    -67.0506856  0.221502E-06  0.243E-03    2.90       5.9  T
   4    -67.0506859 -0.263288E-06  0.605E-04    2.90      23.9  T
   5    -67.0506859 -0.574975E-08  0.298E-04    2.90      48.4  T
     SCC iter.                  ...        0 min,  0.042 sec
     gradient                   ...        0 min,  0.020 sec
 * total energy  :   -66.1028974 Eh     change       -0.4986379E-05 Eh
   gradient norm :     0.0010482 Eh/α   predicted    -0.2838226E-05 ( -43.08%)
   displ. norm   :     0.0842590 α      lambda       -0.4546152E-05
   maximum displ.:     0.0394266 α      in ANC's #1, #2, #13, ...

........................................................................
.............................. CYCLE   73 ..............................
........................................................................

 iter      E             dE          RMSdq      gap      omega  full diag
   1    -67.0506683 -0.670507E+02  0.124E-02    2.90       0.0  T
   2    -67.0506683 -0.377485E-07  0.741E-03    2.90       1.9  T
   3    -67.0506682  0.122184E-06  0.181E-03    2.90       8.0  T
   4    -67.0506683 -0.141109E-06  0.363E-04    2.90      39.8  T
   5    -67.0506683 -0.216821E-08  0.178E-04    2.90      81.0  T
     SCC iter.                  ...        0 min,  0.043 sec
     gradient                   ...        0 min,  0.021 sec
 * total energy  :   -66.1029022 Eh     change       -0.4761545E-05 Eh
   gradient norm :     0.0010271 Eh/α   predicted    -0.2281308E-05 ( -52.09%)
   displ. norm   :     0.0834911 α      lambda       -0.5931504E-05
   maximum displ.:     0.0399342 α      in ANC's #1, #2, #16, ...

........................................................................
.............................. CYCLE   74 ..............................
........................................................................

 iter      E             dE          RMSdq      gap      omega  full diag
   1    -67.0509979 -0.670510E+02  0.112E-02    2.90       0.0  T
   2    -67.0509980 -0.697732E-07  0.672E-03    2.90       2.1  T
   3    -67.0509979  0.118931E-06  0.178E-03    2.90       8.1  T
   4    -67.0509980 -0.134289E-06  0.469E-04    2.90      30.8  T
   5    -67.0509980 -0.653141E-08  0.157E-04    2.90      92.0  T
     SCC iter.                  ...        0 min,  0.063 sec
     gradient                   ...        0 min,  0.030 sec
 * total energy  :   -66.1029084 Eh     change       -0.6197764E-05 Eh
   gradient norm :     0.0008067 Eh/α   predicted    -0.2979032E-05 ( -51.93%)
   displ. norm   :     0.1821343 α      lambda       -0.6632099E-05
   maximum displ.:     0.0864741 α      in ANC's #1, #2, #16, ...

........................................................................
.............................. CYCLE   75 ..............................
........................................................................

 iter      E             dE          RMSdq      gap      omega  full diag
   1    -67.0503704 -0.670504E+02  0.241E-02    2.90       0.0  T
   2    -67.0503707 -0.229150E-06  0.144E-02    2.90       1.0  T
   3    -67.0503705  0.176479E-06  0.242E-03    2.90       6.0  T
   4    -67.0503707 -0.198770E-06  0.875E-04    2.90      16.5  T
   5    -67.0503707 -0.258827E-07  0.299E-04    2.90      48.2  T
     SCC iter.                  ...        0 min,  0.064 sec
     gradient                   ...        0 min,  0.032 sec
 * total energy  :   -66.1029129 Eh     change       -0.4586754E-05 Eh
   gradient norm :     0.0019240 Eh/α   predicted    -0.3368352E-05 ( -26.56%)
   displ. norm   :     0.0571150 α      lambda       -0.8986399E-05
   maximum displ.:     0.0210967 α      in ANC's #2, #1, #16, ...

........................................................................
.............................. CYCLE   76 ..............................
........................................................................

 iter      E             dE          RMSdq      gap      omega  full diag
   1    -67.0508796 -0.670509E+02  0.133E-02    2.90       0.0  T
   2    -67.0508797 -0.820228E-07  0.778E-03    2.90       1.9  T
   3    -67.0508796  0.806684E-07  0.152E-03    2.90       9.5  T
   4    -67.0508797 -0.903683E-07  0.577E-04    2.90      25.0  T
   5    -67.0508797 -0.120700E-07  0.211E-04    2.90      68.3  T
     SCC iter.                  ...        0 min,  0.064 sec
     gradient                   ...        0 min,  0.033 sec
 * total energy  :   -66.1029219 Eh     change       -0.8999318E-05 Eh
   gradient norm :     0.0008771 Eh/α   predicted    -0.4502760E-05 ( -49.97%)
   displ. norm   :     0.1838729 α      lambda       -0.8946597E-05
   maximum displ.:     0.0867396 α      in ANC's #1, #2, #16, ...

........................................................................
.............................. CYCLE   77 ..............................
........................................................................

 iter      E             dE          RMSdq      gap      omega  full diag
   1    -67.0504462 -0.670504E+02  0.272E-02    2.90       0.0  T
   2    -67.0504463 -0.163565E-06  0.162E-02    2.90       1.0  T
   3    -67.0504462  0.131614E-06  0.205E-03    2.90       7.0  T
   4    -67.0504464 -0.155392E-06  0.825E-04    2.90      17.5  T
   5    -67.0504464 -0.222333E-07  0.330E-04    2.90      43.7  T
     SCC iter.                  ...        0 min,  0.062 sec
     gradient                   ...        0 min,  0.027 sec
 * total energy  :   -66.1029306 Eh     change       -0.8701672E-05 Eh
   gradient norm :     0.0014920 Eh/α   predicted    -0.4542171E-05 ( -47.80%)
   displ. norm   :     0.0866852 α      lambda       -0.9141093E-05
   maximum displ.:     0.0393998 α      in ANC's #2, #1, #16, ...

........................................................................
.............................. CYCLE   78 ..............................
........................................................................

 iter      E             dE          RMSdq      gap      omega  full diag
   1    -67.0508382 -0.670508E+02  0.176E-02    2.90       0.0  T
   2    -67.0508384 -0.139978E-06  0.104E-02    2.90       1.4  T
   3    -67.0508383  0.104048E-06  0.185E-03    2.90       7.8  T
   4    -67.0508384 -0.130531E-06  0.611E-04    2.90      23.6  T
   5    -67.0508384 -0.994103E-08  0.294E-04    2.90      49.1  T
     SCC iter.                  ...        0 min,  0.052 sec
     gradient                   ...        0 min,  0.029 sec
 * total energy  :   -66.1029385 Eh     change       -0.7839467E-05 Eh
   gradient norm :     0.0008635 Eh/α   predicted    -0.4588381E-05 ( -41.47%)
   displ. norm   :     0.1424552 α      lambda       -0.5169884E-05
   maximum displ.:     0.0689700 α      in ANC's #2, #1, #16, ...

........................................................................
.............................. CYCLE   79 ..............................
........................................................................

 iter      E             dE          RMSdq      gap      omega  full diag
   1    -67.0502566 -0.670503E+02  0.219E-02    2.90       0.0  T
   2    -67.0502567 -0.178410E-06  0.130E-02    2.90       1.1  T
   3    -67.0502566  0.111339E-06  0.200E-03    2.90       7.2  T
   4    -67.0502568 -0.125061E-06  0.778E-04    2.90      18.6  T
   5    -67.0502568 -0.206732E-07  0.261E-04    2.90      55.3  T
     SCC iter.                  ...        0 min,  0.052 sec
     gradient                   ...        0 min,  0.027 sec
 * total energy  :   -66.1029413 Eh     change       -0.2780879E-05 Eh
   gradient norm :     0.0020058 Eh/α   predicted    -0.2610832E-05 (  -6.11%)
   displ. norm   :     0.0215645 α      lambda       -0.7083875E-05
   maximum displ.:     0.0107675 α      in ANC's #8, #4, #3, ...

........................................................................
.............................. CYCLE   80 ..............................
........................................................................

 iter      E             dE          RMSdq      gap      omega  full diag
   1    -67.0506490 -0.670506E+02  0.485E-03    2.90       0.0  T
   2    -67.0506490 -0.451799E-07  0.279E-03    2.90       5.2  T
   3    -67.0506490  0.168211E-07  0.884E-04    2.90      16.3  T
   4    -67.0506490 -0.153433E-07  0.416E-04    2.90      34.7  T
     SCC iter.                  ...        0 min,  0.048 sec
     gradient                   ...        0 min,  0.026 sec
 * total energy  :   -66.1029466 Eh     change       -0.5319247E-05 Eh
   gradient norm :     0.0010981 Eh/α   predicted    -0.3544350E-05 ( -33.37%)
   displ. norm   :     0.1122650 α      lambda       -0.9014241E-05
   maximum displ.:     0.0597191 α      in ANC's #2, #4, #1, ...

........................................................................
.............................. CYCLE   81 ..............................
........................................................................

 iter      E             dE          RMSdq      gap      omega  full diag
   1    -67.0509998 -0.670510E+02  0.193E-02    2.90       0.0  T
   2    -67.0509999 -0.102460E-06  0.114E-02    2.90       1.3  T
   3    -67.0509998  0.117370E-06  0.181E-03    2.90       8.0  T
   4    -67.0509999 -0.130094E-06  0.660E-04    2.90      21.9  T
   5    -67.0509999 -0.155733E-07  0.223E-04    2.90      64.8  T
     SCC iter.                  ...        0 min,  0.056 sec
     gradient                   ...        0 min,  0.027 sec
 * total energy  :   -66.1029551 Eh     change       -0.8490105E-05 Eh
   gradient norm :     0.0008115 Eh/α   predicted    -0.4535010E-05 ( -46.58%)
   displ. norm   :     0.1798413 α      lambda       -0.7687750E-05
   maximum displ.:     0.0972912 α      in ANC's #2, #1, #16, ...

........................................................................
.............................. CYCLE   82 ..............................
........................................................................

 iter      E             dE          RMSdq      gap      omega  full diag
   1    -67.0504560 -0.670505E+02  0.287E-02    2.89       0.0  T
   2    -67.0504561 -0.163346E-06  0.170E-02    2.89       1.0  T
   3    -67.0504561  0.602760E-07  0.168E-03    2.89       8.6  T
   4    -67.0504561 -0.841662E-07  0.764E-04    2.89      18.9  T
   5    -67.0504562 -0.173182E-07  0.310E-04    2.89      46.6  T
     SCC iter.                  ...        0 min,  0.053 sec
     gradient                   ...        0 min,  0.027 sec
 * total energy  :   -66.1029636 Eh     change       -0.8554340E-05 Eh
   gradient norm :     0.0015206 Eh/α   predicted    -0.3901562E-05 ( -54.39%)
   displ. norm   :     0.2110696 α      lambda       -0.1178101E-04
   maximum displ.:     0.1172514 α      in ANC's #2, #4, #7, ...

........................................................................
.............................. CYCLE   83 ..............................
........................................................................

 iter      E             dE          RMSdq      gap      omega  full diag
   1    -67.0500411 -0.670500E+02  0.357E-02    2.89       0.0  T
   2    -67.0500414 -0.265273E-06  0.211E-02    2.89       1.0  T
   3    -67.0500414  0.353315E-07  0.172E-03    2.89       8.4  T
   4    -67.0500415 -0.812980E-07  0.798E-04    2.89      18.1  T
   5    -67.0500415 -0.153895E-07  0.399E-04    2.89      36.2  T
     SCC iter.                  ...        0 min,  0.052 sec
     gradient                   ...        0 min,  0.042 sec
 * total energy  :   -66.1029744 Eh     change       -0.1073228E-04 Eh
   gradient norm :     0.0022768 Eh/α   predicted    -0.6007806E-05 ( -44.02%)
   displ. norm   :     0.0618346 α      lambda       -0.1454380E-04
   maximum displ.:     0.0277478 α      in ANC's #2, #4, #7, ...

........................................................................
.............................. CYCLE   84 ..............................
........................................................................

 iter      E             dE          RMSdq      gap      omega  full diag
   1    -67.0507469 -0.670507E+02  0.129E-02    2.89       0.0  T
   2    -67.0507471 -0.176672E-06  0.755E-03    2.88       1.9  T
   3    -67.0507471  0.708857E-08  0.115E-03    2.88      12.6  T
   4    -67.0507471 -0.211960E-07  0.360E-04    2.88      40.1  T
   5    -67.0507471 -0.257086E-08  0.207E-04    2.88      69.8  T
     SCC iter.                  ...        0 min,  0.054 sec
     gradient                   ...        0 min,  0.033 sec
 * total energy  :   -66.1029832 Eh     change       -0.8813212E-05 Eh
   gradient norm :     0.0011899 Eh/α   predicted    -0.7301671E-05 ( -17.15%)
   displ. norm   :     0.2130874 α      lambda       -0.1130945E-04
   maximum displ.:     0.1217777 α      in ANC's #2, #4, #7, ...

........................................................................
.............................. CYCLE   85 ..............................
........................................................................

 iter      E             dE          RMSdq      gap      omega  full diag
   1    -67.0504125 -0.670504E+02  0.363E-02    2.88       0.0  T
   2    -67.0504128 -0.305496E-06  0.215E-02    2.88       1.0  T
   3    -67.0504125  0.287445E-06  0.296E-03    2.88       4.9  T
   4    -67.0504128 -0.336775E-06  0.104E-03    2.88      13.9  T
   5    -67.0504129 -0.356310E-07  0.413E-04    2.88      35.0  T
   6    -67.0504129 -0.104956E-08  0.188E-04    2.88      76.6  T
     SCC iter.                  ...        0 min,  0.088 sec
     gradient                   ...        0 min,  0.042 sec
 * total energy  :   -66.1029920 Eh     change       -0.8791162E-05 Eh
   gradient norm :     0.0015319 Eh/α   predicted    -0.5771336E-05 ( -34.35%)
   displ. norm   :     0.0542762 α      lambda       -0.5666935E-05
   maximum displ.:     0.0309957 α      in ANC's #2, #4, #7, ...

........................................................................
.............................. CYCLE   86 ..............................
........................................................................

 iter      E             dE          RMSdq      gap      omega  full diag
   1    -67.0509285 -0.670509E+02  0.109E-02    2.88       0.0  T
   2    -67.0509286 -0.764192E-07  0.644E-03    2.88       2.2  T
   3    -67.0509285  0.842769E-07  0.153E-03    2.88       9.4  T
   4    -67.0509286 -0.942222E-07  0.502E-04    2.88      28.7  T
   5    -67.0509286 -0.898409E-08  0.178E-04    2.88      81.0  T
     SCC iter.                  ...        0 min,  0.070 sec
     gradient                   ...        0 min,  0.034 sec
 * total energy  :   -66.1029972 Eh     change       -0.5247191E-05 Eh
   gradient norm :     0.0008742 Eh/α   predicted    -0.2838316E-05 ( -45.91%)
   displ. norm   :     0.1108803 α      lambda       -0.4368536E-05
   maximum displ.:     0.0678175 α      in ANC's #2, #4, #7, ...

........................................................................
.............................. CYCLE   87 ..............................
........................................................................

 iter      E             dE          RMSdq      gap      omega  full diag
   1    -67.0506991 -0.670507E+02  0.204E-02    2.88       0.0  T
   2    -67.0506992 -0.989835E-07  0.121E-02    2.88       1.2  T
   3    -67.0506991  0.881823E-07  0.175E-03    2.88       8.3  T
   4    -67.0506992 -0.109913E-06  0.547E-04    2.88      26.4  T
   5    -67.0506992 -0.757504E-08  0.240E-04    2.88      60.0  T
     SCC iter.                  ...        0 min,  0.060 sec
     gradient                   ...        0 min,  0.033 sec
 * total energy  :   -66.1030019 Eh     change       -0.4681676E-05 Eh
   gradient norm :     0.0009747 Eh/α   predicted    -0.2199467E-05 ( -53.02%)
   displ. norm   :     0.1092256 α      lambda       -0.5395632E-05
   maximum displ.:     0.0694319 α      in ANC's #2, #4, #7, ...

........................................................................
.............................. CYCLE   88 ..............................
........................................................................

 iter      E             dE          RMSdq      gap      omega  full diag
   1    -67.0509501 -0.670510E+02  0.211E-02    2.88       0.0  T
   2    -67.0509502 -0.117105E-06  0.125E-02    2.88       1.2  T
   3    -67.0509500  0.131815E-06  0.201E-03    2.88       7.2  T
   4    -67.0509502 -0.150308E-06  0.650E-04    2.88      22.2  T
   5    -67.0509502 -0.144843E-07  0.252E-04    2.88      57.3  T
     SCC iter.                  ...        0 min,  0.061 sec
     gradient                   ...        0 min,  0.028 sec
 * total energy  :   -66.1030068 Eh     change       -0.4857939E-05 Eh
   gradient norm :     0.0007792 Eh/α   predicted    -0.2715672E-05 ( -44.10%)
   displ. norm   :     0.1842445 α      lambda       -0.4798112E-05
   maximum displ.:     0.1192811 α      in ANC's #2, #4, #7, ...

........................................................................
.............................. CYCLE   89 ..............................
........................................................................

 iter      E             dE          RMSdq      gap      omega  full diag
   1    -67.0501652 -0.670502E+02  0.333E-02    2.87       0.0  T
   2    -67.0501654 -0.189273E-06  0.197E-02    2.87       1.0  T
   3    -67.0501652  0.105349E-06  0.212E-03    2.87       6.8  T
   4    -67.0501654 -0.153891E-06  0.778E-04    2.87      18.5  T
   5    -67.0501654 -0.139488E-07  0.356E-04    2.87      40.5  T
     SCC iter.                  ...        0 min,  0.069 sec
     gradient                   ...        0 min,  0.034 sec
 * total energy  :   -66.1030094 Eh     change       -0.2692296E-05 Eh
   gradient norm :     0.0014723 Eh/α   predicted    -0.2438086E-05 (  -9.44%)
   displ. norm   :     0.0271210 α      lambda       -0.4652209E-05
   maximum displ.:     0.0126058 α      in ANC's #8, #14, #3, ...

........................................................................
.............................. CYCLE   90 ..............................
........................................................................

 iter      E             dE          RMSdq      gap      omega  full diag
   1    -67.0508500 -0.670508E+02  0.636E-03    2.88       0.0  T
   2    -67.0508500 -0.700353E-07  0.372E-03    2.87       3.9  T
   3    -67.0508500  0.270518E-07  0.109E-03    2.87      13.2  T
   4    -67.0508500 -0.302095E-07  0.436E-04    2.87      33.1  T
   5    -67.0508501 -0.663239E-08  0.125E-04    2.87     115.6  T
     SCC iter.                  ...        0 min,  0.074 sec
     gradient                   ...        0 min,  0.038 sec
 * total energy  :   -66.1030140 Eh     change       -0.4575116E-05 Eh
   gradient norm :     0.0006518 Eh/α   predicted    -0.2330649E-05 ( -49.06%)
   displ. norm   :     0.0962953 α      lambda       -0.3490922E-05
   maximum displ.:     0.0695187 α      in ANC's #2, #4, #7, ...

........................................................................
.............................. CYCLE   91 ..............................
........................................................................

 iter      E             dE          RMSdq      gap      omega  full diag
   1    -67.0509745 -0.670510E+02  0.169E-02    2.87       0.0  T
   2    -67.0509746 -0.627902E-07  0.998E-03    2.87       1.4  T
   3    -67.0509746  0.136378E-07  0.863E-04    2.87      16.7  T
   4    -67.0509746 -0.237265E-07  0.356E-04    2.87      40.5  T
     SCC iter.                  ...        0 min,  0.050 sec
     gradient                   ...        0 min,  0.027 sec
 * total energy  :   -66.1030179 Eh     change       -0.3832465E-05 Eh
   gradient norm :     0.0004814 Eh/α   predicted    -0.1755573E-05 ( -54.19%)
   displ. norm   :     0.1372429 α      lambda       -0.3542741E-05
   maximum displ.:     0.1008305 α      in ANC's #2, #15, #4, ...

........................................................................
.............................. CYCLE   92 ..............................
........................................................................

 iter      E             dE          RMSdq      gap      omega  full diag
   1    -67.0508289 -0.670508E+02  0.224E-02    2.87       0.0  T
   2    -67.0508290 -0.711550E-07  0.133E-02    2.87       1.1  T
   3    -67.0508289  0.209623E-07  0.107E-03    2.87      13.4  T
   4    -67.0508290 -0.375298E-07  0.447E-04    2.87      32.3  T
   5    -67.0508290 -0.459211E-08  0.216E-04    2.87      66.9  T
     SCC iter.                  ...        0 min,  0.064 sec
     gradient                   ...        0 min,  0.034 sec
 * total energy  :   -66.1030212 Eh     change       -0.3343269E-05 Eh
   gradient norm :     0.0005985 Eh/α   predicted    -0.1788939E-05 ( -46.49%)
   displ. norm   :     0.0660047 α      lambda       -0.2080008E-05
   maximum displ.:     0.0476421 α      in ANC's #2, #1, #8, ...
 * RMSD in coord.:     0.3257615 α      energy gain  -0.1408206E-03 Eh

generating ANC from exact Hessian ...
Using Lindh-Hessian (1995)
 Shifting diagonal of input Hessian by    9.7918847887864258E-003
 Lowest  eigenvalues of input Hessian
    0.000000    0.000000    0.000000    0.000000    0.000000    0.000000
    0.010000    0.010071    0.010403    0.010604    0.010860    0.011349
    0.011783    0.011856    0.012771    0.013300    0.014253    0.015407
 Highest eigenvalues
    1.844933    1.868427    1.946795    1.960863    2.245930    2.362184


........................................................................
.............................. CYCLE   93 ..............................
........................................................................

 iter      E             dE          RMSdq      gap      omega  full diag
   1    -67.0509573 -0.670510E+02  0.900E-03    2.87       0.0  T
   2    -67.0509573 -0.158689E-07  0.533E-03    2.87       2.7  T
   3    -67.0509573  0.276087E-07  0.854E-04    2.87      16.9  T
   4    -67.0509573 -0.318193E-07  0.244E-04    2.87      59.1  T
     SCC iter.                  ...        0 min,  0.046 sec
     gradient                   ...        0 min,  0.040 sec
 * total energy  :   -66.1030231 Eh     change       -0.1913958E-05 Eh
   gradient norm :     0.0006140 Eh/α   predicted     0.0000000E+00 (-100.00%)
   displ. norm   :     0.0092852 α      lambda       -0.9906670E-06
   maximum displ.:     0.0033963 α      in ANC's #11, #5, #21, ...

........................................................................
.............................. CYCLE   94 ..............................
........................................................................

 iter      E             dE          RMSdq      gap      omega  full diag
   1    -67.0509859 -0.670510E+02  0.309E-03    2.87       0.0  T
   2    -67.0509859 -0.113814E-07  0.183E-03    2.87       7.9  T
   3    -67.0509859  0.637800E-08  0.478E-04    2.87      30.2  T
   4    -67.0509859 -0.698822E-08  0.170E-04    2.87      84.7  T
     SCC iter.                  ...        0 min,  0.087 sec
     gradient                   ...        0 min,  0.054 sec
 * total energy  :   -66.1030243 Eh     change       -0.1147370E-05 Eh
   gradient norm :     0.0002279 Eh/α   predicted    -0.5276195E-06 ( -54.01%)
   displ. norm   :     0.0220611 α      lambda       -0.9851937E-06
   maximum displ.:     0.0086900 α      in ANC's #5, #11, #6, ...

........................................................................
.............................. CYCLE   95 ..............................
........................................................................

 iter      E             dE          RMSdq      gap      omega  full diag
   1    -67.0510145 -0.670510E+02  0.690E-03    2.87       0.0  T
   2    -67.0510145 -0.235035E-07  0.407E-03    2.87       3.5  T
   3    -67.0510145  0.158673E-07  0.714E-04    2.87      20.2  T
   4    -67.0510145 -0.167018E-07  0.265E-04    2.87      54.5  T
     SCC iter.                  ...        0 min,  0.085 sec
     gradient                   ...        0 min,  0.049 sec
 * total energy  :   -66.1030256 Eh     change       -0.1361057E-05 Eh
   gradient norm :     0.0004286 Eh/α   predicted    -0.6519544E-06 ( -52.10%)
   displ. norm   :     0.0321482 α      lambda       -0.1213106E-05
   maximum displ.:     0.0128934 α      in ANC's #11, #5, #2, ...

........................................................................
.............................. CYCLE   96 ..............................
........................................................................

 iter      E             dE          RMSdq      gap      omega  full diag
   1    -67.0510082 -0.670510E+02  0.102E-02    2.87       0.0  T
   2    -67.0510082 -0.173951E-07  0.599E-03    2.87       2.4  T
   3    -67.0510082  0.314781E-07  0.938E-04    2.87      15.4  T
   4    -67.0510083 -0.357773E-07  0.236E-04    2.87      61.2  T
     SCC iter.                  ...        0 min,  0.060 sec
     gradient                   ...        0 min,  0.029 sec
 * total energy  :   -66.1030269 Eh     change       -0.1311360E-05 Eh
   gradient norm :     0.0005569 Eh/α   predicted    -0.6120036E-06 ( -53.33%)
   displ. norm   :     0.0483892 α      lambda       -0.1481194E-05
   maximum displ.:     0.0193815 α      in ANC's #11, #5, #2, ...

........................................................................
.............................. CYCLE   97 ..............................
........................................................................

 iter      E             dE          RMSdq      gap      omega  full diag
   1    -67.0509986 -0.670510E+02  0.153E-02    2.87       0.0  T
   2    -67.0509986 -0.169314E-07  0.904E-03    2.87       1.6  T
   3    -67.0509986  0.299889E-07  0.968E-04    2.87      14.9  T
   4    -67.0509986 -0.380668E-07  0.213E-04    2.87      67.9  T
     SCC iter.                  ...        0 min,  0.041 sec
     gradient                   ...        0 min,  0.025 sec
 * total energy  :   -66.1030285 Eh     change       -0.1551908E-05 Eh
   gradient norm :     0.0005233 Eh/α   predicted    -0.7682293E-06 ( -50.50%)
   displ. norm   :     0.0483892 α      lambda        0.0000000E+00
   maximum displ.:     0.0193815 α      in ANC's #11, #5, #2, ...

........................................................................
.............................. CYCLE   98 ..............................
........................................................................

 iter      E             dE          RMSdq      gap      omega  full diag
   1    -67.0509437 -0.670509E+02  0.153E-02    2.87       0.0  T
   2    -67.0509437 -0.169781E-07  0.904E-03    2.87       1.6  T
   3    -67.0509437  0.283486E-07  0.947E-04    2.87      15.2  T
   4    -67.0509438 -0.363046E-07  0.213E-04    2.87      67.7  T
     SCC iter.                  ...        0 min,  0.041 sec
     gradient                   ...        0 min,  0.039 sec
 * total energy  :   -66.1030285 Eh     change       -0.2616584E-07 Eh
   gradient norm :     0.0006664 Eh/α   predicted    -0.1492240E-08 ( -94.30%)
   displ. norm   :     0.0102829 α      lambda       -0.1523154E-05
   maximum displ.:     0.0042230 α      in ANC's #21, #2, #4, ...

   *** GEOMETRY OPTIMIZATION CONVERGED AFTER 98 ITERATIONS ***

------------------------------------------------------------------------
 total energy gain   :        -0.0164900 Eh      -10.3476 kcal/mol
 total RMSD          :         1.3873699 a0        0.7342 Å
 total power (kW/mol):        -0.4417807 (step)   -3.1780 (real)
------------------------------------------------------------------------

 ANCopt (total)                0 d,  0 h,  0 min, 13.623 sec
 optimizer setup                ...        0 min,  0.001 sec (  0.006%)
 model hessian                  ...        0 min,  0.164 sec (  1.204%)
 ANC generation                 ...        0 min,  0.016 sec (  0.117%)
 coordinate transformation      ...        0 min,  0.003 sec (  0.019%)
 single point calculation       ...        0 min, 13.124 sec ( 96.333%)
 optimization log               ...        0 min,  0.022 sec (  0.159%)
 hessian update                 ...        0 min,  0.237 sec (  1.737%)
 rational function              ...        0 min,  0.022 sec (  0.158%)

================
 final structure:
================
48
 xtb: 6.7.1 (edcfbbe)
C            5.31261059583340       -0.61768296846964        2.84364418124564
C            5.20500765406451       -0.25808045367721        1.57843349733221
C            4.47988473108381       -1.04858910292250        0.53145933454379
C            3.46459176372491       -0.20902399380125       -0.18227198464087
C            2.36669377453590        0.37870692481767        0.31842673191377
C            1.83806768446031        0.31424641044339        1.70363036611289
C            1.64393281996680        1.19066846348783       -0.73188417465684
O            0.26683992598057        0.82596286782476       -0.83236211586391
C           -0.63333520442551        1.64281324183491       -0.25117979315375
O           -0.31712576173122        2.62975620678983        0.37180468054182
C           -2.02661631575140        1.20120929364734       -0.41592426872417
C           -2.37832469645430       -0.26240943500584       -0.67449739407043
C           -3.44344732268541       -0.90557089777647        0.12595865743449
C           -3.23520919478253       -1.40309864513241        1.34172393579052
C           -4.31716091548351       -2.07368913684499        2.12845915941929
C           -1.88883876908168       -1.32168694128058        2.00200285597092
C           -2.64906269668954        0.75104029814997       -1.73404803667184
C           -4.06792216192844        1.21542681141783       -1.97583635496273
C           -1.81521196677879        0.74062361056934       -2.99359273697498
C            2.38565865164672        0.89168511923918       -2.03407242879790
C            3.61027951613410        0.09406402806208       -1.61343279771528
O            4.52690567823392       -0.22593300255632       -2.33112068328578
H            4.87260775381719       -1.53060468887335        3.21312062920545
H            5.85063538870677       -0.02445521140352        3.56309852926207
H            5.65477740954219        0.66091527300764        1.22661893562360
H            4.00302940042773       -1.92021874010016        0.98550209936574
H            5.19874603606889       -1.39181705458743       -0.21924475427449
H            1.34352095914216        1.24890775463436        1.96151223824360
H            1.09965084523154       -0.48553688862060        1.77895468397697
H            2.63738037563371        0.11262222451832        2.41209539354543
H            1.68324707971947        2.25643145574631       -0.46227247708904
H           -2.68752712828348        1.75742185523009        0.23893775893844
H           -1.50484609603923       -0.88758712712811       -0.83361325846164
H           -4.42350603603741       -0.97065778768380       -0.32486620769104
H           -4.49213425586027       -1.53536346576656        3.05987633707472
H           -5.24747104648806       -2.11303918345242        1.56787605943885
H           -4.01894592561782       -3.08997612825889        2.38511242602435
H           -1.51227608116094       -0.29993536121100        1.97593360789683
H           -1.17249690361964       -1.95391868906898        1.47588447256805
H           -1.94244418765260       -1.65035572044738        3.03642851782726
H           -4.57624287300517        0.52614381802210       -2.64886571057541
H           -4.63037910097727        1.27359696674312       -1.04805181719944
H           -4.06407423206957        2.20108523555571       -2.43782593705038
H           -0.81959194322136        0.35436126072660       -2.80142048234873
H           -2.29211989910935        0.10985074180025       -3.74228749112009
H           -1.72716368875690        1.74701010120597       -3.40060294113406
H            2.67028507140346        1.78386359068905       -2.58966361968600
H            1.76912128834801        0.27081706989347       -2.68579934271800

 Bond Distances (Angstroems)
 ---------------------------
C1-C2=1.3197         C1-H23=1.0787        C1-H24=1.0766        C2-C1=1.3197         C2-C3=1.4990         C2-H25=1.0820        
C3-C2=1.4990         C3-C4=1.4984         C3-H26=1.0924        C3-H27=1.0946        C4-C3=1.4984         C4-C5=1.3422         
C4-C21=1.4701        C5-C4=1.3422         C5-C6=1.4840         C5-C7=1.5116         C6-C5=1.4840         C6-H28=1.0884        
C6-H29=1.0911        C6-H30=1.0870        C7-C5=1.5116         C7-O8=1.4281         C7-C20=1.5282        C7-H31=1.1000        
O8-C7=1.4281         O8-C9=1.3473         C9-O8=1.3473         C9-O10=1.2092        C9-C11=1.4708        O10-C9=1.2092        
C11-C9=1.4708        C11-C12=1.5273       C11-C17=1.5256       C11-H32=1.0840       C12-C11=1.5273       C12-C13=1.4795       
C12-C17=1.4910       C12-H33=1.0859       C13-C12=1.4795       C13-C14=1.3300       C13-H34=1.0807       C14-C13=1.3300       
C14-C15=1.4964       C14-C16=1.5018       C15-C14=1.4964       C15-H35=1.0899       C15-H36=1.0869       C15-H37=1.0898       
C16-C14=1.5018       C16-H38=1.0892       C16-H39=1.0907       C16-H40=1.0867       C17-C11=1.5256       C17-C12=1.4910       
C17-C18=1.5124       C17-C19=1.5106       C18-C17=1.5124       C18-H41=1.0893       C18-H42=1.0865       C18-H43=1.0886       
C19-C17=1.5106       C19-H44=1.0851       C19-H45=1.0890       C19-H46=1.0891       C20-C7=1.5282        C20-C21=1.5208       
C20-H47=1.0889       C20-H48=1.0910       C21-C4=1.4701        C21-C20=1.5208       C21-O22=1.2073       O22-C21=1.2073       
H23-C1=1.0787        H24-C1=1.0766        H25-C2=1.0820        H26-C3=1.0924        H27-C3=1.0946        H28-C6=1.0884        
H29-C6=1.0911        H30-C6=1.0870        H31-C7=1.1000        H32-C11=1.0840       H33-C12=1.0859       H34-C13=1.0807       
H35-C15=1.0899       H36-C15=1.0869       H37-C15=1.0898       H38-C16=1.0892       H39-C16=1.0907       H40-C16=1.0867       
H41-C18=1.0893       H42-C18=1.0865       H43-C18=1.0886       H44-C19=1.0851       H45-C19=1.0890       H46-C19=1.0891       
H47-C20=1.0889       H48-C20=1.0910       
 C  H  Rav=1.0878 sigma=0.0048  Rmin=1.0766  Rmax=1.1000    26
 C  C  Rav=1.4747 sigma=0.0648  Rmin=1.3197  Rmax=1.5282    19
 O  C  Rav=1.2980 sigma=0.0942  Rmin=1.2073  Rmax=1.4281     4

 selected bond angles (degree)
 --------------------
H23-C1-C2=121.72               H24-C1-C2=122.09               H24-C1-H23=116.19              C3-C2-C1=124.43                
H25-C2-C1=120.62               H25-C2-C3=114.96               C4-C3-C2=111.41                H26-C3-C2=109.98               
H26-C3-C4=110.44               H27-C3-C2=109.07               H27-C3-C4=107.10               H27-C3-H26=108.76              
C5-C4-C3=128.46                C21-C4-C3=120.80               C21-C4-C5=110.73               C6-C5-C4=128.36                
C7-C5-C4=111.54                C7-C5-C6=120.10                H28-C6-C5=110.22               H29-C6-C5=109.71               
H29-C6-H28=107.79              H30-C6-C5=110.76               H30-C6-H28=109.82              H30-C6-H29=108.46              
O8-C7-C5=111.89                C20-C7-C5=104.77               C20-C7-O8=110.98               H31-C7-C5=109.45               
H31-C7-O8=107.41               H31-C7-C20=112.40              C9-O8-C7=117.33                O10-C9-O8=122.84               
C11-C9-O8=113.74               C11-C9-O10=123.40              

 selected dihedral angles (degree)
 ---------------------------------
C3-C2-C1-H23=  0.05           C3-C2-C1-H24=179.44           H25-C2-C1-H23=180.09          H25-C2-C1-H24=359.49          
C4-C3-C2-C1=126.63            C4-C3-C2-H25=306.59           H26-C3-C2-C1=  3.83           H26-C3-C2-H25=183.79          
H27-C3-C2-C1=244.65           H27-C3-C2-H25= 64.60          C5-C4-C3-C2=296.28            C5-C4-C3-H26= 58.81           
C5-C4-C3-H27=177.09           C21-C4-C3-C2=114.88           C21-C4-C3-H26=237.41          C21-C4-C3-H27=355.68          
C6-C5-C4-C3=357.59            C6-C5-C4-C21=178.88           C7-C5-C4-C3=177.40            C7-C5-C4-C21=358.69           
H28-C6-C5-C4=147.64           H28-C6-C5-C7=327.85           H29-C6-C5-C4=266.19           H29-C6-C5-C7= 86.40           
H30-C6-C5-C4= 25.90           H30-C6-C5-C7=206.11           O8-C7-C5-C4=126.54            O8-C7-C5-C6=306.36            
C20-C7-C5-C4=  6.20           C20-C7-C5-C6=186.02           H31-C7-C5-C4=245.47           H31-C7-C5-C6= 65.29           
C9-O8-C7-C5=102.20            C9-O8-C7-C20=218.84           C9-O8-C7-H31=342.07           O10-C9-O8-C7=357.78           
C11-C9-O8-C7=179.33           
           -------------------------------------------------
          |                Final Singlepoint                |
           -------------------------------------------------

          ...................................................
          :                      SETUP                      :
          :.................................................:
          :  # basis functions                 114          :
          :  # atomic orbitals                 114          :
          :  # shells                           70          :
          :  # electrons                       120          :
          :  max. iterations                   250          :
          :  Hamiltonian                  GFN2-xTB          :
          :  restarted?                      false          :
          :  GBSA solvation                  false          :
          :  PC potential                    false          :
          :  electronic temp.          300.0000000     K    :
          :  accuracy                    1.0000000          :
          :  -> integral cutoff          0.2500000E+02      :
          :  -> integral neglect         0.1000000E-07      :
          :  -> SCF convergence          0.1000000E-05 Eh   :
          :  -> wf. convergence          0.1000000E-03 e    :
          :  Broyden damping             0.4000000          :
          :  net charge                          0          :
          :  unpaired electrons                  0          :
          ...................................................

 iter      E             dE          RMSdq      gap      omega  full diag
   1    -67.0509438 -0.670509E+02  0.112E-04    2.87       0.0  T
   2    -67.0509438 -0.301412E-10  0.764E-05    2.87     189.0  T
   3    -67.0509438 -0.410836E-10  0.544E-05    2.87     265.4  T

   *** convergence criteria satisfied after 3 iterations ***

         #    Occupation            Energy/Eh            Energy/eV
      -------------------------------------------------------------
         1        2.0000           -0.7452479             -20.2792
       ...           ...                  ...                  ...
        54        2.0000           -0.4303786             -11.7112
        55        2.0000           -0.4226949             -11.5021
        56        2.0000           -0.4109111             -11.1815
        57        2.0000           -0.4067191             -11.0674
        58        2.0000           -0.4031733             -10.9709
        59        2.0000           -0.3941481             -10.7253
        60        2.0000           -0.3849243             -10.4743 (HOMO)
        61                         -0.2793900              -7.6026 (LUMO)
        62                         -0.2380124              -6.4766
        63                         -0.2083646              -5.6699
        64                         -0.1999250              -5.4402
        65                         -0.1762640              -4.7964
       ...                                ...                  ...
       114                          0.7118311              19.3699
      -------------------------------------------------------------
                  HL-Gap            0.1055343 Eh            2.8717 eV
             Fermi-level           -0.3321572 Eh           -9.0385 eV

 SCC (total)                   0 d,  0 h,  0 min,  0.106 sec
 SCC setup                      ...        0 min,  0.003 sec (  2.664%)
 Dispersion                     ...        0 min,  0.008 sec (  7.417%)
 classical contributions        ...        0 min,  0.004 sec (  3.530%)
 integral evaluation            ...        0 min,  0.014 sec ( 12.728%)
 iterations                     ...        0 min,  0.043 sec ( 40.350%)
 molecular gradient             ...        0 min,  0.035 sec ( 32.997%)
 printout                       ...        0 min,  0.000 sec (  0.285%)

         :::::::::::::::::::::::::::::::::::::::::::::::::::::
         ::                     SUMMARY                     ::
         :::::::::::::::::::::::::::::::::::::::::::::::::::::
         :: total energy             -66.103028511839 Eh    ::
         :: gradient norm              0.000667005146 Eh/a0 ::
         :: HOMO-LUMO gap              2.871734070554 eV    ::
         ::.................................................::
         :: SCC energy               -67.050300601368 Eh    ::
         :: -> isotropic ES            0.079194230780 Eh    ::
         :: -> anisotropic ES          0.005335402179 Eh    ::
         :: -> anisotropic XC          0.026509423954 Eh    ::
         :: -> dispersion             -0.045697467264 Eh    ::
         :: repulsion energy           0.947272089529 Eh    ::
         :: add. restraining           0.000000000000 Eh    ::
         :: total charge               0.000000000000 e     ::
         :::::::::::::::::::::::::::::::::::::::::::::::::::::

           -------------------------------------------------
          |                Property Printout                |
           -------------------------------------------------

    * Orbital Energies and Occupations

         #    Occupation            Energy/Eh            Energy/eV
      -------------------------------------------------------------
         1        2.0000           -0.7452479             -20.2792
       ...           ...                  ...                  ...
        48        2.0000           -0.4562791             -12.4160
        49        2.0000           -0.4535452             -12.3416
        50        2.0000           -0.4515847             -12.2882
        51        2.0000           -0.4426646             -12.0455
        52        2.0000           -0.4411735             -12.0049
        53        2.0000           -0.4384646             -11.9312
        54        2.0000           -0.4303786             -11.7112
        55        2.0000           -0.4226949             -11.5021
        56        2.0000           -0.4109111             -11.1815
        57        2.0000           -0.4067191             -11.0674
        58        2.0000           -0.4031733             -10.9709
        59        2.0000           -0.3941481             -10.7253
        60        2.0000           -0.3849243             -10.4743 (HOMO)
        61                         -0.2793900              -7.6026 (LUMO)
        62                         -0.2380124              -6.4766
        63                         -0.2083646              -5.6699
        64                         -0.1999250              -5.4402
        65                         -0.1762640              -4.7964
        66                         -0.0556990              -1.5156
        67                          0.0002881               0.0078
        68                          0.0412463               1.1224
        69                          0.0540249               1.4701
        70                          0.0677794               1.8444
        71                          0.0744254               2.0252
       ...                                ...                  ...
       114                          0.7118311              19.3699
      -------------------------------------------------------------
                  HL-Gap            0.1055343 Eh            2.8717 eV
             Fermi-level           -0.3321572 Eh           -9.0385 eV

     #   Z          covCN         q      C6AA      α(0)
     1   6 C        2.837    -0.096    30.411     9.037
     2   6 C        2.889    -0.022    28.553     8.761
     3   6 C        3.809    -0.059    21.630     6.620
     4   6 C        2.986    -0.031    28.775     8.799
     5   6 C        2.998     0.010    27.775     8.645
     6   6 C        3.754    -0.110    22.656     6.787
     7   6 C        3.787     0.109    18.809     6.177
     8   8 O        1.704    -0.276    18.571     5.818
     9   6 C        2.712     0.356    20.964     7.495
    10   8 O        0.857    -0.436    22.421     6.348
    11   6 C        3.858    -0.062    21.642     6.616
    12   6 C        3.864    -0.021    20.911     6.503
    13   6 C        2.897    -0.065    29.619     8.923
    14   6 C        2.941     0.011    27.760     8.641
    15   6 C        3.759    -0.111    22.664     6.787
    16   6 C        3.759    -0.109    22.626     6.781
    17   6 C        3.906     0.035    19.930     6.346
    18   6 C        3.755    -0.109    22.643     6.785
    19   6 C        3.755    -0.112    22.691     6.792
    20   6 C        3.829    -0.101    22.396     6.734
    21   6 C        2.870     0.227    23.241     7.903
    22   8 O        0.856    -0.365    20.991     6.143
    23   1 H        0.926     0.037     2.493     2.469
    24   1 H        0.926     0.038     2.478     2.462
    25   1 H        0.925     0.037     2.494     2.470
    26   1 H        0.924     0.052     2.297     2.370
    27   1 H        0.924     0.073     2.053     2.241
    28   1 H        0.925     0.066     2.128     2.281
    29   1 H        0.924     0.066     2.128     2.281
    30   1 H        0.925     0.061     2.184     2.311
    31   1 H        0.923     0.069     2.095     2.263
    32   1 H        0.925     0.057     2.229     2.335
    33   1 H        0.925     0.051     2.312     2.378
    34   1 H        0.926     0.035     2.519     2.482
    35   1 H        0.925     0.048     2.345     2.395
    36   1 H        0.925     0.040     2.448     2.447
    37   1 H        0.925     0.048     2.350     2.397
    38   1 H        0.925     0.046     2.366     2.405
    39   1 H        0.924     0.041     2.438     2.442
    40   1 H        0.925     0.043     2.407     2.426
    41   1 H        0.925     0.046     2.375     2.410
    42   1 H        0.925     0.047     2.357     2.401
    43   1 H        0.925     0.045     2.378     2.411
    44   1 H        0.925     0.051     2.305     2.374
    45   1 H        0.925     0.046     2.376     2.411
    46   1 H        0.925     0.041     2.430     2.438
    47   1 H        0.925     0.070     2.085     2.258
    48   1 H        0.924     0.081     1.964     2.192

 Mol. C6AA /au·bohr⁶  :      21199.506996
 Mol. C8AA /au·bohr⁸  :     484636.204303
 Mol. α(0) /au        :        221.190935


Wiberg/Mayer (AO) data.
largest (>0.10) Wiberg bond orders for each atom

 ---------------------------------------------------------------------------
     #   Z sym  total        # sym  WBO       # sym  WBO       # sym  WBO
 ---------------------------------------------------------------------------
     1   6 C    3.989 --     2 C    1.973    24 H    0.976    23 H    0.975
     2   6 C    3.990 --     1 C    1.973     3 C    1.011    25 H    0.967
     3   6 C    3.994 --     2 C    1.011     4 C    1.002    26 H    0.961
                            27 H    0.952
     4   6 C    3.982 --     5 C    1.727    21 C    1.051     3 C    1.002
     5   6 C    3.982 --     4 C    1.727     6 C    1.047     7 C    0.985
     6   6 C    3.994 --     5 C    1.047    30 H    0.973    28 H    0.972
                            29 H    0.950
     7   6 C    3.933 --    20 C    0.991     5 C    0.985    31 H    0.936
                             8 O    0.933
     8   8 O    2.291 --     9 C    1.099     7 C    0.933    10 O    0.158
     9   6 C    3.918 --    10 O    1.703     8 O    1.099    11 C    1.036
    10   8 O    2.015 --     9 C    1.703     8 O    0.158
    11   6 C    3.936 --     9 C    1.036    32 H    0.965    17 C    0.884
                            12 C    0.880
    12   6 C    3.945 --    13 C    1.031    17 C    0.974    33 H    0.954
                            11 C    0.880
    13   6 C    3.984 --    14 C    1.863    12 C    1.031    34 H    0.959
    14   6 C    3.987 --    13 C    1.863    15 C    1.029    16 C    1.023
    15   6 C    3.996 --    14 C    1.029    36 H    0.985    37 H    0.971
                            35 H    0.970
    16   6 C    3.997 --    14 C    1.023    40 H    0.987    38 H    0.973
                            39 H    0.969
    17   6 C    3.950 --    19 C    1.010    18 C    1.008    12 C    0.974
                            11 C    0.884
    18   6 C    3.995 --    17 C    1.008    42 H    0.982    43 H    0.981
                            41 H    0.979
    19   6 C    3.994 --    17 C    1.010    46 H    0.982    45 H    0.980
                            44 H    0.979
    20   6 C    3.993 --     7 C    0.991    21 C    0.973    47 H    0.961
                            48 H    0.947
    21   6 C    3.934 --    22 O    1.807     4 C    1.051    20 C    0.973
    22   8 O    2.070 --    21 C    1.807
    23   1 H    0.999 --     1 C    0.975
    24   1 H    0.998 --     1 C    0.976
    25   1 H    0.999 --     2 C    0.967
    26   1 H    0.997 --     3 C    0.961
    27   1 H    0.994 --     3 C    0.952
    28   1 H    0.994 --     6 C    0.972
    29   1 H    0.991 --     6 C    0.950
    30   1 H    0.996 --     6 C    0.973
    31   1 H    0.995 --     7 C    0.936
    32   1 H    0.996 --    11 C    0.965
    33   1 H    0.997 --    12 C    0.954
    34   1 H    0.998 --    13 C    0.959
    35   1 H    0.997 --    15 C    0.970
    36   1 H    0.998 --    15 C    0.985
    37   1 H    0.996 --    15 C    0.971
    38   1 H    0.998 --    16 C    0.973
    39   1 H    0.998 --    16 C    0.969
    40   1 H    0.998 --    16 C    0.987
    41   1 H    0.996 --    18 C    0.979
    42   1 H    0.998 --    18 C    0.982
    43   1 H    0.998 --    18 C    0.981
    44   1 H    0.997 --    19 C    0.979
    45   1 H    0.998 --    19 C    0.980
    46   1 H    0.998 --    19 C    0.982
    47   1 H    0.995 --    20 C    0.961
    48   1 H    0.993 --    20 C    0.947
 ---------------------------------------------------------------------------

Topologies differ in total number of bonds
Writing topology from bond orders to xtbtopo.mol

molecular dipole:
                 x           y           z       tot (Debye)
 q only:       -1.321      -0.809       0.528
   full:       -1.483      -0.701       0.567       4.411
molecular quadrupole (traceless):
                xx          xy          yy          xz          yz          zz
 q only:       -1.622       3.209      -3.432      14.006      -7.315       5.055
  q+dip:       -5.933       4.512      -1.365      15.778     -10.263       7.298
   full:       -5.495       4.870      -0.786      15.808      -9.554       6.280

           -------------------------------------------------
          |                Geometry Summary                 |
           -------------------------------------------------

      molecular mass/u    :      302.4086564
   center of mass at/Å    :        0.3620579       0.1717785      -0.1300557
  moments of inertia/u·Å² :        0.1206650E+04   0.3284185E+04   0.3961788E+04
rotational constants/cm⁻¹ :        0.1397060E-01   0.5132973E-02   0.4255057E-02

 * 42 selected distances

     #   Z          #   Z                                           value/Å
     1   6 C        2   6 C                                       1.3197162
     4   6 C        5   6 C                                       1.3422024
     5   6 C        6   6 C                                       1.4840452
     7   6 C        8   8 O                                       1.4281076
     8   8 O        9   6 C                                       1.3473430
     9   6 C       10   8 O                                       1.2091959
     9   6 C       11   6 C                                       1.4708458
    11   6 C       12   6 C                                       1.5273307
    12   6 C       13   6 C                                       1.4794841
    13   6 C       14   6 C                                       1.3300310
    11   6 C       17   6 C                                       1.5256285
    12   6 C       17   6 C                                       1.4909820
    17   6 C       18   6 C                                       1.5123753
    17   6 C       19   6 C                                       1.5105856
     7   6 C       20   6 C                                       1.5281502 (max)
    21   6 C       22   8 O                                       1.2073433
     1   6 C       23   1 H                                       1.0786759
     1   6 C       24   1 H                                       1.0765708 (min)
     2   6 C       25   1 H                                       1.0819518
     3   6 C       26   1 H                                       1.0923755
     3   6 C       27   1 H                                       1.0945884
     6   6 C       28   1 H                                       1.0884262
     6   6 C       29   1 H                                       1.0911401
     6   6 C       30   1 H                                       1.0869572
     7   6 C       31   1 H                                       1.1000396
    11   6 C       32   1 H                                       1.0839834
    12   6 C       33   1 H                                       1.0858776
    13   6 C       34   1 H                                       1.0807380
    15   6 C       35   1 H                                       1.0899304
    15   6 C       36   1 H                                       1.0868666
    15   6 C       37   1 H                                       1.0897901
    16   6 C       38   1 H                                       1.0892454
    16   6 C       39   1 H                                       1.0907169
    16   6 C       40   1 H                                       1.0867076
    18   6 C       41   1 H                                       1.0892519
    18   6 C       42   1 H                                       1.0865201
    18   6 C       43   1 H                                       1.0885642
    19   6 C       44   1 H                                       1.0850752
    19   6 C       45   1 H                                       1.0889718
    19   6 C       46   1 H                                       1.0891390
    20   6 C       47   1 H                                       1.0888877
    20   6 C       48   1 H                                       1.0910287

 * 3 distinct bonds (by element types)

   Z      Z             #   av. dist./Å        max./Å        min./Å
   1 H    6 C          26     1.0877700     1.1000396     1.0765708
   6 C    6 C          12     1.4601147     1.5281502     1.3197162
   6 C    8 O           4     1.2979974     1.4281076     1.2073433


optimized geometry written to: xtbopt.xyz


           -------------------------------------------------
          | TOTAL ENERGY              -66.103028511839 Eh   |
          | GRADIENT NORM               0.000667005146 Eh/α |
          | HOMO-LUMO GAP               2.871734070554 eV   |
           -------------------------------------------------

------------------------------------------------------------------------
 * finished run on 2026/07/07 at 06:27:16.235     
------------------------------------------------------------------------
 total:
 * wall-time:     0 d,  0 h,  0 min, 14.160 sec
 *  cpu-time:     0 d,  0 h,  3 min, 45.830 sec
 * ratio c/w:    15.948 speedup
 SCF:
 * wall-time:     0 d,  0 h,  0 min,  0.362 sec
 *  cpu-time:     0 d,  0 h,  0 min,  5.786 sec
 * ratio c/w:    15.995 speedup
 ANC optimizer:
 * wall-time:     0 d,  0 h,  0 min, 13.735 sec
 *  cpu-time:     0 d,  0 h,  3 min, 39.097 sec
 * ratio c/w:    15.951 speedup

