32
REP_00351 MMFF geometry for GFN2-xTB preoptimization
O  -0.436836796961  0.813078071050  1.343487123021
C  -0.676072458516  0.594266346864 -0.053943721427
C   0.548027873355  1.089748959545 -0.868892720757
C   1.850850162181  0.371892449531 -0.588520465840
C   2.673220904753  0.782209740377  0.470418938017
C   3.869024589094  0.115104515414  0.738863244405
C   4.256707131623 -0.966057540280 -0.049845188021
C   3.450720472553 -1.378961552545 -1.109006874938
C   2.254246275472 -0.712810959592 -1.379059592948
C  -1.902683856038  1.448799081990 -0.437032465521
C  -3.184869800190  0.988997392610  0.257904454787
C  -3.457742995758 -0.488888882494  0.006244180138
C  -2.267576201769 -1.351266228928  0.408447198037
C  -0.979773616905 -0.899381302626 -0.283463282551
H   0.274428474187  0.204288379946  1.612730158530
H   0.710585137384  2.157400959381 -0.665722870810
H   0.332430340038  1.020827827758 -1.943545899992
H   2.385350400659  1.628625470862  1.091669579190
H   4.499820783911  0.441702114535  1.561593624907
H   5.189122751140 -1.484195025306  0.158228029355
H   3.755323874492 -2.219683811187 -1.726925081709
H   1.638645392156 -1.047610711722 -2.210924599495
H  -2.056646312692  1.414113824346 -1.523179155956
H  -1.727151639966  2.497699515566 -0.166608307845
H  -3.108301130892  1.170199566725  1.336866251896
H  -4.030613983847  1.585243482203 -0.103239101651
H  -4.346324869829 -0.801109396140  0.566310657581
H  -3.679040040733 -0.644198587845 -1.056871519529
H  -2.136213370017 -1.310247770328  1.496641500287
H  -2.470570269400 -2.397921379654  0.154279089852
H  -1.062827497451 -1.100464347820 -1.358937237814
H  -0.165259722042 -1.521400202222  0.105626804126
