      -----------------------------------------------------------      
     |                   =====================                   |     
     |                           x T B                           |     
     |                   =====================                   |     
     |                         S. Grimme                         |     
     |          Mulliken Center for Theoretical Chemistry        |     
     |                    University of Bonn                     |     
      -----------------------------------------------------------      

   * xtb version 6.7.1 (edcfbbe) compiled by 'conda@5dfe00f5fb80' on 2026-06-10

   xtb is free software: you can redistribute it and/or modify it under
   the terms of the GNU Lesser General Public License as published by
   the Free Software Foundation, either version 3 of the License, or
   (at your option) any later version.
   
   xtb is distributed in the hope that it will be useful,
   but WITHOUT ANY WARRANTY; without even the implied warranty of
   MERCHANTABILITY or FITNESS FOR A PARTICULAR PURPOSE.  See the
   GNU Lesser General Public License for more details.
   
   Cite this work as:
   * C. Bannwarth, E. Caldeweyher, S. Ehlert, A. Hansen, P. Pracht,
     J. Seibert, S. Spicher, S. Grimme, WIREs Comput. Mol. Sci., 2020, 11,
     e01493. DOI: 10.1002/wcms.1493
   
   for GFN2-xTB:
   * C. Bannwarth, S. Ehlert and S. Grimme., J. Chem. Theory Comput., 2019,
     15, 1652-1671. DOI: 10.1021/acs.jctc.8b01176
   for GFN1-xTB:
   * S. Grimme, C. Bannwarth, P. Shushkov, J. Chem. Theory Comput., 2017,
     13, 1989-2009. DOI: 10.1021/acs.jctc.7b00118
   for GFN0-xTB:
   * P. Pracht, E. Caldeweyher, S. Ehlert, S. Grimme, ChemRxiv, 2019, preprint.
     DOI: 10.26434/chemrxiv.8326202.v1
   for GFN-FF:
   * S. Spicher and S. Grimme, Angew. Chem. Int. Ed., 2020, 59, 15665-15673.
     DOI: 10.1002/anie.202004239
   
   for ALPB and GBSA implicit solvation:
   * S. Ehlert, M. Stahn, S. Spicher, S. Grimme, J. Chem. Theory Comput.,
     2021, 17, 4250-4261. DOI: 10.1021/acs.jctc.1c00471
   
   for ddCOSMO and CPCM-X implicit solvation:
   * M. Stahn, S. Ehlert, S. Grimme, J. Phys. Chem. A,
     2023, XX, XXXX-XXXX. DOI: 10.1021/acs.jpca.3c04382
   
   for DFT-D4:
   * E. Caldeweyher, C. Bannwarth and S. Grimme, J. Chem. Phys., 2017,
     147, 034112. DOI: 10.1063/1.4993215
   * E. Caldeweyher, S. Ehlert, A. Hansen, H. Neugebauer, S. Spicher,
     C. Bannwarth and S. Grimme, J. Chem. Phys., 2019, 150, 154122.
     DOI: 10.1063/1.5090222
   * E. Caldeweyher, J.-M. Mewes, S. Ehlert and S. Grimme, Phys. Chem. Chem. Phys.
     2020, 22, 8499-8512. DOI: 10.1039/D0CP00502A
   
   for sTDA-xTB:
   * S. Grimme and C. Bannwarth, J. Chem. Phys., 2016, 145, 054103.
     DOI: 10.1063/1.4959605
   
   in the mass-spec context:
   * V. Asgeirsson, C. Bauer and S. Grimme, Chem. Sci., 2017, 8, 4879.
     DOI: 10.1039/c7sc00601b
   * J. Koopman and S. Grimme, ACS Omega 2019, 4, 12, 15120-15133.
     DOI: 10.1021/acsomega.9b02011
   
   for metadynamics refer to:
   * S. Grimme, J. Chem. Theory Comput., 2019, 155, 2847-2862
     DOI: 10.1021/acs.jctc.9b00143
   
   for SPH calculations refer to:
   * S. Spicher and S. Grimme, J. Chem. Theory Comput., 2021, 17, 1701-1714
     DOI: 10.1021/acs.jctc.0c01306
   
   for ONIOM refer to:
   * C. Plett, A. Katbashev, S. Ehlert, S. Grimme, M. Bursch,
     Phys. Chem. Chem. Phys., 2023, 25, 17860-17868. DOI: 10.1039/D3CP02178E
   
   for DIPRO refer to:
   * J. Kohn, N. Gildemeister, S. Grimme, D. Fazzi, A. Hansen,
     J. Chem. Phys., 2023, just accepted.
   
   for PTB refer to:
   * S. Grimme, M. Mueller, A. Hansen, J. Chem. Phys., 2023, 158, 124111.
     DOI: 10.1063/5.0137838
   
   with help from (in alphabetical order)
   P. Atkinson, C. Bannwarth, F. Bohle, G. Brandenburg, E. Caldeweyher
   M. Checinski, S. Dohm, S. Ehlert, S. Ehrlich, I. Gerasimov, C. Hölzer
   A. Katbashev, J. Kohn, J. Koopman, C. Lavigne, S. Lehtola, F. März, M. Müller,
   F. Musil, H. Neugebauer, J. Pisarek, C. Plett, P. Pracht, F. Pultar,
   J. Seibert, P. Shushkov, S. Spicher, M. Stahn, M. Steiner, T. Strunk,
   J. Stückrath, T. Rose, and J. Unsleber
   
 * started run on 2026/07/08 at 21:49:36.688     
   ID    Z sym.   atoms
    1    6 C      1-4, 6-8
    2    8 O      5
    3    7 N      9
    4    1 H      10-22

           -------------------------------------------------
          |                Calculation Setup                |
           -------------------------------------------------

          program call               : /home/ws/xd2484/miniforge3/envs/p3z_dft/bin/xtb xtb_input.xyz --gfn 2 --opt tight --cycles 500 --chrg 0 --uhf 0
          hostname                   : gpu10
          coordinate file            : xtb_input.xyz
          omp threads                :                    16


           -------------------------------------------------
          |                 G F N 2 - x T B                 |
           -------------------------------------------------

        Reference                      10.1021/acs.jctc.8b01176
      * Hamiltonian:
        H0-scaling (s, p, d)           1.850000    2.230000    2.230000
        zeta-weighting                 0.500000
      * Dispersion:
        s8                             2.700000
        a1                             0.520000
        a2                             5.000000
        s9                             5.000000
      * Repulsion:
        kExp                           1.500000    1.000000
        rExp                           1.000000
      * Coulomb:
        alpha                          2.000000
        third order                    shell-resolved
        anisotropic                    true
        a3                             3.000000
        a5                             4.000000
        cn-shift                       1.200000
        cn-exp                         4.000000
        max-rad                        5.000000


          ...................................................
          :                      SETUP                      :
          :.................................................:
          :  # basis functions                  49          :
          :  # atomic orbitals                  49          :
          :  # shells                           31          :
          :  # electrons                        52          :
          :  max. iterations                   250          :
          :  Hamiltonian                  GFN2-xTB          :
          :  restarted?                      false          :
          :  GBSA solvation                  false          :
          :  PC potential                    false          :
          :  electronic temp.          300.0000000     K    :
          :  accuracy                    1.0000000          :
          :  -> integral cutoff          0.2500000E+02      :
          :  -> integral neglect         0.1000000E-07      :
          :  -> SCF convergence          0.1000000E-05 Eh   :
          :  -> wf. convergence          0.1000000E-03 e    :
          :  Broyden damping             0.4000000          :
          :  net charge                          0          :
          :  unpaired electrons                  0          :
          ...................................................

 iter      E             dE          RMSdq      gap      omega  full diag
   1    -28.8983043 -0.288983E+02  0.451E+00    6.39       0.0  T
   2    -28.9401043 -0.418000E-01  0.262E+00    6.17       1.0  T
   3    -28.9170023  0.231021E-01  0.156E+00    5.20       1.0  T
   4    -28.9458955 -0.288932E-01  0.661E-01    5.07       1.0  T
   5    -28.9511956 -0.530014E-02  0.152E-01    5.08       1.0  T
   6    -28.9513071 -0.111444E-03  0.525E-02    5.15       1.0  T
   7    -28.9513162 -0.913158E-05  0.157E-02    5.17       1.4  T
   8    -28.9513167 -0.501002E-06  0.377E-03    5.17       5.7  T
   9    -28.9513168 -0.402819E-07  0.126E-03    5.17      16.9  T
  10    -28.9513168 -0.220942E-08  0.389E-04    5.17      54.9  T
  11    -28.9513168 -0.213230E-09  0.118E-04    5.17     180.6  T

   *** convergence criteria satisfied after 11 iterations ***

         #    Occupation            Energy/Eh            Energy/eV
      -------------------------------------------------------------
         1        2.0000           -0.7062645             -19.2184
       ...           ...                  ...                  ...
        20        2.0000           -0.4624524             -12.5840
        21        2.0000           -0.4575496             -12.4506
        22        2.0000           -0.4468480             -12.1594
        23        2.0000           -0.4397710             -11.9668
        24        2.0000           -0.4336501             -11.8002
        25        2.0000           -0.4291635             -11.6781
        26        2.0000           -0.4111593             -11.1882 (HOMO)
        27                         -0.2213007              -6.0219 (LUMO)
        28                         -0.2169310              -5.9030
        29                         -0.0099600              -0.2710
        30                          0.0647357               1.7615
        31                          0.0780355               2.1235
       ...                                ...                  ...
        49                          1.0366233              28.2080
      -------------------------------------------------------------
                  HL-Gap            0.1898586 Eh            5.1663 eV
             Fermi-level           -0.3162300 Eh           -8.6051 eV

 SCC (total)                   0 d,  0 h,  0 min,  0.315 sec
 SCC setup                      ...        0 min,  0.007 sec (  2.316%)
 Dispersion                     ...        0 min,  0.016 sec (  5.100%)
 classical contributions        ...        0 min,  0.008 sec (  2.520%)
 integral evaluation            ...        0 min,  0.025 sec (  7.787%)
 iterations                     ...        0 min,  0.210 sec ( 66.727%)
 molecular gradient             ...        0 min,  0.049 sec ( 15.481%)
 printout                       ...        0 min,  0.000 sec (  0.056%)

         :::::::::::::::::::::::::::::::::::::::::::::::::::::
         ::                     SUMMARY                     ::
         :::::::::::::::::::::::::::::::::::::::::::::::::::::
         :: total energy             -28.561680100263 Eh    ::
         :: gradient norm              0.058482271117 Eh/a0 ::
         :: HOMO-LUMO gap              5.166315234759 eV    ::
         ::.................................................::
         :: SCC energy               -28.951356026129 Eh    ::
         :: -> isotropic ES            0.028372650316 Eh    ::
         :: -> anisotropic ES          0.004956199863 Eh    ::
         :: -> anisotropic XC          0.024797581011 Eh    ::
         :: -> dispersion             -0.012877873794 Eh    ::
         :: repulsion energy           0.389675925866 Eh    ::
         :: add. restraining           0.000000000000 Eh    ::
         :: total charge              -0.000000000000 e     ::
         :::::::::::::::::::::::::::::::::::::::::::::::::::::

      ----------------------------------------------------------- 
     |                   =====================                   |
     |                        A N C O P T                        |
     |                   =====================                   |
     |               Approximate Normal Coordinate               |
     |                Rational Function Optimizer                |
      ----------------------------------------------------------- 
      ----------------------------------------------------------- 
     |                   =====================                   |
     |                        A N C O P T                        |
     |                   =====================                   |
     |               Approximate Normal Coordinate               |
     |                Rational Function Optimizer                |
      ----------------------------------------------------------- 

          ...................................................
          :                      SETUP                      :
          :.................................................:
          :   optimization level             tight          :
          :   max. optcycles                   500          :
          :   ANC micro-cycles                  20          :
          :   degrees of freedom                60          :
          :.................................................:
          :   RF solver                   davidson          :
          :   write xtbopt.log                true          :
          :   linear?                        false          :
          :   energy convergence         0.1000000E-05 Eh   :
          :   grad. convergence          0.8000000E-03 Eh/α :
          :   maxmium RF displ.          1.0000000          :
          :   Hlow (freq-cutoff)         0.1000000E-01      :
          :   Hmax (freq-cutoff)         5.0000000          :
          :   S6 in model hess.         20.0000000          :
          ...................................................

generating ANC from exact Hessian ...
Using Lindh-Hessian (1995)
 Shifting diagonal of input Hessian by    8.9701769068451127E-003
 Lowest  eigenvalues of input Hessian
    0.000000    0.000000    0.000000    0.000000    0.000000    0.000000
    0.010000    0.010359    0.011017    0.011877    0.014580    0.017232
    0.017635    0.019313    0.020894    0.026186    0.030559    0.033208
 Highest eigenvalues
    1.212942    1.242729    1.263985    1.293818    1.494603    2.457960


........................................................................
.............................. CYCLE    1 ..............................
........................................................................

 iter      E             dE          RMSdq      gap      omega  full diag
   1    -28.9513168 -0.289513E+02  0.217E-05    5.17       0.0  T
   2    -28.9513168 -0.436984E-12  0.126E-05    5.17    1687.5  T
   3    -28.9513168  0.952127E-12  0.922E-06    5.17    2313.5  T
     SCC iter.                  ...        0 min,  0.042 sec
     gradient                   ...        0 min,  0.039 sec
 * total energy  :   -28.5616801 Eh     change       -0.4857625E-10 Eh
   gradient norm :     0.0584831 Eh/α   predicted     0.0000000E+00 (-100.00%)
   displ. norm   :     0.1343844 α      lambda       -0.3884649E-02
   maximum displ.:     0.0815367 α      in ANC's #27, #28, #40, ...

........................................................................
.............................. CYCLE    2 ..............................
........................................................................

 iter      E             dE          RMSdq      gap      omega  full diag
   1    -28.9745325 -0.289745E+02  0.155E-01    5.40       0.0  T
   2    -28.9745413 -0.884331E-05  0.104E-01    5.41       1.0  T
   3    -28.9745323  0.903463E-05  0.682E-02    5.43       1.0  T
   4    -28.9745836 -0.513264E-04  0.767E-03    5.43       2.8  T
   5    -28.9745842 -0.576810E-06  0.249E-03    5.43       8.5  T
   6    -28.9745842 -0.174912E-07  0.102E-03    5.43      20.9  T
   7    -28.9745842 -0.203491E-08  0.180E-04    5.43     118.7  T
   8    -28.9745842 -0.939266E-10  0.429E-05    5.43     497.1  T
     SCC iter.                  ...        0 min,  0.108 sec
     gradient                   ...        0 min,  0.043 sec
 * total energy  :   -28.5637306 Eh     change       -0.2050543E-02 Eh
   gradient norm :     0.0226308 Eh/α   predicted    -0.1977554E-02 (  -3.56%)
   displ. norm   :     0.0614951 α      lambda       -0.3833511E-03
   maximum displ.:     0.0249998 α      in ANC's #9, #2, #5, ...

........................................................................
.............................. CYCLE    3 ..............................
........................................................................

 iter      E             dE          RMSdq      gap      omega  full diag
   1    -28.9746213 -0.289746E+02  0.413E-02    5.37       0.0  T
   2    -28.9746265 -0.517608E-05  0.272E-02    5.39       1.0  T
   3    -28.9746257  0.746116E-06  0.167E-02    5.40       1.3  T
   4    -28.9746282 -0.248029E-05  0.624E-03    5.40       3.4  T
   5    -28.9746286 -0.409392E-06  0.933E-04    5.40      22.8  T
   6    -28.9746286 -0.545413E-08  0.333E-04    5.40      64.1  T
     SCC iter.                  ...        0 min,  0.086 sec
     gradient                   ...        0 min,  0.050 sec
 * total energy  :   -28.5639788 Eh     change       -0.2481451E-03 Eh
   gradient norm :     0.0067843 Eh/α   predicted    -0.1926900E-03 ( -22.35%)
   displ. norm   :     0.0613187 α      lambda       -0.9439042E-04
   maximum displ.:     0.0302072 α      in ANC's #2, #3, #1, ...

........................................................................
.............................. CYCLE    4 ..............................
........................................................................

 iter      E             dE          RMSdq      gap      omega  full diag
   1    -28.9743076 -0.289743E+02  0.304E-02    5.37       0.0  T
   2    -28.9743095 -0.187757E-05  0.175E-02    5.39       1.2  T
   3    -28.9743093  0.218915E-06  0.684E-03    5.39       3.1  T
   4    -28.9743095 -0.204797E-06  0.361E-03    5.39       5.9  T
   5    -28.9743097 -0.206167E-06  0.767E-04    5.39      27.8  T
   6    -28.9743097 -0.654183E-08  0.248E-04    5.39      85.8  T
     SCC iter.                  ...        0 min,  0.131 sec
     gradient                   ...        0 min,  0.047 sec
 * total energy  :   -28.5640376 Eh     change       -0.5884193E-04 Eh
   gradient norm :     0.0018982 Eh/α   predicted    -0.4746294E-04 ( -19.34%)
   displ. norm   :     0.0786713 α      lambda       -0.2434234E-04
   maximum displ.:     0.0383788 α      in ANC's #2, #1, #3, ...

........................................................................
.............................. CYCLE    5 ..............................
........................................................................

 iter      E             dE          RMSdq      gap      omega  full diag
   1    -28.9737541 -0.289738E+02  0.399E-02    5.38       0.0  T
   2    -28.9737548 -0.767630E-06  0.226E-02    5.38       1.0  T
   3    -28.9737547  0.165535E-06  0.457E-03    5.39       4.7  T
   4    -28.9737550 -0.308009E-06  0.215E-03    5.39       9.9  T
   5    -28.9737550 -0.606993E-07  0.613E-04    5.39      34.8  T
   6    -28.9737550 -0.986049E-09  0.241E-04    5.39      88.5  T
     SCC iter.                  ...        0 min,  0.104 sec
     gradient                   ...        0 min,  0.044 sec
 * total energy  :   -28.5640549 Eh     change       -0.1727352E-04 Eh
   gradient norm :     0.0029287 Eh/α   predicted    -0.1247442E-04 ( -27.78%)
   displ. norm   :     0.0720979 α      lambda       -0.2975808E-04
   maximum displ.:     0.0416539 α      in ANC's #2, #3, #1, ...

........................................................................
.............................. CYCLE    6 ..............................
........................................................................

 iter      E             dE          RMSdq      gap      omega  full diag
   1    -28.9734380 -0.289734E+02  0.581E-02    5.38       0.0  T
   2    -28.9734388 -0.821851E-06  0.325E-02    5.38       1.0  T
   3    -28.9734389 -0.628053E-07  0.389E-03    5.38       5.5  T
   4    -28.9734391 -0.274559E-06  0.140E-03    5.38      15.2  T
   5    -28.9734391 -0.106043E-07  0.366E-04    5.38      58.2  T
   6    -28.9734391 -0.389683E-09  0.872E-05    5.38     244.6  T
     SCC iter.                  ...        0 min,  0.083 sec
     gradient                   ...        0 min,  0.041 sec
 * total energy  :   -28.5640589 Eh     change       -0.4002977E-05 Eh
   gradient norm :     0.0035548 Eh/α   predicted    -0.1495692E-04 ( 273.64%)
   displ. norm   :     0.0172274 α      lambda       -0.2401382E-04
   maximum displ.:     0.0090274 α      in ANC's #4, #1, #3, ...

........................................................................
.............................. CYCLE    7 ..............................
........................................................................

 iter      E             dE          RMSdq      gap      omega  full diag
   1    -28.9738233 -0.289738E+02  0.264E-02    5.39       0.0  T
   2    -28.9738236 -0.354695E-06  0.147E-02    5.39       1.4  T
   3    -28.9738236  0.228549E-07  0.260E-03    5.39       8.2  T
   4    -28.9738237 -0.897849E-07  0.127E-03    5.39      16.8  T
   5    -28.9738237 -0.238627E-07  0.310E-04    5.39      68.8  T
   6    -28.9738237 -0.511612E-09  0.112E-04    5.39     190.7  T
     SCC iter.                  ...        0 min,  0.071 sec
     gradient                   ...        0 min,  0.035 sec
 * total energy  :   -28.5640755 Eh     change       -0.1654489E-04 Eh
   gradient norm :     0.0016167 Eh/α   predicted    -0.1201543E-04 ( -27.38%)
   displ. norm   :     0.0752299 α      lambda       -0.1351008E-04
   maximum displ.:     0.0435501 α      in ANC's #3, #2, #1, ...

........................................................................
.............................. CYCLE    8 ..............................
........................................................................

 iter      E             dE          RMSdq      gap      omega  full diag
   1    -28.9741061 -0.289741E+02  0.377E-02    5.39       0.0  T
   2    -28.9741068 -0.729490E-06  0.213E-02    5.39       1.0  T
   3    -28.9741067  0.101846E-06  0.429E-03    5.39       5.0  T
   4    -28.9741069 -0.238784E-06  0.201E-03    5.39      10.6  T
   5    -28.9741070 -0.532576E-07  0.615E-04    5.39      34.7  T
   6    -28.9741070 -0.175717E-08  0.192E-04    5.39     111.0  T
     SCC iter.                  ...        0 min,  0.081 sec
     gradient                   ...        0 min,  0.038 sec
 * total energy  :   -28.5640869 Eh     change       -0.1142360E-04 Eh
   gradient norm :     0.0009748 Eh/α   predicted    -0.6773024E-05 ( -40.71%)
   displ. norm   :     0.0609463 α      lambda       -0.5470129E-05
   maximum displ.:     0.0361976 α      in ANC's #3, #2, #1, ...

........................................................................
.............................. CYCLE    9 ..............................
........................................................................

 iter      E             dE          RMSdq      gap      omega  full diag
   1    -28.9742109 -0.289742E+02  0.255E-02    5.39       0.0  T
   2    -28.9742110 -0.157468E-06  0.144E-02    5.39       1.5  T
   3    -28.9742110  0.310428E-08  0.208E-03    5.39      10.3  T
   4    -28.9742111 -0.649390E-07  0.821E-04    5.39      26.0  T
   5    -28.9742111 -0.317376E-08  0.219E-04    5.39      97.1  T
     SCC iter.                  ...        0 min,  0.136 sec
     gradient                   ...        0 min,  0.046 sec
 * total energy  :   -28.5640934 Eh     change       -0.6515012E-05 Eh
   gradient norm :     0.0007579 Eh/α   predicted    -0.2739874E-05 ( -57.95%)
   displ. norm   :     0.0747429 α      lambda       -0.6035308E-05
   maximum displ.:     0.0438714 α      in ANC's #3, #2, #1, ...

........................................................................
.............................. CYCLE   10 ..............................
........................................................................

 iter      E             dE          RMSdq      gap      omega  full diag
   1    -28.9742113 -0.289742E+02  0.279E-02    5.39       0.0  T
   2    -28.9742114 -0.177301E-06  0.159E-02    5.39       1.3  T
   3    -28.9742115 -0.624556E-07  0.113E-03    5.39      18.9  T
   4    -28.9742115  0.138641E-08  0.703E-04    5.39      30.3  T
   5    -28.9742115 -0.408002E-08  0.309E-04    5.39      69.0  T
     SCC iter.                  ...        0 min,  0.064 sec
     gradient                   ...        0 min,  0.039 sec
 * total energy  :   -28.5641005 Eh     change       -0.7135742E-05 Eh
   gradient norm :     0.0005751 Eh/α   predicted    -0.3025562E-05 ( -57.60%)
   displ. norm   :     0.1024332 α      lambda       -0.6352914E-05
   maximum displ.:     0.0594904 α      in ANC's #3, #2, #1, ...

........................................................................
.............................. CYCLE   11 ..............................
........................................................................

 iter      E             dE          RMSdq      gap      omega  full diag
   1    -28.9741985 -0.289742E+02  0.320E-02    5.39       0.0  T
   2    -28.9741987 -0.189471E-06  0.184E-02    5.39       1.2  T
   3    -28.9741988 -0.690580E-07  0.128E-03    5.39      16.7  T
   4    -28.9741987  0.335488E-08  0.845E-04    5.39      25.2  T
   5    -28.9741988 -0.767872E-08  0.276E-04    5.39      77.4  T
     SCC iter.                  ...        0 min,  0.102 sec
     gradient                   ...        0 min,  0.037 sec
 * total energy  :   -28.5641072 Eh     change       -0.6641404E-05 Eh
   gradient norm :     0.0004690 Eh/α   predicted    -0.3192030E-05 ( -51.94%)
   displ. norm   :     0.0713700 α      lambda       -0.3099689E-05
   maximum displ.:     0.0416043 α      in ANC's #3, #2, #1, ...

........................................................................
.............................. CYCLE   12 ..............................
........................................................................

 iter      E             dE          RMSdq      gap      omega  full diag
   1    -28.9741558 -0.289742E+02  0.193E-02    5.39       0.0  T
   2    -28.9741559 -0.525496E-07  0.112E-02    5.39       1.9  T
   3    -28.9741559 -0.180751E-07  0.781E-04    5.39      27.3  T
   4    -28.9741559  0.440934E-09  0.559E-04    5.39      38.2  T
     SCC iter.                  ...        0 min,  0.055 sec
     gradient                   ...        0 min,  0.050 sec
 * total energy  :   -28.5641101 Eh     change       -0.2886891E-05 Eh
   gradient norm :     0.0003899 Eh/α   predicted    -0.1555962E-05 ( -46.10%)
   displ. norm   :     0.0289367 α      lambda       -0.1101981E-05
   maximum displ.:     0.0172680 α      in ANC's #3, #5, #4, ...

........................................................................
.............................. CYCLE   13 ..............................
........................................................................

 iter      E             dE          RMSdq      gap      omega  full diag
   1    -28.9742590 -0.289743E+02  0.951E-03    5.39       0.0  T
   2    -28.9742590 -0.142781E-07  0.550E-03    5.39       3.9  T
   3    -28.9742590 -0.476485E-08  0.389E-04    5.39      54.8  T
   4    -28.9742590 -0.347423E-09  0.210E-04    5.39     101.6  T
     SCC iter.                  ...        0 min,  0.058 sec
     gradient                   ...        0 min,  0.039 sec
 * total energy  :   -28.5641111 Eh     change       -0.1000716E-05 Eh
   gradient norm :     0.0003263 Eh/α   predicted    -0.5518144E-06 ( -44.86%)
   displ. norm   :     0.0137150 α      lambda       -0.5441788E-06
   maximum displ.:     0.0072119 α      in ANC's #5, #3, #4, ...

........................................................................
.............................. CYCLE   14 ..............................
........................................................................

 iter      E             dE          RMSdq      gap      omega  full diag
   1    -28.9742220 -0.289742E+02  0.894E-03    5.39       0.0  T
   2    -28.9742220 -0.189902E-07  0.507E-03    5.39       4.2  T
   3    -28.9742220  0.541579E-08  0.903E-04    5.39      23.6  T
   4    -28.9742220 -0.136575E-07  0.288E-04    5.39      73.9  T
     SCC iter.                  ...        0 min,  0.055 sec
     gradient                   ...        0 min,  0.039 sec
 * total energy  :   -28.5641116 Eh     change       -0.5679396E-06 Eh
   gradient norm :     0.0002244 Eh/α   predicted    -0.2754125E-06 ( -51.51%)
   displ. norm   :     0.0120039 α      lambda       -0.3499033E-06
   maximum displ.:     0.0059535 α      in ANC's #3, #1, #10, ...

   *** GEOMETRY OPTIMIZATION CONVERGED AFTER 14 ITERATIONS ***

------------------------------------------------------------------------
 total energy gain   :        -0.0024315 Eh       -1.5258 kcal/mol
 total RMSD          :         0.1402965 a0        0.0742 Å
 total power (kW/mol):        -0.4559974 (step)   -2.7903 (real)
------------------------------------------------------------------------

 ANCopt (total)                0 d,  0 h,  0 min,  2.288 sec
 optimizer setup                ...        0 min,  0.001 sec (  0.031%)
 model hessian                  ...        0 min,  0.006 sec (  0.280%)
 ANC generation                 ...        0 min,  0.001 sec (  0.036%)
 coordinate transformation      ...        0 min,  0.000 sec (  0.007%)
 single point calculation       ...        0 min,  2.215 sec ( 96.804%)
 optimization log               ...        0 min,  0.001 sec (  0.061%)
 hessian update                 ...        0 min,  0.060 sec (  2.623%)
 rational function              ...        0 min,  0.001 sec (  0.056%)

================
 final structure:
================
22
 xtb: 6.7.1 (edcfbbe)
C           -3.47376063505784        0.12231357527801       -0.69531544954792
C           -2.09112206190656        0.42072760201793       -0.13085495520896
C           -1.46940266635116       -0.81142501334735        0.52211156570395
C           -0.07200016294302       -0.52791295438732        1.06026140385381
O            0.78855534431939       -0.25035544168632       -0.02284884827545
C            2.10050141345669        0.05245597470171        0.37306830780682
C            2.91282185995722        0.34436671956589       -0.89221740207368
C            4.27912343942679        0.65935833033352       -0.57116266919202
N            5.36247703645865        0.90892807233446       -0.30640662001431
H           -3.41796700251383       -0.66106300308124       -1.44770752316585
H           -3.89791010077569        1.01110209555083       -1.15628475095539
H           -4.14558056074784       -0.20889565316183        0.09383854297804
H           -2.16456472757490        1.22177055594650        0.60849100750261
H           -1.43178679663304        0.76103033920087       -0.93026822510738
H           -2.09652229994370       -1.15305827211425        1.34782123318343
H           -1.39964389445747       -1.61503582860464       -0.21257267926040
H            0.30567505993806       -1.39849676332010        1.62027374229100
H           -0.09461401139734        0.33230329009308        1.74827841820825
H            2.54395343863606       -0.79431384181634        0.92255490475879
H            2.10985995352965        0.92939451037180        1.04119985361198
H            2.46379510528453        1.18684073692928       -1.42460737087815
H            2.88811226929446       -0.53003503080750       -1.54765248621936

 Bond Distances (Angstroems)
 ---------------------------
C1-C2=1.5229         C1-H10=1.0876        C1-H11=1.0874        C1-H12=1.0880        C2-C1=1.5229         C2-C3=1.5268         
C2-H13=1.0926        C2-H14=1.0907        C3-C2=1.5268         C3-C4=1.5240         C3-H15=1.0917        C3-H16=1.0911        
C4-C3=1.5240         C4-O5=1.4109         C4-H17=1.1019        C4-H18=1.1017        O5-C4=1.4109         O5-C6=1.4034         
C6-O5=1.4034         C6-C7=1.5317         C6-H19=1.1025        C6-H20=1.1025        C7-C6=1.5317         C7-C8=1.4384         
C7-H21=1.0931        C7-H22=1.0931        C8-C7=1.4384         C8-N9=1.1428         N9-C8=1.1428         H10-C1=1.0876        
H11-C1=1.0874        H12-C1=1.0880        H13-C2=1.0926        H14-C2=1.0907        H15-C3=1.0917        H16-C3=1.0911        
H17-C4=1.1019        H18-C4=1.1017        H19-C6=1.1025        H20-C6=1.1025        H21-C7=1.0931        H22-C7=1.0931        
 C  H  Rav=1.0941 sigma=0.0057  Rmin=1.0874  Rmax=1.1025    13
 C  C  Rav=1.5088 sigma=0.0353  Rmin=1.4384  Rmax=1.5317     5
 N  C  Rav=1.1428 sigma=0.0000  Rmin=1.1428  Rmax=1.1428     1
 O  C  Rav=1.4072 sigma=0.0037  Rmin=1.4034  Rmax=1.4109     2

 selected bond angles (degree)
 --------------------
H10-C1-C2=110.55               H11-C1-C2=110.55               H11-C1-H10=108.39              H12-C1-C2=110.57               
H12-C1-H10=108.31              H12-C1-H11=108.39              C3-C2-C1=111.72                H13-C2-C1=109.48               
H13-C2-C3=109.25               H14-C2-C1=109.77               H14-C2-C3=108.61               H14-C2-H13=107.93              
C4-C3-C2=111.98                H15-C3-C2=110.01               H15-C3-C4=108.53               H16-C3-C2=109.42               
H16-C3-C4=108.43               H16-C3-H15=108.39              O5-C4-C3=108.95                H17-C4-C3=110.29               
H17-C4-O5=109.66               H18-C4-C3=110.30               H18-C4-O5=109.77               H18-C4-H17=107.85              
C6-O5-C4=113.33                C7-C6-O5=107.69                H19-C6-O5=110.54               H19-C6-C7=110.17               
H20-C6-O5=110.52               H20-C6-C7=110.15               H20-C6-H19=107.78              C8-C7-C6=111.17                
H21-C7-C6=109.35               H21-C7-C8=109.28               H22-C7-C6=109.32               H22-C7-C8=109.30               
H22-C7-H21=108.37              N9-C8-C7=179.50                

 selected dihedral angles (degree)
 ---------------------------------
C3-C2-C1-H10=300.09           C3-C2-C1-H11=180.07           C3-C2-C1-H12= 60.03           H13-C2-C1-H10=178.94          
H13-C2-C1-H11= 58.92          H13-C2-C1-H12=298.88          H14-C2-C1-H10= 60.64          H14-C2-C1-H11=300.61          
H14-C2-C1-H12=180.58          C4-C3-C2-C1=178.67            C4-C3-C2-H13=299.95           C4-C3-C2-H14= 57.44           
H15-C3-C2-C1=299.44           H15-C3-C2-H13= 60.73          H15-C3-C2-H14=178.22          H16-C3-C2-C1= 58.42           
H16-C3-C2-H13=179.70          H16-C3-C2-H14=297.19          O5-C4-C3-C2=294.25            O5-C4-C3-H15=172.62           
O5-C4-C3-H16= 55.07           H17-C4-C3-C2=173.83           H17-C4-C3-H15= 52.21          H17-C4-C3-H16=294.66          
H18-C4-C3-C2= 54.81           H18-C4-C3-H15=293.18          H18-C4-C3-H16=175.63          C6-O5-C4-C3=178.76            
C6-O5-C4-H17=299.56           C6-O5-C4-H18= 57.88           C7-C6-O5-C4=180.59            H19-C6-O5-C4= 60.20           
H20-C6-O5-C4=300.96           C8-C7-C6-O5=180.28            C8-C7-C6-H19=300.90           C8-C7-C6-H20= 59.68           
H21-C7-C6-O5= 59.53           H21-C7-C6-H19=180.16          H21-C7-C6-H20=298.94          H22-C7-C6-O5=301.03           
H22-C7-C6-H19= 61.66          H22-C7-C6-H20=180.44          N9-C8-C7-C6=356.97            N9-C8-C7-H21=117.76           
N9-C8-C7-H22=236.21           
           -------------------------------------------------
          |                Final Singlepoint                |
           -------------------------------------------------

          ...................................................
          :                      SETUP                      :
          :.................................................:
          :  # basis functions                  49          :
          :  # atomic orbitals                  49          :
          :  # shells                           31          :
          :  # electrons                        52          :
          :  max. iterations                   250          :
          :  Hamiltonian                  GFN2-xTB          :
          :  restarted?                      false          :
          :  GBSA solvation                  false          :
          :  PC potential                    false          :
          :  electronic temp.          300.0000000     K    :
          :  accuracy                    1.0000000          :
          :  -> integral cutoff          0.2500000E+02      :
          :  -> integral neglect         0.1000000E-07      :
          :  -> SCF convergence          0.1000000E-05 Eh   :
          :  -> wf. convergence          0.1000000E-03 e    :
          :  Broyden damping             0.4000000          :
          :  net charge                          0          :
          :  unpaired electrons                  0          :
          ...................................................

 iter      E             dE          RMSdq      gap      omega  full diag
   1    -28.9742220 -0.289742E+02  0.834E-05    5.39       0.0  T
   2    -28.9742220 -0.202434E-10  0.496E-05    5.39     430.1  T
   3    -28.9742220  0.714095E-12  0.347E-05    5.39     615.1  T

   *** convergence criteria satisfied after 3 iterations ***

         #    Occupation            Energy/Eh            Energy/eV
      -------------------------------------------------------------
         1        2.0000           -0.7112384             -19.3538
       ...           ...                  ...                  ...
        20        2.0000           -0.4624776             -12.5847
        21        2.0000           -0.4583177             -12.4715
        22        2.0000           -0.4466112             -12.1529
        23        2.0000           -0.4403906             -11.9836
        24        2.0000           -0.4313509             -11.7377
        25        2.0000           -0.4298399             -11.6965
        26        2.0000           -0.4102729             -11.1641 (HOMO)
        27                         -0.2123016              -5.7770 (LUMO)
        28                         -0.2068372              -5.6283
        29                          0.0130303               0.3546
        30                          0.0650551               1.7702
        31                          0.0820012               2.2314
       ...                                ...                  ...
        49                          1.1434364              31.1145
      -------------------------------------------------------------
                  HL-Gap            0.1979714 Eh            5.3871 eV
             Fermi-level           -0.3112873 Eh           -8.4706 eV

 SCC (total)                   0 d,  0 h,  0 min,  0.110 sec
 SCC setup                      ...        0 min,  0.002 sec (  2.110%)
 Dispersion                     ...        0 min,  0.008 sec (  7.396%)
 classical contributions        ...        0 min,  0.003 sec (  2.674%)
 integral evaluation            ...        0 min,  0.013 sec ( 11.496%)
 iterations                     ...        0 min,  0.043 sec ( 39.100%)
 molecular gradient             ...        0 min,  0.041 sec ( 37.097%)
 printout                       ...        0 min,  0.000 sec (  0.100%)

         :::::::::::::::::::::::::::::::::::::::::::::::::::::
         ::                     SUMMARY                     ::
         :::::::::::::::::::::::::::::::::::::::::::::::::::::
         :: total energy             -28.564111623623 Eh    ::
         :: gradient norm              0.000222909182 Eh/a0 ::
         :: HOMO-LUMO gap              5.387075531442 eV    ::
         ::.................................................::
         :: SCC energy               -28.974256199311 Eh    ::
         :: -> isotropic ES            0.027673518608 Eh    ::
         :: -> anisotropic ES          0.004527660181 Eh    ::
         :: -> anisotropic XC          0.023818830262 Eh    ::
         :: -> dispersion             -0.012965727641 Eh    ::
         :: repulsion energy           0.410144575688 Eh    ::
         :: add. restraining           0.000000000000 Eh    ::
         :: total charge              -0.000000000000 e     ::
         :::::::::::::::::::::::::::::::::::::::::::::::::::::

           -------------------------------------------------
          |                Property Printout                |
           -------------------------------------------------

    * Orbital Energies and Occupations

         #    Occupation            Energy/Eh            Energy/eV
      -------------------------------------------------------------
         1        2.0000           -0.7112384             -19.3538
       ...           ...                  ...                  ...
        14        2.0000           -0.5114912             -13.9184
        15        2.0000           -0.5025863             -13.6761
        16        2.0000           -0.4983010             -13.5595
        17        2.0000           -0.4838430             -13.1660
        18        2.0000           -0.4761163             -12.9558
        19        2.0000           -0.4681628             -12.7394
        20        2.0000           -0.4624776             -12.5847
        21        2.0000           -0.4583177             -12.4715
        22        2.0000           -0.4466112             -12.1529
        23        2.0000           -0.4403906             -11.9836
        24        2.0000           -0.4313509             -11.7377
        25        2.0000           -0.4298399             -11.6965
        26        2.0000           -0.4102729             -11.1641 (HOMO)
        27                         -0.2123016              -5.7770 (LUMO)
        28                         -0.2068372              -5.6283
        29                          0.0130303               0.3546
        30                          0.0650551               1.7702
        31                          0.0820012               2.2314
        32                          0.1059664               2.8835
        33                          0.1212158               3.2985
        34                          0.1255582               3.4166
        35                          0.1309900               3.5644
        36                          0.1357772               3.6947
        37                          0.1481546               4.0315
       ...                                ...                  ...
        49                          1.1434364              31.1145
      -------------------------------------------------------------
                  HL-Gap            0.1979714 Eh            5.3871 eV
             Fermi-level           -0.3112873 Eh           -8.4706 eV

     #   Z          covCN         q      C6AA      α(0)
     1   6 C        3.752    -0.104    22.556     6.773
     2   6 C        3.801    -0.054    21.540     6.608
     3   6 C        3.802    -0.063    21.703     6.633
     4   6 C        3.704     0.088    19.268     6.276
     5   8 O        1.702    -0.317    19.290     5.930
     6   6 C        3.710     0.101    19.052     6.238
     7   6 C        3.803    -0.059    21.641     6.623
     8   6 C        1.898     0.113    28.310     8.593
     9   7 N        0.911    -0.229    26.023     7.378
    10   1 H        0.925     0.036     2.498     2.471
    11   1 H        0.925     0.037     2.491     2.468
    12   1 H        0.925     0.034     2.524     2.485
    13   1 H        0.924     0.031     2.567     2.505
    14   1 H        0.924     0.046     2.371     2.408
    15   1 H        0.924     0.038     2.470     2.458
    16   1 H        0.924     0.051     2.302     2.373
    17   1 H        0.923     0.016     2.794     2.614
    18   1 H        0.923     0.017     2.776     2.605
    19   1 H        0.923     0.023     2.687     2.564
    20   1 H        0.923     0.023     2.687     2.564
    21   1 H        0.924     0.085     1.928     2.171
    22   1 H        0.924     0.086     1.922     2.168

 Mol. C6AA /au·bohr⁶  :       3908.110756
 Mol. C8AA /au·bohr⁸  :      84246.858599
 Mol. α(0) /au        :         92.904942


Wiberg/Mayer (AO) data.
largest (>0.10) Wiberg bond orders for each atom

 ---------------------------------------------------------------------------
     #   Z sym  total        # sym  WBO       # sym  WBO       # sym  WBO
 ---------------------------------------------------------------------------
     1   6 C    3.997 --     2 C    1.020    10 H    0.988    12 H    0.988
                            11 H    0.987
     2   6 C    3.996 --     1 C    1.020     3 C    1.008    13 H    0.978
                            14 H    0.977
     3   6 C    3.993 --     2 C    1.008     4 C    1.002    15 H    0.976
                            16 H    0.975
     4   6 C    3.950 --     3 C    1.002     5 O    0.976    17 H    0.968
                            18 H    0.967
     5   8 O    2.070 --     6 C    0.991     4 C    0.976
     6   6 C    3.960 --     5 O    0.991     7 C    0.974    19 H    0.967
                            20 H    0.967
     7   6 C    3.995 --     8 C    1.057     6 C    0.974    21 H    0.942
                            22 H    0.942
     8   6 C    3.946 --     9 N    2.851     7 C    1.057
     9   7 N    3.007 --     8 C    2.851
    10   1 H    0.999 --     1 C    0.988
    11   1 H    0.998 --     1 C    0.987
    12   1 H    0.999 --     1 C    0.988
    13   1 H    0.999 --     2 C    0.978
    14   1 H    0.998 --     2 C    0.977
    15   1 H    0.998 --     3 C    0.976
    16   1 H    0.997 --     3 C    0.975
    17   1 H    0.999 --     4 C    0.968
    18   1 H    1.000 --     4 C    0.967
    19   1 H    0.999 --     6 C    0.967
    20   1 H    0.999 --     6 C    0.967
    21   1 H    0.993 --     7 C    0.942
    22   1 H    0.993 --     7 C    0.942
 ---------------------------------------------------------------------------

Topologies differ in total number of bonds
Writing topology from bond orders to xtbtopo.mol

molecular dipole:
                 x           y           z       tot (Debye)
 q only:       -0.993      -0.201       0.031
   full:       -1.357      -0.318       0.136       3.560
molecular quadrupole (traceless):
                xx          xy          yy          xz          yz          zz
 q only:      -12.112      -3.282       4.856      -1.063      -0.674       7.256
  q+dip:      -22.008      -6.368      10.015      -1.253      -0.227      11.992
   full:      -22.345      -6.453       9.781      -1.759      -0.654      12.564

           -------------------------------------------------
          |                Geometry Summary                 |
           -------------------------------------------------

      molecular mass/u    :      127.1844892
   center of mass at/Å    :        0.8301410       0.0858690      -0.0629132
  moments of inertia/u·Å² :        0.8913455E+02   0.1038201E+04   0.1090324E+04
rotational constants/cm⁻¹ :        0.1891257E+00   0.1623735E-01   0.1546113E-01

 * 20 selected distances

     #   Z          #   Z                                           value/Å
     1   6 C        2   6 C                                       1.5229433
     2   6 C        3   6 C                                       1.5267943
     3   6 C        4   6 C                                       1.5240468
     4   6 C        5   8 O                                       1.4109295
     5   8 O        6   6 C                                       1.4034415
     6   6 C        7   6 C                                       1.5316738 (max)
     8   6 C        9   7 N                                       1.1428194
     1   6 C       10   1 H                                       1.0876056
     1   6 C       11   1 H                                       1.0873549 (min)
     1   6 C       12   1 H                                       1.0880284
     2   6 C       13   1 H                                       1.0925641
     2   6 C       14   1 H                                       1.0906836
     3   6 C       15   1 H                                       1.0916909
     3   6 C       16   1 H                                       1.0910627
     4   6 C       17   1 H                                       1.1018933
     4   6 C       18   1 H                                       1.1017491
     6   6 C       19   1 H                                       1.1025446
     6   6 C       20   1 H                                       1.1025011
     7   6 C       21   1 H                                       1.0930813
     7   6 C       22   1 H                                       1.0930619

 * 4 distinct bonds (by element types)

   Z      Z             #   av. dist./Å        max./Å        min./Å
   1 H    6 C          13     1.0941401     1.1025446     1.0873549
   6 C    6 C           4     1.5263646     1.5316738     1.5229433
   6 C    7 N           1     1.1428194     1.1428194     1.1428194
   6 C    8 O           2     1.4071855     1.4109295     1.4034415


optimized geometry written to: xtbopt.xyz


           -------------------------------------------------
          | TOTAL ENERGY              -28.564111623623 Eh   |
          | GRADIENT NORM               0.000222909182 Eh/α |
          | HOMO-LUMO GAP               5.387075531442 eV   |
           -------------------------------------------------

------------------------------------------------------------------------
 * finished run on 2026/07/08 at 21:49:39.481     
------------------------------------------------------------------------
 total:
 * wall-time:     0 d,  0 h,  0 min,  2.793 sec
 *  cpu-time:     0 d,  0 h,  0 min, 44.474 sec
 * ratio c/w:    15.924 speedup
 SCF:
 * wall-time:     0 d,  0 h,  0 min,  0.315 sec
 *  cpu-time:     0 d,  0 h,  0 min,  5.033 sec
 * ratio c/w:    15.956 speedup
 ANC optimizer:
 * wall-time:     0 d,  0 h,  0 min,  2.406 sec
 *  cpu-time:     0 d,  0 h,  0 min, 38.341 sec
 * ratio c/w:    15.934 speedup

