      -----------------------------------------------------------      
     |                   =====================                   |     
     |                           x T B                           |     
     |                   =====================                   |     
     |                         S. Grimme                         |     
     |          Mulliken Center for Theoretical Chemistry        |     
     |                    University of Bonn                     |     
      -----------------------------------------------------------      

   * xtb version 6.7.1 (edcfbbe) compiled by 'conda@5dfe00f5fb80' on 2026-06-10

   xtb is free software: you can redistribute it and/or modify it under
   the terms of the GNU Lesser General Public License as published by
   the Free Software Foundation, either version 3 of the License, or
   (at your option) any later version.
   
   xtb is distributed in the hope that it will be useful,
   but WITHOUT ANY WARRANTY; without even the implied warranty of
   MERCHANTABILITY or FITNESS FOR A PARTICULAR PURPOSE.  See the
   GNU Lesser General Public License for more details.
   
   Cite this work as:
   * C. Bannwarth, E. Caldeweyher, S. Ehlert, A. Hansen, P. Pracht,
     J. Seibert, S. Spicher, S. Grimme, WIREs Comput. Mol. Sci., 2020, 11,
     e01493. DOI: 10.1002/wcms.1493
   
   for GFN2-xTB:
   * C. Bannwarth, S. Ehlert and S. Grimme., J. Chem. Theory Comput., 2019,
     15, 1652-1671. DOI: 10.1021/acs.jctc.8b01176
   for GFN1-xTB:
   * S. Grimme, C. Bannwarth, P. Shushkov, J. Chem. Theory Comput., 2017,
     13, 1989-2009. DOI: 10.1021/acs.jctc.7b00118
   for GFN0-xTB:
   * P. Pracht, E. Caldeweyher, S. Ehlert, S. Grimme, ChemRxiv, 2019, preprint.
     DOI: 10.26434/chemrxiv.8326202.v1
   for GFN-FF:
   * S. Spicher and S. Grimme, Angew. Chem. Int. Ed., 2020, 59, 15665-15673.
     DOI: 10.1002/anie.202004239
   
   for ALPB and GBSA implicit solvation:
   * S. Ehlert, M. Stahn, S. Spicher, S. Grimme, J. Chem. Theory Comput.,
     2021, 17, 4250-4261. DOI: 10.1021/acs.jctc.1c00471
   
   for ddCOSMO and CPCM-X implicit solvation:
   * M. Stahn, S. Ehlert, S. Grimme, J. Phys. Chem. A,
     2023, XX, XXXX-XXXX. DOI: 10.1021/acs.jpca.3c04382
   
   for DFT-D4:
   * E. Caldeweyher, C. Bannwarth and S. Grimme, J. Chem. Phys., 2017,
     147, 034112. DOI: 10.1063/1.4993215
   * E. Caldeweyher, S. Ehlert, A. Hansen, H. Neugebauer, S. Spicher,
     C. Bannwarth and S. Grimme, J. Chem. Phys., 2019, 150, 154122.
     DOI: 10.1063/1.5090222
   * E. Caldeweyher, J.-M. Mewes, S. Ehlert and S. Grimme, Phys. Chem. Chem. Phys.
     2020, 22, 8499-8512. DOI: 10.1039/D0CP00502A
   
   for sTDA-xTB:
   * S. Grimme and C. Bannwarth, J. Chem. Phys., 2016, 145, 054103.
     DOI: 10.1063/1.4959605
   
   in the mass-spec context:
   * V. Asgeirsson, C. Bauer and S. Grimme, Chem. Sci., 2017, 8, 4879.
     DOI: 10.1039/c7sc00601b
   * J. Koopman and S. Grimme, ACS Omega 2019, 4, 12, 15120-15133.
     DOI: 10.1021/acsomega.9b02011
   
   for metadynamics refer to:
   * S. Grimme, J. Chem. Theory Comput., 2019, 155, 2847-2862
     DOI: 10.1021/acs.jctc.9b00143
   
   for SPH calculations refer to:
   * S. Spicher and S. Grimme, J. Chem. Theory Comput., 2021, 17, 1701-1714
     DOI: 10.1021/acs.jctc.0c01306
   
   for ONIOM refer to:
   * C. Plett, A. Katbashev, S. Ehlert, S. Grimme, M. Bursch,
     Phys. Chem. Chem. Phys., 2023, 25, 17860-17868. DOI: 10.1039/D3CP02178E
   
   for DIPRO refer to:
   * J. Kohn, N. Gildemeister, S. Grimme, D. Fazzi, A. Hansen,
     J. Chem. Phys., 2023, just accepted.
   
   for PTB refer to:
   * S. Grimme, M. Mueller, A. Hansen, J. Chem. Phys., 2023, 158, 124111.
     DOI: 10.1063/5.0137838
   
   with help from (in alphabetical order)
   P. Atkinson, C. Bannwarth, F. Bohle, G. Brandenburg, E. Caldeweyher
   M. Checinski, S. Dohm, S. Ehlert, S. Ehrlich, I. Gerasimov, C. Hölzer
   A. Katbashev, J. Kohn, J. Koopman, C. Lavigne, S. Lehtola, F. März, M. Müller,
   F. Musil, H. Neugebauer, J. Pisarek, C. Plett, P. Pracht, F. Pultar,
   J. Seibert, P. Shushkov, S. Spicher, M. Stahn, M. Steiner, T. Strunk,
   J. Stückrath, T. Rose, and J. Unsleber
   
 * started run on 2026/07/09 at 09:50:57.610     
   ID    Z sym.   atoms
    1    6 C      1-9, 11
    2   17 Cl     10
    3    1 H      12-24

           -------------------------------------------------
          |                Calculation Setup                |
           -------------------------------------------------

          program call               : /home/ws/xd2484/miniforge3/envs/p3z_dft/bin/xtb xtb_input.xyz --gfn 2 --opt tight --cycles 500 --chrg 0 --uhf 0
          hostname                   : gpu10
          coordinate file            : xtb_input.xyz
          omp threads                :                    16


           -------------------------------------------------
          |                 G F N 2 - x T B                 |
           -------------------------------------------------

        Reference                      10.1021/acs.jctc.8b01176
      * Hamiltonian:
        H0-scaling (s, p, d)           1.850000    2.230000    2.230000
        zeta-weighting                 0.500000
      * Dispersion:
        s8                             2.700000
        a1                             0.520000
        a2                             5.000000
        s9                             5.000000
      * Repulsion:
        kExp                           1.500000    1.000000
        rExp                           1.000000
      * Coulomb:
        alpha                          2.000000
        third order                    shell-resolved
        anisotropic                    true
        a3                             3.000000
        a5                             4.000000
        cn-shift                       1.200000
        cn-exp                         4.000000
        max-rad                        5.000000


          ...................................................
          :                      SETUP                      :
          :.................................................:
          :  # basis functions                  63          :
          :  # atomic orbitals                  62          :
          :  # shells                           36          :
          :  # electrons                        60          :
          :  max. iterations                   250          :
          :  Hamiltonian                  GFN2-xTB          :
          :  restarted?                      false          :
          :  GBSA solvation                  false          :
          :  PC potential                    false          :
          :  electronic temp.          300.0000000     K    :
          :  accuracy                    1.0000000          :
          :  -> integral cutoff          0.2500000E+02      :
          :  -> integral neglect         0.1000000E-07      :
          :  -> SCF convergence          0.1000000E-05 Eh   :
          :  -> wf. convergence          0.1000000E-03 e    :
          :  Broyden damping             0.4000000          :
          :  net charge                          0          :
          :  unpaired electrons                  0          :
          ...................................................

 iter      E             dE          RMSdq      gap      omega  full diag
   1    -33.0216284 -0.330216E+02  0.380E+00    4.32       0.0  T
   2    -33.0610528 -0.394244E-01  0.222E+00    4.25       1.0  T
   3    -33.0567376  0.431516E-02  0.941E-01    4.09       1.0  T
   4    -33.0632165 -0.647887E-02  0.379E-01    4.19       1.0  T
   5    -33.0648103 -0.159378E-02  0.717E-02    4.20       1.0  T
   6    -33.0648224 -0.120897E-04  0.406E-02    4.18       1.0  T
   7    -33.0648327 -0.103283E-04  0.117E-02    4.19       1.7  T
   8    -33.0648334 -0.666152E-06  0.743E-03    4.19       2.7  T
   9    -33.0648337 -0.286962E-06  0.507E-03    4.19       4.0  T
  10    -33.0648338 -0.163101E-06  0.374E-03    4.19       5.5  T
  11    -33.0648339 -0.112401E-06  0.197E-03    4.19      10.4  T
  12    -33.0648340 -0.767035E-07  0.535E-04    4.19      38.1  T
  13    -33.0648340 -0.782030E-09  0.265E-04    4.19      77.1  T

   *** convergence criteria satisfied after 13 iterations ***

         #    Occupation            Energy/Eh            Energy/eV
      -------------------------------------------------------------
         1        2.0000           -1.0497785             -28.5659
       ...           ...                  ...                  ...
        24        2.0000           -0.4398716             -11.9695
        25        2.0000           -0.4359827             -11.8637
        26        2.0000           -0.4305030             -11.7146
        27        2.0000           -0.4216643             -11.4741
        28        2.0000           -0.4079501             -11.1009
        29        2.0000           -0.3979047             -10.8275
        30        2.0000           -0.3865264             -10.5179 (HOMO)
        31                         -0.2326442              -6.3306 (LUMO)
        32                         -0.2292491              -6.2382
        33                         -0.1317570              -3.5853
        34                         -0.1115727              -3.0360
        35                          0.0200515               0.5456
       ...                                ...                  ...
        62                          0.6014051              16.3651
      -------------------------------------------------------------
                  HL-Gap            0.1538822 Eh            4.1873 eV
             Fermi-level           -0.3095853 Eh           -8.4242 eV

 SCC (total)                   0 d,  0 h,  0 min,  0.297 sec
 SCC setup                      ...        0 min,  0.009 sec (  3.121%)
 Dispersion                     ...        0 min,  0.019 sec (  6.419%)
 classical contributions        ...        0 min,  0.009 sec (  3.180%)
 integral evaluation            ...        0 min,  0.021 sec (  6.943%)
 iterations                     ...        0 min,  0.204 sec ( 68.578%)
 molecular gradient             ...        0 min,  0.035 sec ( 11.697%)
 printout                       ...        0 min,  0.000 sec (  0.054%)

         :::::::::::::::::::::::::::::::::::::::::::::::::::::
         ::                     SUMMARY                     ::
         :::::::::::::::::::::::::::::::::::::::::::::::::::::
         :: total energy             -32.601264502125 Eh    ::
         :: gradient norm              0.035602346281 Eh/a0 ::
         :: HOMO-LUMO gap              4.187348694367 eV    ::
         ::.................................................::
         :: SCC energy               -33.064717529506 Eh    ::
         :: -> isotropic ES            0.007435403585 Eh    ::
         :: -> anisotropic ES          0.004248734580 Eh    ::
         :: -> anisotropic XC          0.017951414597 Eh    ::
         :: -> dispersion             -0.021453776531 Eh    ::
         :: repulsion energy           0.463453027381 Eh    ::
         :: add. restraining           0.000000000000 Eh    ::
         :: total charge              -0.000000000000 e     ::
         :::::::::::::::::::::::::::::::::::::::::::::::::::::

      ----------------------------------------------------------- 
     |                   =====================                   |
     |                        A N C O P T                        |
     |                   =====================                   |
     |               Approximate Normal Coordinate               |
     |                Rational Function Optimizer                |
      ----------------------------------------------------------- 
      ----------------------------------------------------------- 
     |                   =====================                   |
     |                        A N C O P T                        |
     |                   =====================                   |
     |               Approximate Normal Coordinate               |
     |                Rational Function Optimizer                |
      ----------------------------------------------------------- 

          ...................................................
          :                      SETUP                      :
          :.................................................:
          :   optimization level             tight          :
          :   max. optcycles                   500          :
          :   ANC micro-cycles                  20          :
          :   degrees of freedom                66          :
          :.................................................:
          :   RF solver                   davidson          :
          :   write xtbopt.log                true          :
          :   linear?                        false          :
          :   energy convergence         0.1000000E-05 Eh   :
          :   grad. convergence          0.8000000E-03 Eh/α :
          :   maxmium RF displ.          1.0000000          :
          :   Hlow (freq-cutoff)         0.1000000E-01      :
          :   Hmax (freq-cutoff)         5.0000000          :
          :   S6 in model hess.         20.0000000          :
          ...................................................

generating ANC from exact Hessian ...
Using Lindh-Hessian (1995)
 Shifting diagonal of input Hessian by    8.8369555529311840E-003
 Lowest  eigenvalues of input Hessian
    0.000000    0.000000    0.000000    0.000000    0.000000    0.000000
    0.010000    0.010594    0.013469    0.014778    0.016283    0.017442
    0.017492    0.018120    0.019091    0.023238    0.025121    0.032054
 Highest eigenvalues
    1.378373    1.511940    1.575446    1.797008    1.901656    1.925999


........................................................................
.............................. CYCLE    1 ..............................
........................................................................

 iter      E             dE          RMSdq      gap      omega  full diag
   1    -33.0648340 -0.330648E+02  0.185E-04    4.19       0.0  T
   2    -33.0648340 -0.118852E-09  0.150E-04    4.19     136.0  T
   3    -33.0648340 -0.716511E-10  0.126E-04    4.19     162.1  T
     SCC iter.                  ...        0 min,  0.029 sec
     gradient                   ...        0 min,  0.033 sec
 * total energy  :   -32.6012645 Eh     change       -0.7525074E-09 Eh
   gradient norm :     0.0356038 Eh/α   predicted     0.0000000E+00 (-100.00%)
   displ. norm   :     0.2095545 α      lambda       -0.4141530E-02
   maximum displ.:     0.1322230 α      in ANC's #13, #37, #6, ...

........................................................................
.............................. CYCLE    2 ..............................
........................................................................

 iter      E             dE          RMSdq      gap      omega  full diag
   1    -33.0916128 -0.330916E+02  0.155E-01    4.29       0.0  T
   2    -33.0916260 -0.131964E-04  0.939E-02    4.29       1.0  T
   3    -33.0916116  0.143954E-04  0.273E-02    4.28       1.0  T
   4    -33.0916293 -0.177195E-04  0.821E-03    4.28       2.5  T
   5    -33.0916301 -0.821185E-06  0.527E-03    4.28       3.9  T
   6    -33.0916303 -0.159397E-06  0.373E-03    4.28       5.5  T
   7    -33.0916304 -0.116607E-06  0.254E-03    4.28       8.0  T
   8    -33.0916305 -0.621293E-07  0.113E-03    4.28      18.0  T
   9    -33.0916305 -0.180092E-07  0.405E-04    4.28      50.4  T
  10    -33.0916305 -0.828720E-09  0.182E-04    4.28     112.4  T
     SCC iter.                  ...        0 min,  0.177 sec
     gradient                   ...        0 min,  0.048 sec
 * total energy  :   -32.6038118 Eh     change       -0.2547309E-02 Eh
   gradient norm :     0.0109697 Eh/α   predicted    -0.2161757E-02 ( -15.14%)
   displ. norm   :     0.0843734 α      lambda       -0.3691794E-03
   maximum displ.:     0.0511231 α      in ANC's #13, #6, #37, ...

........................................................................
.............................. CYCLE    3 ..............................
........................................................................

 iter      E             dE          RMSdq      gap      omega  full diag
   1    -33.0996280 -0.330996E+02  0.487E-02    4.32       0.0  T
   2    -33.0996296 -0.161432E-05  0.288E-02    4.32       1.0  T
   3    -33.0996290  0.580392E-06  0.657E-03    4.32       3.1  T
   4    -33.0996297 -0.742236E-06  0.239E-03    4.32       8.6  T
   5    -33.0996298 -0.103882E-06  0.933E-04    4.32      21.9  T
   6    -33.0996298 -0.446828E-08  0.474E-04    4.32      43.1  T
     SCC iter.                  ...        0 min,  0.094 sec
     gradient                   ...        0 min,  0.038 sec
 * total energy  :   -32.6040096 Eh     change       -0.1977518E-03 Eh
   gradient norm :     0.0032386 Eh/α   predicted    -0.1864605E-03 (  -5.71%)
   displ. norm   :     0.0256651 α      lambda       -0.2032490E-04
   maximum displ.:     0.0172580 α      in ANC's #3, #6, #2, ...

........................................................................
.............................. CYCLE    4 ..............................
........................................................................

 iter      E             dE          RMSdq      gap      omega  full diag
   1    -33.0996936 -0.330997E+02  0.941E-03    4.32       0.0  T
   2    -33.0996937 -0.114222E-06  0.582E-03    4.32       3.5  T
   3    -33.0996936  0.427719E-07  0.340E-03    4.32       6.0  T
   4    -33.0996938 -0.125374E-06  0.845E-04    4.32      24.2  T
   5    -33.0996938 -0.257461E-08  0.581E-04    4.32      35.1  T
     SCC iter.                  ...        0 min,  0.065 sec
     gradient                   ...        0 min,  0.044 sec
 * total energy  :   -32.6040237 Eh     change       -0.1414425E-04 Eh
   gradient norm :     0.0014808 Eh/α   predicted    -0.1016979E-04 ( -28.10%)
   displ. norm   :     0.0379524 α      lambda       -0.8722161E-05
   maximum displ.:     0.0262576 α      in ANC's #3, #2, #7, ...

........................................................................
.............................. CYCLE    5 ..............................
........................................................................

 iter      E             dE          RMSdq      gap      omega  full diag
   1    -33.0992297 -0.330992E+02  0.120E-02    4.32       0.0  T
   2    -33.0992300 -0.310188E-06  0.809E-03    4.32       2.5  T
   3    -33.0992301 -0.610647E-07  0.488E-03    4.32       4.2  T
   4    -33.0992303 -0.187056E-06  0.191E-03    4.32      10.7  T
   5    -33.0992303 -0.172414E-07  0.141E-03    4.32      14.5  T
   6    -33.0992303 -0.139038E-07  0.985E-04    4.32      20.7  T
   7    -33.0992303 -0.119403E-07  0.394E-04    4.32      51.9  T
     SCC iter.                  ...        0 min,  0.101 sec
     gradient                   ...        0 min,  0.040 sec
 * total energy  :   -32.6040290 Eh     change       -0.5248191E-05 Eh
   gradient norm :     0.0009892 Eh/α   predicted    -0.4365448E-05 ( -16.82%)
   displ. norm   :     0.0103808 α      lambda       -0.1649766E-05
   maximum displ.:     0.0072709 α      in ANC's #2, #6, #11, ...

........................................................................
.............................. CYCLE    6 ..............................
........................................................................

 iter      E             dE          RMSdq      gap      omega  full diag
   1    -33.0992796 -0.330993E+02  0.410E-03    4.32       0.0  T
   2    -33.0992796 -0.217457E-08  0.241E-03    4.32       8.5  T
   3    -33.0992796  0.320565E-08  0.498E-04    4.32      41.0  T
   4    -33.0992796 -0.414192E-08  0.102E-04    4.32     199.9  T
     SCC iter.                  ...        0 min,  0.059 sec
     gradient                   ...        0 min,  0.042 sec
 * total energy  :   -32.6040307 Eh     change       -0.1780091E-05 Eh
   gradient norm :     0.0003244 Eh/α   predicted    -0.8273512E-06 ( -53.52%)
   displ. norm   :     0.0188899 α      lambda       -0.1206545E-05
   maximum displ.:     0.0148221 α      in ANC's #2, #1, #7, ...

........................................................................
.............................. CYCLE    7 ..............................
........................................................................

 iter      E             dE          RMSdq      gap      omega  full diag
   1    -33.0993767 -0.330994E+02  0.543E-03    4.32       0.0  T
   2    -33.0993767 -0.310482E-08  0.319E-03    4.32       6.4  T
   3    -33.0993767  0.164219E-08  0.367E-04    4.32      55.6  T
   4    -33.0993767 -0.246690E-08  0.134E-04    4.32     152.7  T
     SCC iter.                  ...        0 min,  0.052 sec
     gradient                   ...        0 min,  0.039 sec
 * total energy  :   -32.6040320 Eh     change       -0.1271759E-05 Eh
   gradient norm :     0.0003329 Eh/α   predicted    -0.6042099E-06 ( -52.49%)
   displ. norm   :     0.0190196 α      lambda       -0.7734728E-06
   maximum displ.:     0.0148398 α      in ANC's #2, #1, #7, ...

........................................................................
.............................. CYCLE    8 ..............................
........................................................................

 iter      E             dE          RMSdq      gap      omega  full diag
   1    -33.0993665 -0.330994E+02  0.559E-03    4.32       0.0  T
   2    -33.0993665 -0.148904E-08  0.329E-03    4.32       6.2  T
   3    -33.0993665  0.571852E-09  0.245E-04    4.32      83.5  T
   4    -33.0993665 -0.106535E-08  0.748E-05    4.32     272.7  T
     SCC iter.                  ...        0 min,  0.051 sec
     gradient                   ...        0 min,  0.041 sec
 * total energy  :   -32.6040329 Eh     change       -0.9239444E-06 Eh
   gradient norm :     0.0004098 Eh/α   predicted    -0.3876753E-06 ( -58.04%)
   displ. norm   :     0.0187950 α      lambda       -0.6950871E-06
   maximum displ.:     0.0149553 α      in ANC's #2, #5, #1, ...

   *** GEOMETRY OPTIMIZATION CONVERGED AFTER 8 ITERATIONS ***

------------------------------------------------------------------------
 total energy gain   :        -0.0027684 Eh       -1.7372 kcal/mol
 total RMSD          :         0.0644887 a0        0.0341 Å
 total power (kW/mol):        -0.9085640 (step)   -5.8220 (real)
------------------------------------------------------------------------

 ANCopt (total)                0 d,  0 h,  0 min,  1.248 sec
 optimizer setup                ...        0 min,  0.001 sec (  0.049%)
 model hessian                  ...        0 min,  0.009 sec (  0.713%)
 ANC generation                 ...        0 min,  0.001 sec (  0.078%)
 coordinate transformation      ...        0 min,  0.000 sec (  0.007%)
 single point calculation       ...        0 min,  1.201 sec ( 96.210%)
 optimization log               ...        0 min,  0.001 sec (  0.076%)
 hessian update                 ...        0 min,  0.034 sec (  2.705%)
 rational function              ...        0 min,  0.001 sec (  0.049%)

================
 final structure:
================
24
 xtb: 6.7.1 (edcfbbe)
C            3.78976634398419       -0.50440183077937       -0.37260670107391
C            2.32462866648058       -0.23536140360463       -0.21694262262722
C            1.38560211625653       -1.24449259046949       -0.38704362585876
C            0.03618979078542       -0.98058589465163       -0.26103036282284
C           -0.44059425481808        0.29099604980531        0.04019851725834
C           -1.92214113188413        0.54727132447950        0.16670870793306
C           -2.61316297989849        0.34276772870568       -1.18344667798306
C           -2.54548953826929       -0.34661427577294        1.24041015239086
C            0.51151961475062        1.29202392295015        0.20291143425653
Cl           0.03929985730854        2.92206571473993        0.57266815683796
C            1.86785875227220        1.04010945410719        0.07880191281215
H            4.02393401263412       -1.53335610185560       -0.11031410409537
H            4.37611535996579        0.16348942109874        0.25369759254402
H            4.08855976241783       -0.34394330600503       -1.40890878949961
H            1.71483998611375       -2.24685842262542       -0.61938254892324
H           -0.66959589746422       -1.78535400066062       -0.39930407649498
H           -2.06880265811753        1.58803703282487        0.46835670016045
H           -2.17414798125607        0.99456306294239       -1.93553211206131
H           -2.51163651480565       -0.68637592981259       -1.51966428283721
H           -3.67246477390396        0.57518699267700       -1.10009514730766
H           -2.03009867665931       -0.21489797419038        2.18918711055310
H           -3.59286628483365       -0.08686203298780        1.37706436350163
H           -2.48821302024615       -1.39553924862813        0.96060764104551
H            2.57089944918597        1.84813230771282        0.21504526807658

 Bond Distances (Angstroems)
 ---------------------------
C1-C2=1.4977         C1-H12=1.0874        C1-H13=1.0873        C1-H14=1.0904        C2-C1=1.4977         C2-C3=1.3889         
C2-C11=1.3867        C3-C2=1.3889         C3-C4=1.3807         C3-H15=1.0803        C4-C3=1.3807         C4-C5=1.3910         
C4-H16=1.0793        C5-C4=1.3910         C5-C6=1.5089         C5-C9=1.3911         C6-C5=1.5089         C6-C7=1.5304         
C6-C8=1.5298         C6-H17=1.0935        C7-C6=1.5304         C7-H18=1.0878        C7-H19=1.0874        C7-H20=1.0877        
C8-C6=1.5298         C8-H21=1.0877        C8-H22=1.0877        C8-H23=1.0871        C9-C5=1.3911         C9-Cl10=1.7369       
C9-C11=1.3851        Cl10-C9=1.7369       C11-C2=1.3867        C11-C9=1.3851        C11-H24=1.0797       H12-C1=1.0874        
H13-C1=1.0873        H14-C1=1.0904        H15-C3=1.0803        H16-C4=1.0793        H17-C6=1.0935        H18-C7=1.0878        
H19-C7=1.0874        H20-C7=1.0877        H21-C8=1.0877        H22-C8=1.0877        H23-C8=1.0871        H24-C11=1.0797       
 C  H  Rav=1.0864 sigma=0.0040  Rmin=1.0793  Rmax=1.0935    13
 C  C  Rav=1.4390 sigma=0.0641  Rmin=1.3807  Rmax=1.5304    10
 Cl C  Rav=1.7369 sigma=0.0000  Rmin=1.7369  Rmax=1.7369     1

 selected bond angles (degree)
 --------------------
H12-C1-C2=110.83               H13-C1-C2=110.94               H13-C1-H12=109.04              H14-C1-C2=109.90               
H14-C1-H12=108.03              H14-C1-H13=108.02              C3-C2-C1=121.21                C11-C2-C1=120.64               
C11-C2-C3=118.15               C4-C3-C2=120.71                H15-C3-C2=119.63               H15-C3-C4=119.66               
C5-C4-C3=121.97                H16-C4-C3=119.00               H16-C4-C5=119.03               C6-C5-C4=120.66                
C9-C5-C4=116.65                C9-C5-C6=122.69                C7-C6-C5=110.28                C8-C6-C5=111.08                
C8-C6-C7=110.92                H17-C6-C5=108.45               H17-C6-C7=108.06               H17-C6-C8=107.93               
H18-C7-C6=110.34               H19-C7-C6=110.92               H19-C7-H18=108.40              H20-C7-C6=110.09               
H20-C7-H18=108.54              H20-C7-H19=108.47              H21-C8-C6=110.39               H22-C8-C6=109.94               
H22-C8-H21=108.53              H23-C8-C6=111.20               H23-C8-H21=108.44              H23-C8-H22=108.27              
Cl10-C9-C5=120.94              C11-C9-C5=121.93               C11-C9-Cl10=117.13             

 selected dihedral angles (degree)
 ---------------------------------
C3-C2-C1-H12=330.63           C3-C2-C1-H13=209.34           C3-C2-C1-H14= 89.96           C11-C2-C1-H12=151.79          
C11-C2-C1-H13= 30.51          C11-C2-C1-H14=271.12          C4-C3-C2-C1=180.99            C4-C3-C2-C11=359.85           
H15-C3-C2-C1=  1.06           H15-C3-C2-C11=179.92          C5-C4-C3-C2=359.90            C5-C4-C3-H15=179.84           
H16-C4-C3-C2=179.98           H16-C4-C3-H15=359.91          C6-C5-C4-C3=179.80            C6-C5-C4-H16=359.73           
C9-C5-C4-C3=  0.32            C9-C5-C4-H16=180.24           C7-C6-C5-C4=294.55            C7-C6-C5-C9=114.01            
C8-C6-C5-C4= 57.95            C8-C6-C5-C9=237.41            H17-C6-C5-C4=176.40           H17-C6-C5-C9=355.86           
H18-C7-C6-C5=302.54           H18-C7-C6-C8=179.04           H18-C7-C6-H17= 60.92          H19-C7-C6-C5= 62.68           
H19-C7-C6-C8=299.19           H19-C7-C6-H17=181.06          H20-C7-C6-C5=182.75           H20-C7-C6-C8= 59.25           
H20-C7-C6-H17=301.13          H21-C8-C6-C5= 55.38           H21-C8-C6-C7=178.42           H21-C8-C6-H17=296.62          
H22-C8-C6-C5=175.08           H22-C8-C6-C7=298.12           H22-C8-C6-H17= 56.31          H23-C8-C6-C5=294.97           
H23-C8-C6-C7= 58.01           H23-C8-C6-H17=176.21          Cl10-C9-C5-C4=179.68          Cl10-C9-C5-C6=  0.20          
C11-C9-C5-C4=359.70           C11-C9-C5-C6=180.22           
           -------------------------------------------------
          |                Final Singlepoint                |
           -------------------------------------------------

          ...................................................
          :                      SETUP                      :
          :.................................................:
          :  # basis functions                  63          :
          :  # atomic orbitals                  62          :
          :  # shells                           36          :
          :  # electrons                        60          :
          :  max. iterations                   250          :
          :  Hamiltonian                  GFN2-xTB          :
          :  restarted?                      false          :
          :  GBSA solvation                  false          :
          :  PC potential                    false          :
          :  electronic temp.          300.0000000     K    :
          :  accuracy                    1.0000000          :
          :  -> integral cutoff          0.2500000E+02      :
          :  -> integral neglect         0.1000000E-07      :
          :  -> SCF convergence          0.1000000E-05 Eh   :
          :  -> wf. convergence          0.1000000E-03 e    :
          :  Broyden damping             0.4000000          :
          :  net charge                          0          :
          :  unpaired electrons                  0          :
          ...................................................

 iter      E             dE          RMSdq      gap      omega  full diag
   1    -33.0993665 -0.330994E+02  0.420E-05    4.32       0.0  T
   2    -33.0993665 -0.333955E-11  0.304E-05    4.32     671.2  T
   3    -33.0993665 -0.155609E-11  0.207E-05    4.32     985.0  T

   *** convergence criteria satisfied after 3 iterations ***

         #    Occupation            Energy/Eh            Energy/eV
      -------------------------------------------------------------
         1        2.0000           -1.0494997             -28.5583
       ...           ...                  ...                  ...
        24        2.0000           -0.4408179             -11.9953
        25        2.0000           -0.4370780             -11.8935
        26        2.0000           -0.4306227             -11.7178
        27        2.0000           -0.4215668             -11.4714
        28        2.0000           -0.4071877             -11.0801
        29        2.0000           -0.4002869             -10.8924
        30        2.0000           -0.3877214             -10.5504 (HOMO)
        31                         -0.2290576              -6.2330 (LUMO)
        32                         -0.2270829              -6.1792
        33                         -0.1325943              -3.6081
        34                         -0.1041221              -2.8333
        35                          0.0215212               0.5856
       ...                                ...                  ...
        62                          0.6412081              17.4482
      -------------------------------------------------------------
                  HL-Gap            0.1586638 Eh            4.3175 eV
             Fermi-level           -0.3083895 Eh           -8.3917 eV

 SCC (total)                   0 d,  0 h,  0 min,  0.114 sec
 SCC setup                      ...        0 min,  0.004 sec (  3.933%)
 Dispersion                     ...        0 min,  0.009 sec (  8.099%)
 classical contributions        ...        0 min,  0.003 sec (  2.886%)
 integral evaluation            ...        0 min,  0.013 sec ( 11.742%)
 iterations                     ...        0 min,  0.043 sec ( 37.285%)
 molecular gradient             ...        0 min,  0.041 sec ( 35.917%)
 printout                       ...        0 min,  0.000 sec (  0.114%)

         :::::::::::::::::::::::::::::::::::::::::::::::::::::
         ::                     SUMMARY                     ::
         :::::::::::::::::::::::::::::::::::::::::::::::::::::
         :: total energy             -32.604032932060 Eh    ::
         :: gradient norm              0.000409637594 Eh/a0 ::
         :: HOMO-LUMO gap              4.317463046694 eV    ::
         ::.................................................::
         :: SCC energy               -33.099252353801 Eh    ::
         :: -> isotropic ES            0.007815619452 Eh    ::
         :: -> anisotropic ES          0.003674709753 Eh    ::
         :: -> anisotropic XC          0.017179918609 Eh    ::
         :: -> dispersion             -0.021676827951 Eh    ::
         :: repulsion energy           0.495219421741 Eh    ::
         :: add. restraining           0.000000000000 Eh    ::
         :: total charge               0.000000000000 e     ::
         :::::::::::::::::::::::::::::::::::::::::::::::::::::

           -------------------------------------------------
          |                Property Printout                |
           -------------------------------------------------

    * Orbital Energies and Occupations

         #    Occupation            Energy/Eh            Energy/eV
      -------------------------------------------------------------
         1        2.0000           -1.0494997             -28.5583
       ...           ...                  ...                  ...
        18        2.0000           -0.4860880             -13.2271
        19        2.0000           -0.4726047             -12.8602
        20        2.0000           -0.4685031             -12.7486
        21        2.0000           -0.4640071             -12.6263
        22        2.0000           -0.4570048             -12.4357
        23        2.0000           -0.4433785             -12.0649
        24        2.0000           -0.4408179             -11.9953
        25        2.0000           -0.4370780             -11.8935
        26        2.0000           -0.4306227             -11.7178
        27        2.0000           -0.4215668             -11.4714
        28        2.0000           -0.4071877             -11.0801
        29        2.0000           -0.4002869             -10.8924
        30        2.0000           -0.3877214             -10.5504 (HOMO)
        31                         -0.2290576              -6.2330 (LUMO)
        32                         -0.2270829              -6.1792
        33                         -0.1325943              -3.6081
        34                         -0.1041221              -2.8333
        35                          0.0215212               0.5856
        36                          0.0258576               0.7036
        37                          0.0269353               0.7329
        38                          0.0396605               1.0792
        39                          0.0765975               2.0843
        40                          0.1003732               2.7313
        41                          0.1058049               2.8791
       ...                                ...                  ...
        62                          0.6412081              17.4482
      -------------------------------------------------------------
                  HL-Gap            0.1586638 Eh            4.3175 eV
             Fermi-level           -0.3083895 Eh           -8.3917 eV

     #   Z          covCN         q      C6AA      α(0)
     1   6 C        3.758    -0.111    22.674     6.789
     2   6 C        2.968     0.018    27.600     8.617
     3   6 C        2.923    -0.046    29.141     8.853
     4   6 C        2.929    -0.035    28.880     8.813
     5   6 C        2.996     0.000    28.012     8.682
     6   6 C        3.855    -0.014    20.787     6.484
     7   6 C        3.756    -0.102    22.506     6.764
     8   6 C        3.756    -0.103    22.520     6.766
     9   6 C        2.893     0.087    26.067     8.371
    10  17 Cl       0.968    -0.193   105.233    15.694
    11   6 C        2.972    -0.052    29.278     8.876
    12   1 H        0.925     0.047     2.355     2.400
    13   1 H        0.925     0.048     2.346     2.395
    14   1 H        0.924     0.052     2.291     2.367
    15   1 H        0.926     0.038     2.476     2.460
    16   1 H        0.926     0.044     2.395     2.420
    17   1 H        0.924     0.048     2.342     2.393
    18   1 H        0.925     0.036     2.509     2.477
    19   1 H        0.925     0.037     2.491     2.468
    20   1 H        0.925     0.039     2.462     2.454
    21   1 H        0.925     0.035     2.513     2.479
    22   1 H        0.925     0.039     2.469     2.457
    23   1 H        0.925     0.037     2.487     2.466
    24   1 H        0.926     0.051     2.310     2.377

 Mol. C6AA /au·bohr⁶  :       6565.502361
 Mol. C8AA /au·bohr⁸  :     166838.483738
 Mol. α(0) /au        :        126.323495


Wiberg/Mayer (AO) data.
largest (>0.10) Wiberg bond orders for each atom

 ---------------------------------------------------------------------------
     #   Z sym  total        # sym  WBO       # sym  WBO       # sym  WBO
 ---------------------------------------------------------------------------
     1   6 C    3.996 --     2 C    1.026    12 H    0.982    13 H    0.981
                            14 H    0.966
     2   6 C    3.988 --    11 C    1.413     3 C    1.400     1 C    1.026
                             5 C    0.104
     3   6 C    3.991 --     4 C    1.455     2 C    1.400    15 H    0.969
     4   6 C    3.991 --     3 C    1.455     5 C    1.401    16 H    0.965
                            11 C    0.107
     5   6 C    3.986 --     4 C    1.401     9 C    1.383     6 C    0.999
                             2 C    0.104
     6   6 C    3.994 --     5 C    0.999     8 C    0.998     7 C    0.995
                            17 H    0.963
     7   6 C    3.996 --     6 C    0.995    18 H    0.987    19 H    0.986
                            20 H    0.985
     8   6 C    3.996 --     6 C    0.998    21 H    0.987    22 H    0.986
                            23 H    0.985
     9   6 C    3.910 --    11 C    1.411     5 C    1.383    10 Cl   0.957
    10  17 Cl   1.098 --     9 C    0.957
    11   6 C    3.988 --     2 C    1.413     9 C    1.411    24 H    0.966
                             4 C    0.107
    12   1 H    0.997 --     1 C    0.982
    13   1 H    0.997 --     1 C    0.981
    14   1 H    0.997 --     1 C    0.966
    15   1 H    0.998 --     3 C    0.969
    16   1 H    0.998 --     4 C    0.965
    17   1 H    0.997 --     6 C    0.963
    18   1 H    0.999 --     7 C    0.987
    19   1 H    0.999 --     7 C    0.986
    20   1 H    0.998 --     7 C    0.985
    21   1 H    0.999 --     8 C    0.987
    22   1 H    0.998 --     8 C    0.986
    23   1 H    0.999 --     8 C    0.985
    24   1 H    0.997 --    11 C    0.966
 ---------------------------------------------------------------------------

Topologies differ in total number of bonds
Writing topology from bond orders to xtbtopo.mol

molecular dipole:
                 x           y           z       tot (Debye)
 q only:        0.221      -0.899      -0.223
   full:        0.236      -0.743      -0.203       2.048
molecular quadrupole (traceless):
                xx          xy          yy          xz          yz          zz
 q only:        7.643      -0.256      -6.858      -0.654      -1.185      -0.785
  q+dip:        8.118       0.500      -4.012      -0.824       0.224      -4.106
   full:        6.860       0.082      -4.859      -0.725      -0.461      -2.002

           -------------------------------------------------
          |                Geometry Summary                 |
           -------------------------------------------------

      molecular mass/u    :      168.6635263
   center of mass at/Å    :        0.1642105       0.6099123       0.0613570
  moments of inertia/u·Å² :        0.3912778E+03   0.6917523E+03   0.9719787E+03
rotational constants/cm⁻¹ :        0.4308354E-01   0.2436946E-01   0.1734362E-01

 * 22 selected distances

     #   Z          #   Z                                           value/Å
     2   6 C        3   6 C                                       1.3889029
     3   6 C        4   6 C                                       1.3807390
     4   6 C        5   6 C                                       1.3910366
     6   6 C        7   6 C                                       1.5304421
     6   6 C        8   6 C                                       1.5298464
     5   6 C        9   6 C                                       1.3910620
     9   6 C       10  17 Cl                                      1.7368789 (max)
     2   6 C       11   6 C                                       1.3866975
     9   6 C       11   6 C                                       1.3851066
     1   6 C       12   1 H                                       1.0873725
     1   6 C       13   1 H                                       1.0872632
     1   6 C       14   1 H                                       1.0903883
     3   6 C       15   1 H                                       1.0803316
     4   6 C       16   1 H                                       1.0793076 (min)
     6   6 C       17   1 H                                       1.0934782
     7   6 C       18   1 H                                       1.0877518
     7   6 C       19   1 H                                       1.0874221
     7   6 C       20   1 H                                       1.0876979
     8   6 C       21   1 H                                       1.0877292
     8   6 C       22   1 H                                       1.0877242
     8   6 C       23   1 H                                       1.0871126
    11   6 C       24   1 H                                       1.0796896

 * 3 distinct bonds (by element types)

   Z      Z             #   av. dist./Å        max./Å        min./Å
   1 H    6 C          13     1.0864053     1.0934782     1.0793076
   6 C    6 C           8     1.4229791     1.5304421     1.3807390
   6 C   17 Cl          1     1.7368789     1.7368789     1.7368789


optimized geometry written to: xtbopt.xyz


           -------------------------------------------------
          | TOTAL ENERGY              -32.604032932060 Eh   |
          | GRADIENT NORM               0.000409637594 Eh/α |
          | HOMO-LUMO GAP               4.317463046694 eV   |
           -------------------------------------------------

------------------------------------------------------------------------
 * finished run on 2026/07/09 at 09:50:59.361     
------------------------------------------------------------------------
 total:
 * wall-time:     0 d,  0 h,  0 min,  1.751 sec
 *  cpu-time:     0 d,  0 h,  0 min, 27.908 sec
 * ratio c/w:    15.939 speedup
 SCF:
 * wall-time:     0 d,  0 h,  0 min,  0.297 sec
 *  cpu-time:     0 d,  0 h,  0 min,  4.727 sec
 * ratio c/w:    15.906 speedup
 ANC optimizer:
 * wall-time:     0 d,  0 h,  0 min,  1.370 sec
 *  cpu-time:     0 d,  0 h,  0 min, 21.885 sec
 * ratio c/w:    15.972 speedup

