24
DEC_00256 MMFF geometry for GFN2-xTB preoptimization
C   3.811648445992 -0.506928184521 -0.374585675446
C   2.346413172800 -0.236329844467 -0.206660838817
C   1.409701128767 -1.254615646523 -0.387023690726
C   0.042686249010 -0.990822890808 -0.260267830088
C  -0.432386057446  0.300009684894  0.043609565944
C  -1.931568824294  0.538546935237  0.168674009250
C  -2.634656154243  0.352040781237 -1.179280473056
C  -2.566175708872 -0.353904166029  1.241418700938
C   0.519542936229  1.323105619784  0.201648042474
Cl  0.079061168866  2.959651040337  0.548668173533
C   1.889852284688  1.055344527652  0.074369321955
H   4.053363252306 -1.537951172991 -0.095654231778
H   4.406154446252  0.150718481352  0.268286246832
H   4.105332482979 -0.344308535670 -1.416134909996
H   1.734839633239 -2.264605303270 -0.628538440334
H  -0.654781829247 -1.813050647019 -0.408717748116
H  -2.125722483269  1.568336684308  0.483597330181
H  -2.198693500855  1.007458282107 -1.941519492907
H  -2.559620784527 -0.678717061118 -1.542410782073
H  -3.698920092661  0.597619334397 -1.095447586839
H  -2.060658258635 -0.225960296416  2.205070348738
H  -3.621506924964 -0.094254408459  1.379876780271
H  -2.521487194121 -1.415697817907  0.977184388685
H   2.607582612005  1.864314603893  0.195225297160
