36
REP_00103 MMFF geometry for GFN2-xTB preoptimization
C   5.326707175884  1.269855078919 -0.642949552302
C   3.830069901758  1.518454358035 -0.583726845169
O   3.525144198678  2.172246704352  0.651717498707
C   3.029760045608  0.215811952914 -0.669146555410
O   1.637028149507  0.553861529481 -0.603008115526
C   0.808470199552 -0.609225307376 -0.658755426658
C  -0.660440943131 -0.181096631037 -0.585546743286
C  -0.982701944410  0.519661216356  0.743037819435
C  -2.460088999037  0.892790525096  0.802623264691
C  -3.340863293012 -0.320491756266  0.510310311427
C  -4.809652569887  0.078396229291  0.440089296913
O  -2.992635166119 -0.904443974687 -0.748090562813
C  -1.632181939275 -1.346169239424 -0.851718447863
C  -1.407083697454 -2.597251533750 -0.001353210753
H   5.653515217088  0.640409430658  0.192100315376
H   5.874403655458  2.214472750761 -0.556572600122
H   5.612543073871  0.784981979486 -1.581176944562
H   3.527972578498  2.198404390523 -1.388034466087
H   2.548946603241  2.167456896750  0.704575471270
H   3.271876753914 -0.435827148417  0.178459878884
H   3.239027241765 -0.305658864633 -1.609521542686
H   0.998560068083 -1.137322312123 -1.600397671355
H   1.064469507896 -1.269609587630  0.177573286301
H  -0.830282341759  0.572500588953 -1.368754835906
H  -0.734171996584 -0.133012960160  1.588563418669
H  -0.377767845072  1.426952371837  0.855779037355
H  -2.700052038485  1.314961644697  1.784923619560
H  -2.648432671478  1.674701802540  0.055628078559
H  -3.230235926303 -1.070209550807  1.301824618048
H  -5.146508462722  0.524881108485  1.380569264747
H  -5.432131655303 -0.797421014520  0.226831114648
H  -4.984993697582  0.792934397934 -0.371811187271
H  -1.507763649818 -1.651472658752 -1.898174133968
H  -1.394608322531 -2.372325983786  1.069115408376
H  -0.460399640065 -3.084069742313 -0.254325784753
H  -2.215497570773 -3.318126691386 -0.165271850794
