      -----------------------------------------------------------      
     |                   =====================                   |     
     |                           x T B                           |     
     |                   =====================                   |     
     |                         S. Grimme                         |     
     |          Mulliken Center for Theoretical Chemistry        |     
     |                    University of Bonn                     |     
      -----------------------------------------------------------      

   * xtb version 6.7.1 (edcfbbe) compiled by 'conda@5dfe00f5fb80' on 2026-06-10

   xtb is free software: you can redistribute it and/or modify it under
   the terms of the GNU Lesser General Public License as published by
   the Free Software Foundation, either version 3 of the License, or
   (at your option) any later version.
   
   xtb is distributed in the hope that it will be useful,
   but WITHOUT ANY WARRANTY; without even the implied warranty of
   MERCHANTABILITY or FITNESS FOR A PARTICULAR PURPOSE.  See the
   GNU Lesser General Public License for more details.
   
   Cite this work as:
   * C. Bannwarth, E. Caldeweyher, S. Ehlert, A. Hansen, P. Pracht,
     J. Seibert, S. Spicher, S. Grimme, WIREs Comput. Mol. Sci., 2020, 11,
     e01493. DOI: 10.1002/wcms.1493
   
   for GFN2-xTB:
   * C. Bannwarth, S. Ehlert and S. Grimme., J. Chem. Theory Comput., 2019,
     15, 1652-1671. DOI: 10.1021/acs.jctc.8b01176
   for GFN1-xTB:
   * S. Grimme, C. Bannwarth, P. Shushkov, J. Chem. Theory Comput., 2017,
     13, 1989-2009. DOI: 10.1021/acs.jctc.7b00118
   for GFN0-xTB:
   * P. Pracht, E. Caldeweyher, S. Ehlert, S. Grimme, ChemRxiv, 2019, preprint.
     DOI: 10.26434/chemrxiv.8326202.v1
   for GFN-FF:
   * S. Spicher and S. Grimme, Angew. Chem. Int. Ed., 2020, 59, 15665-15673.
     DOI: 10.1002/anie.202004239
   
   for ALPB and GBSA implicit solvation:
   * S. Ehlert, M. Stahn, S. Spicher, S. Grimme, J. Chem. Theory Comput.,
     2021, 17, 4250-4261. DOI: 10.1021/acs.jctc.1c00471
   
   for ddCOSMO and CPCM-X implicit solvation:
   * M. Stahn, S. Ehlert, S. Grimme, J. Phys. Chem. A,
     2023, XX, XXXX-XXXX. DOI: 10.1021/acs.jpca.3c04382
   
   for DFT-D4:
   * E. Caldeweyher, C. Bannwarth and S. Grimme, J. Chem. Phys., 2017,
     147, 034112. DOI: 10.1063/1.4993215
   * E. Caldeweyher, S. Ehlert, A. Hansen, H. Neugebauer, S. Spicher,
     C. Bannwarth and S. Grimme, J. Chem. Phys., 2019, 150, 154122.
     DOI: 10.1063/1.5090222
   * E. Caldeweyher, J.-M. Mewes, S. Ehlert and S. Grimme, Phys. Chem. Chem. Phys.
     2020, 22, 8499-8512. DOI: 10.1039/D0CP00502A
   
   for sTDA-xTB:
   * S. Grimme and C. Bannwarth, J. Chem. Phys., 2016, 145, 054103.
     DOI: 10.1063/1.4959605
   
   in the mass-spec context:
   * V. Asgeirsson, C. Bauer and S. Grimme, Chem. Sci., 2017, 8, 4879.
     DOI: 10.1039/c7sc00601b
   * J. Koopman and S. Grimme, ACS Omega 2019, 4, 12, 15120-15133.
     DOI: 10.1021/acsomega.9b02011
   
   for metadynamics refer to:
   * S. Grimme, J. Chem. Theory Comput., 2019, 155, 2847-2862
     DOI: 10.1021/acs.jctc.9b00143
   
   for SPH calculations refer to:
   * S. Spicher and S. Grimme, J. Chem. Theory Comput., 2021, 17, 1701-1714
     DOI: 10.1021/acs.jctc.0c01306
   
   for ONIOM refer to:
   * C. Plett, A. Katbashev, S. Ehlert, S. Grimme, M. Bursch,
     Phys. Chem. Chem. Phys., 2023, 25, 17860-17868. DOI: 10.1039/D3CP02178E
   
   for DIPRO refer to:
   * J. Kohn, N. Gildemeister, S. Grimme, D. Fazzi, A. Hansen,
     J. Chem. Phys., 2023, just accepted.
   
   for PTB refer to:
   * S. Grimme, M. Mueller, A. Hansen, J. Chem. Phys., 2023, 158, 124111.
     DOI: 10.1063/5.0137838
   
   with help from (in alphabetical order)
   P. Atkinson, C. Bannwarth, F. Bohle, G. Brandenburg, E. Caldeweyher
   M. Checinski, S. Dohm, S. Ehlert, S. Ehrlich, I. Gerasimov, C. Hölzer
   A. Katbashev, J. Kohn, J. Koopman, C. Lavigne, S. Lehtola, F. März, M. Müller,
   F. Musil, H. Neugebauer, J. Pisarek, C. Plett, P. Pracht, F. Pultar,
   J. Seibert, P. Shushkov, S. Spicher, M. Stahn, M. Steiner, T. Strunk,
   J. Stückrath, T. Rose, and J. Unsleber
   
 * started run on 2026/07/07 at 22:17:24.639     
   ID    Z sym.   atoms
    1    6 C      1-4, 6-9
    2    8 O      5, 10
    3    1 H      11-28

           -------------------------------------------------
          |                Calculation Setup                |
           -------------------------------------------------

          program call               : /home/ws/xd2484/miniforge3/envs/p3z_dft/bin/xtb xtb_input.xyz --gfn 2 --opt tight --cycles 500 --chrg 0 --uhf 0
          hostname                   : gpu10
          coordinate file            : xtb_input.xyz
          omp threads                :                    16


           -------------------------------------------------
          |                 G F N 2 - x T B                 |
           -------------------------------------------------

        Reference                      10.1021/acs.jctc.8b01176
      * Hamiltonian:
        H0-scaling (s, p, d)           1.850000    2.230000    2.230000
        zeta-weighting                 0.500000
      * Dispersion:
        s8                             2.700000
        a1                             0.520000
        a2                             5.000000
        s9                             5.000000
      * Repulsion:
        kExp                           1.500000    1.000000
        rExp                           1.000000
      * Coulomb:
        alpha                          2.000000
        third order                    shell-resolved
        anisotropic                    true
        a3                             3.000000
        a5                             4.000000
        cn-shift                       1.200000
        cn-exp                         4.000000
        max-rad                        5.000000


          ...................................................
          :                      SETUP                      :
          :.................................................:
          :  # basis functions                  58          :
          :  # atomic orbitals                  58          :
          :  # shells                           38          :
          :  # electrons                        62          :
          :  max. iterations                   250          :
          :  Hamiltonian                  GFN2-xTB          :
          :  restarted?                      false          :
          :  GBSA solvation                  false          :
          :  PC potential                    false          :
          :  electronic temp.          300.0000000     K    :
          :  accuracy                    1.0000000          :
          :  -> integral cutoff          0.2500000E+02      :
          :  -> integral neglect         0.1000000E-07      :
          :  -> SCF convergence          0.1000000E-05 Eh   :
          :  -> wf. convergence          0.1000000E-03 e    :
          :  Broyden damping             0.4000000          :
          :  net charge                          0          :
          :  unpaired electrons                  0          :
          ...................................................

 iter      E             dE          RMSdq      gap      omega  full diag
   1    -34.7715558 -0.347716E+02  0.300E+00   11.01       0.0  T
   2    -34.8265258 -0.549700E-01  0.159E+00   10.32       1.0  T
   3    -34.8278389 -0.131307E-02  0.706E-01   10.22       1.0  T
   4    -34.8284448 -0.605905E-03  0.171E-01   10.11       1.0  T
   5    -34.8287446 -0.299765E-03  0.692E-02   10.14       1.0  T
   6    -34.8287485 -0.389664E-05  0.197E-02   10.17       1.0  T
   7    -34.8287510 -0.248612E-05  0.700E-03   10.17       2.7  T
   8    -34.8287512 -0.181307E-06  0.227E-03   10.17       8.3  T
   9    -34.8287512 -0.959027E-08  0.911E-04   10.17      20.8  T
  10    -34.8287512 -0.189280E-08  0.257E-04   10.17      73.5  T

   *** convergence criteria satisfied after 10 iterations ***

         #    Occupation            Energy/Eh            Energy/eV
      -------------------------------------------------------------
         1        2.0000           -0.6988875             -19.0177
       ...           ...                  ...                  ...
        25        2.0000           -0.4395741             -11.9614
        26        2.0000           -0.4381201             -11.9219
        27        2.0000           -0.4305934             -11.7170
        28        2.0000           -0.4213968             -11.4668
        29        2.0000           -0.4155412             -11.3075
        30        2.0000           -0.4037301             -10.9861
        31        2.0000           -0.3794372             -10.3250 (HOMO)
        32                         -0.0057594              -0.1567 (LUMO)
        33                          0.0167350               0.4554
        34                          0.0442473               1.2040
        35                          0.0785401               2.1372
        36                          0.0814392               2.2161
       ...                                ...                  ...
        58                          0.3145576               8.5595
      -------------------------------------------------------------
                  HL-Gap            0.3736778 Eh           10.1683 eV
             Fermi-level           -0.1925983 Eh           -5.2409 eV

 SCC (total)                   0 d,  0 h,  0 min,  0.244 sec
 SCC setup                      ...        0 min,  0.003 sec (  1.196%)
 Dispersion                     ...        0 min,  0.008 sec (  3.187%)
 classical contributions        ...        0 min,  0.004 sec (  1.474%)
 integral evaluation            ...        0 min,  0.012 sec (  4.945%)
 iterations                     ...        0 min,  0.170 sec ( 69.604%)
 molecular gradient             ...        0 min,  0.048 sec ( 19.509%)
 printout                       ...        0 min,  0.000 sec (  0.071%)

         :::::::::::::::::::::::::::::::::::::::::::::::::::::
         ::                     SUMMARY                     ::
         :::::::::::::::::::::::::::::::::::::::::::::::::::::
         :: total energy             -34.442366437843 Eh    ::
         :: gradient norm              0.038433852992 Eh/a0 ::
         :: HOMO-LUMO gap             10.168290281871 eV    ::
         ::.................................................::
         :: SCC energy               -34.828503050662 Eh    ::
         :: -> isotropic ES            0.056182455364 Eh    ::
         :: -> anisotropic ES          0.006501704163 Eh    ::
         :: -> anisotropic XC          0.010566155773 Eh    ::
         :: -> dispersion             -0.021229243801 Eh    ::
         :: repulsion energy           0.386136612820 Eh    ::
         :: add. restraining           0.000000000000 Eh    ::
         :: total charge               0.000000000000 e     ::
         :::::::::::::::::::::::::::::::::::::::::::::::::::::

      ----------------------------------------------------------- 
     |                   =====================                   |
     |                        A N C O P T                        |
     |                   =====================                   |
     |               Approximate Normal Coordinate               |
     |                Rational Function Optimizer                |
      ----------------------------------------------------------- 
      ----------------------------------------------------------- 
     |                   =====================                   |
     |                        A N C O P T                        |
     |                   =====================                   |
     |               Approximate Normal Coordinate               |
     |                Rational Function Optimizer                |
      ----------------------------------------------------------- 

          ...................................................
          :                      SETUP                      :
          :.................................................:
          :   optimization level             tight          :
          :   max. optcycles                   500          :
          :   ANC micro-cycles                  20          :
          :   degrees of freedom                78          :
          :.................................................:
          :   RF solver                   davidson          :
          :   write xtbopt.log                true          :
          :   linear?                        false          :
          :   energy convergence         0.1000000E-05 Eh   :
          :   grad. convergence          0.8000000E-03 Eh/α :
          :   maxmium RF displ.          1.0000000          :
          :   Hlow (freq-cutoff)         0.1000000E-01      :
          :   Hmax (freq-cutoff)         5.0000000          :
          :   S6 in model hess.         20.0000000          :
          ...................................................

generating ANC from exact Hessian ...
Using Lindh-Hessian (1995)
 Shifting diagonal of input Hessian by    8.8481767608573209E-003
 Lowest  eigenvalues of input Hessian
    0.000000    0.000000    0.000000    0.000000    0.000000    0.000000
    0.010000    0.010702    0.011750    0.013236    0.014267    0.015010
    0.016310    0.016714    0.017602    0.018345    0.020597    0.021514
 Highest eigenvalues
    1.197226    1.222825    1.252843    1.281775    1.377069    1.423390


........................................................................
.............................. CYCLE    1 ..............................
........................................................................

 iter      E             dE          RMSdq      gap      omega  full diag
   1    -34.8287512 -0.348288E+02  0.107E-04   10.17       0.0  T
   2    -34.8287512 -0.344968E-10  0.589E-05   10.17     320.8  T
   3    -34.8287512 -0.321876E-11  0.257E-05   10.17     734.2  T
     SCC iter.                  ...        0 min,  0.037 sec
     gradient                   ...        0 min,  0.033 sec
 * total energy  :   -34.4423664 Eh     change       -0.3026415E-09 Eh
   gradient norm :     0.0384358 Eh/α   predicted     0.0000000E+00 (-100.00%)
   displ. norm   :     0.2905971 α      lambda       -0.4988974E-02
   maximum displ.:     0.1012937 α      in ANC's #12, #7, #18, ...

........................................................................
.............................. CYCLE    2 ..............................
........................................................................

 iter      E             dE          RMSdq      gap      omega  full diag
   1    -34.8453207 -0.348453E+02  0.168E-01   10.40       0.0  T
   2    -34.8453507 -0.299906E-04  0.967E-02   10.44       1.0  T
   3    -34.8453516 -0.971867E-06  0.177E-02   10.46       1.1  T
   4    -34.8453532 -0.154616E-05  0.502E-03   10.46       3.8  T
   5    -34.8453534 -0.217155E-06  0.197E-03   10.45       9.6  T
   6    -34.8453534 -0.123921E-07  0.818E-04   10.45      23.1  T
   7    -34.8453534 -0.188726E-08  0.267E-04   10.45      70.8  T
     SCC iter.                  ...        0 min,  0.084 sec
     gradient                   ...        0 min,  0.042 sec
 * total energy  :   -34.4456187 Eh     change       -0.3252260E-02 Eh
   gradient norm :     0.0173032 Eh/α   predicted    -0.2705270E-02 ( -16.82%)
   displ. norm   :     0.2140196 α      lambda       -0.1306107E-02
   maximum displ.:     0.0723816 α      in ANC's #7, #12, #3, ...

........................................................................
.............................. CYCLE    3 ..............................
........................................................................

 iter      E             dE          RMSdq      gap      omega  full diag
   1    -34.8546581 -0.348547E+02  0.765E-02   10.59       0.0  T
   2    -34.8546702 -0.121173E-04  0.447E-02   10.61       1.0  T
   3    -34.8546703 -0.826829E-07  0.136E-02   10.62       1.4  T
   4    -34.8546713 -0.101323E-05  0.330E-03   10.62       5.7  T
   5    -34.8546714 -0.985971E-07  0.113E-03   10.62      16.7  T
   6    -34.8546714 -0.419851E-08  0.460E-04   10.62      41.1  T
   7    -34.8546714 -0.396561E-09  0.148E-04   10.62     127.7  T
     SCC iter.                  ...        0 min,  0.140 sec
     gradient                   ...        0 min,  0.041 sec
 * total energy  :   -34.4464100 Eh     change       -0.7912718E-03 Eh
   gradient norm :     0.0055564 Eh/α   predicted    -0.6832605E-03 ( -13.65%)
   displ. norm   :     0.1324323 α      lambda       -0.2787542E-03
   maximum displ.:     0.0511159 α      in ANC's #2, #3, #1, ...

........................................................................
.............................. CYCLE    4 ..............................
........................................................................

 iter      E             dE          RMSdq      gap      omega  full diag
   1    -34.8558259 -0.348558E+02  0.368E-02   10.68       0.0  T
   2    -34.8558282 -0.235764E-05  0.223E-02   10.68       1.0  T
   3    -34.8558282  0.511364E-07  0.682E-03   10.69       2.8  T
   4    -34.8558286 -0.407591E-06  0.171E-03   10.69      11.1  T
   5    -34.8558286 -0.172270E-07  0.603E-04   10.69      31.3  T
   6    -34.8558286 -0.912493E-09  0.289E-04   10.69      65.3  T
     SCC iter.                  ...        0 min,  0.068 sec
     gradient                   ...        0 min,  0.032 sec
 * total energy  :   -34.4466165 Eh     change       -0.2065594E-03 Eh
   gradient norm :     0.0034163 Eh/α   predicted    -0.1418506E-03 ( -31.33%)
   displ. norm   :     0.1854071 α      lambda       -0.2408796E-03
   maximum displ.:     0.0904315 α      in ANC's #2, #1, #3, ...

........................................................................
.............................. CYCLE    5 ..............................
........................................................................

 iter      E             dE          RMSdq      gap      omega  full diag
   1    -34.8549944 -0.348550E+02  0.494E-02   10.74       0.0  T
   2    -34.8549967 -0.224216E-05  0.300E-02   10.74       1.0  T
   3    -34.8549966  0.686979E-07  0.638E-03   10.75       3.0  T
   4    -34.8549971 -0.521082E-06  0.189E-03   10.75      10.0  T
   5    -34.8549971 -0.152695E-07  0.732E-04   10.75      25.8  T
   6    -34.8549971 -0.127330E-08  0.329E-04   10.75      57.5  T
     SCC iter.                  ...        0 min,  0.083 sec
     gradient                   ...        0 min,  0.042 sec
 * total energy  :   -34.4467788 Eh     change       -0.1622798E-03 Eh
   gradient norm :     0.0036472 Eh/α   predicted    -0.1245809E-03 ( -23.23%)
   displ. norm   :     0.1463236 α      lambda       -0.1073131E-03
   maximum displ.:     0.0798498 α      in ANC's #1, #2, #12, ...

........................................................................
.............................. CYCLE    6 ..............................
........................................................................

 iter      E             dE          RMSdq      gap      omega  full diag
   1    -34.8541703 -0.348542E+02  0.371E-02   10.77       0.0  T
   2    -34.8541709 -0.579867E-06  0.226E-02   10.77       1.0  T
   3    -34.8541709 -0.934387E-07  0.254E-03   10.78       7.5  T
   4    -34.8541710 -0.675496E-07  0.110E-03   10.77      17.2  T
   5    -34.8541710 -0.420039E-08  0.452E-04   10.77      41.9  T
   6    -34.8541710 -0.445588E-09  0.152E-04   10.77     124.5  T
     SCC iter.                  ...        0 min,  0.086 sec
     gradient                   ...        0 min,  0.024 sec
 * total energy  :   -34.4468577 Eh     change       -0.7887436E-04 Eh
   gradient norm :     0.0035348 Eh/α   predicted    -0.5480689E-04 ( -30.51%)
   displ. norm   :     0.1361167 α      lambda       -0.8196271E-04
   maximum displ.:     0.0821835 α      in ANC's #1, #2, #12, ...

........................................................................
.............................. CYCLE    7 ..............................
........................................................................

 iter      E             dE          RMSdq      gap      omega  full diag
   1    -34.8539343 -0.348539E+02  0.337E-02   10.79       0.0  T
   2    -34.8539347 -0.347816E-06  0.205E-02   10.79       1.0  T
   3    -34.8539348 -0.768908E-07  0.181E-03   10.79      10.4  T
   4    -34.8539348 -0.229557E-07  0.841E-04   10.79      22.5  T
   5    -34.8539348 -0.169481E-08  0.344E-04   10.79      55.0  T
     SCC iter.                  ...        0 min,  0.092 sec
     gradient                   ...        0 min,  0.048 sec
 * total energy  :   -34.4469171 Eh     change       -0.5945840E-04 Eh
   gradient norm :     0.0020374 Eh/α   predicted    -0.4174179E-04 ( -29.80%)
   displ. norm   :     0.1052561 α      lambda       -0.4707547E-04
   maximum displ.:     0.0665860 α      in ANC's #1, #2, #9, ...

........................................................................
.............................. CYCLE    8 ..............................
........................................................................

 iter      E             dE          RMSdq      gap      omega  full diag
   1    -34.8543110 -0.348543E+02  0.262E-02   10.79       0.0  T
   2    -34.8543113 -0.225877E-06  0.159E-02   10.79       1.2  T
   3    -34.8543113 -0.522931E-09  0.196E-03   10.79       9.7  T
   4    -34.8543113 -0.597242E-07  0.665E-04   10.79      28.4  T
   5    -34.8543113 -0.142635E-08  0.253E-04   10.79      74.8  T
     SCC iter.                  ...        0 min,  0.068 sec
     gradient                   ...        0 min,  0.038 sec
 * total energy  :   -34.4469500 Eh     change       -0.3287883E-04 Eh
   gradient norm :     0.0013264 Eh/α   predicted    -0.2379871E-04 ( -27.62%)
   displ. norm   :     0.1124695 α      lambda       -0.2274757E-04
   maximum displ.:     0.0691841 α      in ANC's #1, #2, #9, ...

........................................................................
.............................. CYCLE    9 ..............................
........................................................................

 iter      E             dE          RMSdq      gap      omega  full diag
   1    -34.8549315 -0.348549E+02  0.282E-02   10.78       0.0  T
   2    -34.8549317 -0.205677E-06  0.171E-02   10.78       1.1  T
   3    -34.8549317 -0.183030E-08  0.186E-03   10.78      10.1  T
   4    -34.8549317 -0.593329E-07  0.659E-04   10.78      28.7  T
   5    -34.8549317 -0.130716E-08  0.235E-04   10.78      80.5  T
     SCC iter.                  ...        0 min,  0.096 sec
     gradient                   ...        0 min,  0.037 sec
 * total energy  :   -34.4469707 Eh     change       -0.2070142E-04 Eh
   gradient norm :     0.0018566 Eh/α   predicted    -0.1143853E-04 ( -44.75%)
   displ. norm   :     0.0627041 α      lambda       -0.1209310E-04
   maximum displ.:     0.0333285 α      in ANC's #3, #1, #2, ...

........................................................................
.............................. CYCLE   10 ..............................
........................................................................

 iter      E             dE          RMSdq      gap      omega  full diag
   1    -34.8551419 -0.348551E+02  0.145E-02   10.77       0.0  T
   2    -34.8551419 -0.373527E-07  0.873E-03   10.77       2.2  T
   3    -34.8551420 -0.477896E-08  0.613E-04   10.77      30.8  T
   4    -34.8551420 -0.467823E-08  0.243E-04   10.77      77.7  T
     SCC iter.                  ...        0 min,  0.049 sec
     gradient                   ...        0 min,  0.034 sec
 * total energy  :   -34.4469856 Eh     change       -0.1483773E-04 Eh
   gradient norm :     0.0013711 Eh/α   predicted    -0.6057253E-05 ( -59.18%)
   displ. norm   :     0.1280187 α      lambda       -0.2032082E-04
   maximum displ.:     0.0661704 α      in ANC's #3, #2, #1, ...

........................................................................
.............................. CYCLE   11 ..............................
........................................................................

 iter      E             dE          RMSdq      gap      omega  full diag
   1    -34.8547769 -0.348548E+02  0.292E-02   10.76       0.0  T
   2    -34.8547770 -0.123451E-06  0.176E-02   10.76       1.1  T
   3    -34.8547770  0.195974E-07  0.171E-03   10.76      11.0  T
   4    -34.8547771 -0.587484E-07  0.471E-04   10.76      40.1  T
   5    -34.8547771 -0.273921E-09  0.150E-04   10.76     125.8  T
     SCC iter.                  ...        0 min,  0.069 sec
     gradient                   ...        0 min,  0.034 sec
 * total energy  :   -34.4470060 Eh     change       -0.2047562E-04 Eh
   gradient norm :     0.0010429 Eh/α   predicted    -0.1023705E-04 ( -50.00%)
   displ. norm   :     0.0939166 α      lambda       -0.1054558E-04
   maximum displ.:     0.0527255 α      in ANC's #3, #2, #10, ...

........................................................................
.............................. CYCLE   12 ..............................
........................................................................

 iter      E             dE          RMSdq      gap      omega  full diag
   1    -34.8549016 -0.348549E+02  0.201E-02   10.76       0.0  T
   2    -34.8549016 -0.600704E-07  0.121E-02   10.75       1.6  T
   3    -34.8549016  0.166470E-07  0.123E-03   10.75      15.4  T
   4    -34.8549017 -0.318449E-07  0.290E-04   10.75      65.2  T
   5    -34.8549017 -0.962785E-10  0.117E-04   10.75     161.7  T
     SCC iter.                  ...        0 min,  0.063 sec
     gradient                   ...        0 min,  0.038 sec
 * total energy  :   -34.4470173 Eh     change       -0.1131421E-04 Eh
   gradient norm :     0.0012016 Eh/α   predicted    -0.5297024E-05 ( -53.18%)
   displ. norm   :     0.1256205 α      lambda       -0.1242319E-04
   maximum displ.:     0.0656485 α      in ANC's #2, #3, #10, ...

........................................................................
.............................. CYCLE   13 ..............................
........................................................................

 iter      E             dE          RMSdq      gap      omega  full diag
   1    -34.8545510 -0.348546E+02  0.276E-02   10.75       0.0  T
   2    -34.8545511 -0.965372E-07  0.166E-02   10.75       1.1  T
   3    -34.8545511  0.127626E-07  0.143E-03   10.75      13.2  T
   4    -34.8545511 -0.405210E-07  0.435E-04   10.75      43.4  T
   5    -34.8545511 -0.379636E-09  0.142E-04   10.75     133.5  T
     SCC iter.                  ...        0 min,  0.060 sec
     gradient                   ...        0 min,  0.036 sec
 * total energy  :   -34.4470311 Eh     change       -0.1379442E-04 Eh
   gradient norm :     0.0017038 Eh/α   predicted    -0.6256349E-05 ( -54.65%)
   displ. norm   :     0.1550788 α      lambda       -0.1669540E-04
   maximum displ.:     0.0825916 α      in ANC's #3, #2, #10, ...

........................................................................
.............................. CYCLE   14 ..............................
........................................................................

 iter      E             dE          RMSdq      gap      omega  full diag
   1    -34.8545376 -0.348545E+02  0.315E-02   10.75       0.0  T
   2    -34.8545377 -0.854092E-07  0.190E-02   10.75       1.0  T
   3    -34.8545377 -0.108582E-07  0.106E-03   10.75      17.8  T
   4    -34.8545377 -0.163823E-07  0.466E-04   10.75      40.5  T
   5    -34.8545377 -0.507228E-09  0.171E-04   10.75     110.3  T
     SCC iter.                  ...        0 min,  0.064 sec
     gradient                   ...        0 min,  0.041 sec
 * total energy  :   -34.4470497 Eh     change       -0.1856166E-04 Eh
   gradient norm :     0.0015692 Eh/α   predicted    -0.8437077E-05 ( -54.55%)
   displ. norm   :     0.1759052 α      lambda       -0.1676383E-04
   maximum displ.:     0.0948134 α      in ANC's #2, #3, #10, ...

........................................................................
.............................. CYCLE   15 ..............................
........................................................................

 iter      E             dE          RMSdq      gap      omega  full diag
   1    -34.8544571 -0.348545E+02  0.372E-02   10.74       0.0  T
   2    -34.8544573 -0.114897E-06  0.224E-02   10.74       1.0  T
   3    -34.8544573 -0.344267E-07  0.115E-03   10.74      16.5  T
   4    -34.8544573 -0.115733E-07  0.593E-04   10.74      31.9  T
   5    -34.8544573 -0.829843E-09  0.172E-04   10.74     109.6  T
     SCC iter.                  ...        0 min,  0.063 sec
     gradient                   ...        0 min,  0.035 sec
 * total energy  :   -34.4470679 Eh     change       -0.1824215E-04 Eh
   gradient norm :     0.0013658 Eh/α   predicted    -0.8499450E-05 ( -53.41%)
   displ. norm   :     0.1653487 α      lambda       -0.1673105E-04
   maximum displ.:     0.0873237 α      in ANC's #3, #2, #10, ...

........................................................................
.............................. CYCLE   16 ..............................
........................................................................

 iter      E             dE          RMSdq      gap      omega  full diag
   1    -34.8549408 -0.348549E+02  0.353E-02   10.73       0.0  T
   2    -34.8549409 -0.135034E-06  0.213E-02   10.74       1.0  T
   3    -34.8549410 -0.360307E-07  0.119E-03   10.74      15.9  T
   4    -34.8549410 -0.120992E-07  0.611E-04   10.74      30.9  T
   5    -34.8549410 -0.628347E-09  0.185E-04   10.74     102.3  T
     SCC iter.                  ...        0 min,  0.063 sec
     gradient                   ...        0 min,  0.039 sec
 * total energy  :   -34.4470843 Eh     change       -0.1637809E-04 Eh
   gradient norm :     0.0013016 Eh/α   predicted    -0.8471060E-05 ( -48.28%)
   displ. norm   :     0.3165120 α      lambda       -0.2007131E-04
   maximum displ.:     0.1775211 α      in ANC's #2, #3, #10, ...

........................................................................
.............................. CYCLE   17 ..............................
........................................................................

 iter      E             dE          RMSdq      gap      omega  full diag
   1    -34.8525845 -0.348526E+02  0.691E-02   10.70       0.0  T
   2    -34.8525857 -0.119747E-05  0.414E-02   10.70       1.0  T
   3    -34.8525858 -0.145486E-06  0.291E-03   10.71       6.5  T
   4    -34.8525859 -0.425474E-07  0.117E-03   10.71      16.2  T
   5    -34.8525859 -0.153612E-08  0.539E-04   10.71      35.1  T
   6    -34.8525859 -0.905239E-09  0.100E-04   10.71     188.3  T
     SCC iter.                  ...        0 min,  0.080 sec
     gradient                   ...        0 min,  0.030 sec
 * total energy  :   -34.4470646 Eh     change        0.1970335E-04 Eh
   gradient norm :     0.0051766 Eh/α   predicted    -0.1048412E-04 (-153.21%)
   displ. norm   :     0.1034819 α      lambda       -0.6616960E-04
   maximum displ.:     0.0530795 α      in ANC's #3, #2, #10, ...

........................................................................
.............................. CYCLE   18 ..............................
........................................................................

 iter      E             dE          RMSdq      gap      omega  full diag
   1    -34.8547654 -0.348548E+02  0.240E-02   10.72       0.0  T
   2    -34.8547660 -0.512363E-06  0.140E-02   10.72       1.3  T
   3    -34.8547660 -0.285509E-07  0.239E-03   10.72       7.9  T
   4    -34.8547660 -0.137921E-07  0.597E-04   10.72      31.7  T
   5    -34.8547660 -0.781412E-09  0.305E-04   10.72      61.9  T
     SCC iter.                  ...        0 min,  0.055 sec
     gradient                   ...        0 min,  0.033 sec
 * total energy  :   -34.4471021 Eh     change       -0.3744445E-04 Eh
   gradient norm :     0.0020372 Eh/α   predicted    -0.3344044E-04 ( -10.69%)
   displ. norm   :     0.0324079 α      lambda       -0.1129350E-04
   maximum displ.:     0.0145450 α      in ANC's #9, #4, #1, ...

........................................................................
.............................. CYCLE   19 ..............................
........................................................................

 iter      E             dE          RMSdq      gap      omega  full diag
   1    -34.8551852 -0.348552E+02  0.860E-03   10.73       0.0  T
   2    -34.8551852 -0.676283E-07  0.505E-03   10.73       3.7  T
   3    -34.8551852 -0.596998E-10  0.104E-03   10.73      18.1  T
   4    -34.8551852 -0.757996E-08  0.254E-04   10.73      74.4  T
   5    -34.8551852 -0.219252E-09  0.137E-04   10.73     138.1  T
     SCC iter.                  ...        0 min,  0.057 sec
     gradient                   ...        0 min,  0.022 sec
 * total energy  :   -34.4471098 Eh     change       -0.7780376E-05 Eh
   gradient norm :     0.0011459 Eh/α   predicted    -0.5653718E-05 ( -27.33%)
   displ. norm   :     0.0855940 α      lambda       -0.8445742E-05
   maximum displ.:     0.0466046 α      in ANC's #2, #3, #4, ...

........................................................................
.............................. CYCLE   20 ..............................
........................................................................

 iter      E             dE          RMSdq      gap      omega  full diag
   1    -34.8555563 -0.348556E+02  0.205E-02   10.74       0.0  T
   2    -34.8555564 -0.999277E-07  0.124E-02   10.74       1.5  T
   3    -34.8555564  0.198931E-09  0.128E-03   10.74      14.7  T
   4    -34.8555564 -0.265116E-07  0.437E-04   10.74      43.3  T
   5    -34.8555564 -0.329401E-09  0.192E-04   10.74      98.3  T
     SCC iter.                  ...        0 min,  0.100 sec
     gradient                   ...        0 min,  0.029 sec
 * total energy  :   -34.4471179 Eh     change       -0.8028997E-05 Eh
   gradient norm :     0.0013906 Eh/α   predicted    -0.4239713E-05 ( -47.19%)
   displ. norm   :     0.1078406 α      lambda       -0.7319029E-05
   maximum displ.:     0.0665148 α      in ANC's #2, #3, #10, ...
 * RMSD in coord.:     0.3143615 α      energy gain  -0.4751438E-02 Eh

generating ANC from exact Hessian ...
Using Lindh-Hessian (1995)
 Shifting diagonal of input Hessian by    8.6617107067001823E-003
 Lowest  eigenvalues of input Hessian
    0.000000    0.000000    0.000000    0.000000    0.000000    0.000000
    0.010000    0.010797    0.011788    0.013329    0.014216    0.015280
    0.016579    0.016884    0.017828    0.018641    0.020952    0.022770
 Highest eigenvalues
    1.221825    1.246477    1.279062    1.314894    1.459511    1.471943


........................................................................
.............................. CYCLE   21 ..............................
........................................................................

 iter      E             dE          RMSdq      gap      omega  full diag
   1    -34.8551151 -0.348551E+02  0.245E-02   10.73       0.0  T
   2    -34.8551152 -0.101774E-06  0.148E-02   10.73       1.3  T
   3    -34.8551152 -0.289446E-08  0.130E-03   10.73      14.6  T
   4    -34.8551152 -0.275242E-07  0.444E-04   10.73      42.5  T
   5    -34.8551153 -0.321734E-09  0.189E-04   10.73      99.9  T
     SCC iter.                  ...        0 min,  0.049 sec
     gradient                   ...        0 min,  0.030 sec
 * total energy  :   -34.4471254 Eh     change       -0.7569577E-05 Eh
   gradient norm :     0.0007628 Eh/α   predicted     0.0000000E+00 (-100.00%)
   displ. norm   :     0.0183935 α      lambda       -0.3040395E-05
   maximum displ.:     0.0135354 α      in ANC's #1, #2, #6, ...

........................................................................
.............................. CYCLE   22 ..............................
........................................................................

 iter      E             dE          RMSdq      gap      omega  full diag
   1    -34.8550545 -0.348551E+02  0.486E-03   10.73       0.0  T
   2    -34.8550545 -0.245985E-07  0.288E-03   10.73       6.6  T
   3    -34.8550545 -0.893479E-09  0.576E-04   10.73      32.8  T
   4    -34.8550545 -0.239419E-08  0.173E-04   10.73     109.4  T
     SCC iter.                  ...        0 min,  0.048 sec
     gradient                   ...        0 min,  0.035 sec
 * total energy  :   -34.4471285 Eh     change       -0.3069813E-05 Eh
   gradient norm :     0.0002867 Eh/α   predicted    -0.1525645E-05 ( -50.30%)
   displ. norm   :     0.0241600 α      lambda       -0.2024728E-05
   maximum displ.:     0.0181531 α      in ANC's #1, #2, #6, ...

........................................................................
.............................. CYCLE   23 ..............................
........................................................................

 iter      E             dE          RMSdq      gap      omega  full diag
   1    -34.8550446 -0.348550E+02  0.527E-03   10.73       0.0  T
   2    -34.8550447 -0.177509E-07  0.320E-03   10.73       5.9  T
   3    -34.8550447 -0.264585E-09  0.537E-04   10.73      35.2  T
   4    -34.8550447 -0.377144E-08  0.174E-04   10.73     108.6  T
     SCC iter.                  ...        0 min,  0.052 sec
     gradient                   ...        0 min,  0.040 sec
 * total energy  :   -34.4471307 Eh     change       -0.2159346E-05 Eh
   gradient norm :     0.0003286 Eh/α   predicted    -0.1023712E-05 ( -52.59%)
   displ. norm   :     0.0225333 α      lambda       -0.1244694E-05
   maximum displ.:     0.0174180 α      in ANC's #1, #2, #8, ...

........................................................................
.............................. CYCLE   24 ..............................
........................................................................

 iter      E             dE          RMSdq      gap      omega  full diag
   1    -34.8550535 -0.348551E+02  0.481E-03   10.73       0.0  T
   2    -34.8550535 -0.141855E-07  0.292E-03   10.73       6.5  T
   3    -34.8550535 -0.165227E-08  0.431E-04   10.73      43.9  T
   4    -34.8550535 -0.165226E-08  0.160E-04   10.73     118.2  T
     SCC iter.                  ...        0 min,  0.093 sec
     gradient                   ...        0 min,  0.036 sec
 * total energy  :   -34.4471321 Eh     change       -0.1424409E-05 Eh
   gradient norm :     0.0002392 Eh/α   predicted    -0.6365381E-06 ( -55.31%)
   displ. norm   :     0.0241824 α      lambda       -0.1085152E-05
   maximum displ.:     0.0178725 α      in ANC's #1, #4, #2, ...

........................................................................
.............................. CYCLE   25 ..............................
........................................................................

 iter      E             dE          RMSdq      gap      omega  full diag
   1    -34.8550677 -0.348551E+02  0.514E-03   10.73       0.0  T
   2    -34.8550677 -0.795520E-08  0.313E-03   10.73       6.0  T
   3    -34.8550677 -0.146547E-08  0.344E-04   10.73      55.0  T
   4    -34.8550677 -0.154354E-08  0.145E-04   10.73     130.4  T
     SCC iter.                  ...        0 min,  0.060 sec
     gradient                   ...        0 min,  0.038 sec
 * total energy  :   -34.4471334 Eh     change       -0.1340423E-05 Eh
   gradient norm :     0.0001819 Eh/α   predicted    -0.5537696E-06 ( -58.69%)
   displ. norm   :     0.0323278 α      lambda       -0.1173707E-05
   maximum displ.:     0.0227845 α      in ANC's #1, #4, #2, ...

........................................................................
.............................. CYCLE   26 ..............................
........................................................................

 iter      E             dE          RMSdq      gap      omega  full diag
   1    -34.8550623 -0.348551E+02  0.651E-03   10.72       0.0  T
   2    -34.8550623 -0.939087E-08  0.397E-03   10.72       4.8  T
   3    -34.8550623 -0.304642E-08  0.354E-04   10.72      53.5  T
   4    -34.8550623 -0.125792E-08  0.177E-04   10.72     106.7  T
     SCC iter.                  ...        0 min,  0.057 sec
     gradient                   ...        0 min,  0.045 sec
 * total energy  :   -34.4471347 Eh     change       -0.1274428E-05 Eh
   gradient norm :     0.0001609 Eh/α   predicted    -0.5900076E-06 ( -53.70%)
   displ. norm   :     0.0243247 α      lambda       -0.5283213E-06
   maximum displ.:     0.0167816 α      in ANC's #1, #4, #2, ...

........................................................................
.............................. CYCLE   27 ..............................
........................................................................

 iter      E             dE          RMSdq      gap      omega  full diag
   1    -34.8550580 -0.348551E+02  0.485E-03   10.72       0.0  T
   2    -34.8550580 -0.523050E-08  0.295E-03   10.72       6.4  T
   3    -34.8550580 -0.812548E-09  0.301E-04   10.72      62.7  T
   4    -34.8550580 -0.132081E-08  0.127E-04   10.72     148.7  T
     SCC iter.                  ...        0 min,  0.060 sec
     gradient                   ...        0 min,  0.042 sec
 * total energy  :   -34.4471352 Eh     change       -0.5296336E-06 Eh
   gradient norm :     0.0001024 Eh/α   predicted    -0.2658969E-06 ( -49.80%)
   displ. norm   :     0.0139375 α      lambda       -0.2095290E-06
   maximum displ.:     0.0093530 α      in ANC's #1, #2, #4, ...

   *** GEOMETRY OPTIMIZATION CONVERGED AFTER 27 ITERATIONS ***

------------------------------------------------------------------------
 total energy gain   :        -0.0047688 Eh       -2.9925 kcal/mol
 total RMSD          :         0.3185042 a0        0.1685 Å
 total power (kW/mol):        -0.4637222 (step)   -3.3184 (real)
------------------------------------------------------------------------

 ANCopt (total)                0 d,  0 h,  0 min,  3.773 sec
 optimizer setup                ...        0 min,  0.001 sec (  0.019%)
 model hessian                  ...        0 min,  0.067 sec (  1.770%)
 ANC generation                 ...        0 min,  0.002 sec (  0.064%)
 coordinate transformation      ...        0 min,  0.000 sec (  0.008%)
 single point calculation       ...        0 min,  3.592 sec ( 95.210%)
 optimization log               ...        0 min,  0.004 sec (  0.095%)
 hessian update                 ...        0 min,  0.098 sec (  2.602%)
 rational function              ...        0 min,  0.003 sec (  0.073%)

================
 final structure:
================
28
 xtb: 6.7.1 (edcfbbe)
C            2.64541481417716        0.47292931817739       -0.95839637471332
C            2.12523555400280       -0.56820576347476        0.02621185637441
C            0.81160922173221       -0.16609350821912        0.72630291699067
C            0.42113910575531       -1.28004363362560        1.70956758727325
O            1.12725293309608        1.01364686367767        1.44039772444766
C           -0.33500864939901        0.13244767410476       -0.28618420293421
C           -0.48904075087733       -0.96479585777761       -1.34009420638603
C           -1.70847471039686        0.36414374708621        0.38825308874717
C           -2.65811745571320        1.13446839390206       -0.53036953358412
O           -1.55395992421437        1.08522623908813        1.60491420705991
H            2.68282427980240        1.44219332730348       -0.46952530110882
H            3.64944499955710        0.20669237363076       -1.28179044312082
H            2.01396802471481        0.54974220284973       -1.83996423962215
H            2.86564960692439       -0.67943590439801        0.82048671365973
H            2.00852175972977       -1.53689064858459       -0.45917698226821
H           -0.42620067011294       -0.97040390998495        2.31463944492218
H            0.17257021323309       -2.19775050705626        1.18438540855880
H            1.25786872010585       -1.47627407076391        2.37556708633204
H            0.30590423392873        1.33145822408296        1.83788543865118
H           -0.05479387302327        1.06775205776713       -0.78147856641598
H           -0.71128470752264       -1.92087249001941       -0.87247529346607
H           -1.29943254879519       -0.72891739707260       -2.02476099688178
H            0.41567925078131       -1.07033018231483       -1.92856748198933
H           -2.15385300218667       -0.61796834082237        0.61873362915808
H           -3.62508733617615        1.26376533896384       -0.04398580232027
H           -2.24412215584529        2.11716148761979       -0.74725805737303
H           -2.82178826819708        0.60865772758062       -1.46499829505197
H           -2.42191866508256        1.38769723827777        1.89202393361603

 Bond Distances (Angstroems)
 ---------------------------
C1-C2=1.5245         C1-H11=1.0862        C1-H12=1.0879        C1-H13=1.0871        C2-C1=1.5245         C2-C3=1.5419         
C2-H14=1.0915        C2-H15=1.0898        C3-C2=1.5419         C3-C4=1.5363         C3-O5=1.4147         C3-C6=1.5585         
C4-C3=1.5363         C4-H16=1.0863        C4-H17=1.0862        C4-H18=1.0873        O5-C3=1.4147         O5-H19=0.9662        
C6-C3=1.5585         C6-C7=1.5292         C6-C8=1.5476         C6-H20=1.0948        C7-C6=1.5292         C7-H21=1.0873        
C7-H22=1.0868        C7-H23=1.0844        C8-C6=1.5476         C8-C9=1.5294         C8-O10=1.4227        C8-H24=1.1027        
C9-C8=1.5294         C9-H25=1.0901        C9-H26=1.0882        C9-H27=1.0848        O10-C8=1.4227        O10-H28=0.9630       
H11-C1=1.0862        H12-C1=1.0879        H13-C1=1.0871        H14-C2=1.0915        H15-C2=1.0898        H16-C4=1.0863        
H17-C4=1.0862        H18-C4=1.0873        H19-O5=0.9662        H20-C6=1.0948        H21-C7=1.0873        H22-C7=1.0868        
H23-C7=1.0844        H24-C8=1.1027        H25-C9=1.0901        H26-C9=1.0882        H27-C9=1.0848        H28-O10=0.9630       
 C  H  Rav=1.0888 sigma=0.0044  Rmin=1.0844  Rmax=1.1027    16
 C  C  Rav=1.5382 sigma=0.0111  Rmin=1.5245  Rmax=1.5585     7
 O  H  Rav=0.9646 sigma=0.0016  Rmin=0.9630  Rmax=0.9662     2
 O  C  Rav=1.4187 sigma=0.0040  Rmin=1.4147  Rmax=1.4227     2

 selected bond angles (degree)
 --------------------
H11-C1-C2=109.30               H12-C1-C2=109.86               H12-C1-H11=108.69              H13-C1-C2=111.95               
H13-C1-H11=108.78              H13-C1-H12=108.20              C3-C2-C1=113.94                H14-C2-C1=107.95               
H14-C2-C3=105.91               H15-C2-C1=110.85               H15-C2-C3=110.05               H15-C2-H14=107.83              
C4-C3-C2=108.54                O5-C3-C2=104.87                O5-C3-C4=109.77                C6-C3-C2=112.44                
C6-C3-C4=111.57                C6-C3-O5=109.41                H16-C4-C3=110.37               H17-C4-C3=111.18               
H17-C4-H16=109.37              H18-C4-C3=109.11               H18-C4-H16=108.09              H18-C4-H17=108.65              
H19-O5-C3=106.99               C7-C6-C3=112.61                C8-C6-C3=113.48                C8-C6-C7=108.57                
H20-C6-C3=105.62               H20-C6-C7=109.09               H20-C6-C8=107.24               H21-C7-C6=110.80               
H22-C7-C6=110.71               H22-C7-H21=108.02              H23-C7-C6=111.09               H23-C7-H21=108.56              
H23-C7-H22=107.54              C9-C8-C6=111.39                O10-C8-C6=110.62               O10-C8-C9=109.01               
H24-C8-C6=108.43               H24-C8-C9=108.86               H24-C8-O10=108.45              H25-C9-C8=110.03               
H26-C9-C8=109.78               H26-C9-H25=108.62              H27-C9-C8=111.53               H27-C9-H25=107.94              
H27-C9-H26=108.87              H28-O10-C8=108.44              

 selected dihedral angles (degree)
 ---------------------------------
C3-C2-C1-H11= 51.08           C3-C2-C1-H12=170.26           C3-C2-C1-H13=290.50           H14-C2-C1-H11=293.76          
H14-C2-C1-H12= 52.93          H14-C2-C1-H13=173.17          H15-C2-C1-H11=175.87          H15-C2-C1-H12=295.04          
H15-C2-C1-H13= 55.28          C4-C3-C2-C1=181.39            C4-C3-C2-H14=299.89           C4-C3-C2-H15= 56.18           
O5-C3-C2-C1=298.67            O5-C3-C2-H14= 57.17           O5-C3-C2-H15=173.45           C6-C3-C2-C1= 57.46            
C6-C3-C2-H14=175.96           C6-C3-C2-H15=292.25           H16-C4-C3-C2=172.47           H16-C4-C3-O5= 58.37           
H16-C4-C3-C6=296.91           H17-C4-C3-C2=294.02           H17-C4-C3-O5=179.93           H17-C4-C3-C6= 58.47           
H18-C4-C3-C2= 53.83           H18-C4-C3-O5=299.74           H18-C4-C3-C6=178.28           H19-O5-C3-C2=175.75           
H19-O5-C3-C4=292.18           H19-O5-C3-C6= 54.93           C7-C6-C3-C2= 48.89            C7-C6-C3-C4=286.66            
C7-C6-C3-O5=164.99            C8-C6-C3-C2=172.74            C8-C6-C3-C4= 50.50            C8-C6-C3-O5=288.83            
H20-C6-C3-C2=289.93           H20-C6-C3-C4=167.70           H20-C6-C3-O5= 46.03           H21-C7-C6-C3= 59.81           
H21-C7-C6-C8=293.28           H21-C7-C6-H20=176.73          H22-C7-C6-C3=179.64           H22-C7-C6-C8= 53.11           
H22-C7-C6-H20=296.55          H23-C7-C6-C3=299.05           H23-C7-C6-C8=172.52           H23-C7-C6-H20= 55.96          
C9-C8-C6-C3=159.17            C9-C8-C6-C7=285.19            C9-C8-C6-H20= 42.92           O10-C8-C6-C3= 37.75           
O10-C8-C6-C7=163.77           O10-C8-C6-H20=281.51          H24-C8-C6-C3=278.94           H24-C8-C6-C7= 44.96           
H24-C8-C6-H20=162.70          H25-C9-C8-C6=178.61           H25-C9-C8-O10=300.96          H25-C9-C8-H24= 59.09          
H26-C9-C8-C6=298.10           H26-C9-C8-O10= 60.45          H26-C9-C8-H24=178.58          H27-C9-C8-C6= 58.85           
H27-C9-C8-O10=181.20          H27-C9-C8-H24=299.33          H28-O10-C8-C6=167.12          H28-O10-C8-C9= 44.31          
H28-O10-C8-H24=285.91         
           -------------------------------------------------
          |                Final Singlepoint                |
           -------------------------------------------------

          ...................................................
          :                      SETUP                      :
          :.................................................:
          :  # basis functions                  58          :
          :  # atomic orbitals                  58          :
          :  # shells                           38          :
          :  # electrons                        62          :
          :  max. iterations                   250          :
          :  Hamiltonian                  GFN2-xTB          :
          :  restarted?                      false          :
          :  GBSA solvation                  false          :
          :  PC potential                    false          :
          :  electronic temp.          300.0000000     K    :
          :  accuracy                    1.0000000          :
          :  -> integral cutoff          0.2500000E+02      :
          :  -> integral neglect         0.1000000E-07      :
          :  -> SCF convergence          0.1000000E-05 Eh   :
          :  -> wf. convergence          0.1000000E-03 e    :
          :  Broyden damping             0.4000000          :
          :  net charge                          0          :
          :  unpaired electrons                  0          :
          ...................................................

 iter      E             dE          RMSdq      gap      omega  full diag
   1    -34.8550580 -0.348551E+02  0.303E-05   10.72       0.0  T
   2    -34.8550580 -0.372324E-11  0.172E-05   10.72    1097.2  T
   3    -34.8550580 -0.213163E-12  0.910E-06   10.72    2077.0  T

   *** convergence criteria satisfied after 3 iterations ***

         #    Occupation            Energy/Eh            Energy/eV
      -------------------------------------------------------------
         1        2.0000           -0.6959605             -18.9380
       ...           ...                  ...                  ...
        25        2.0000           -0.4404849             -11.9862
        26        2.0000           -0.4386264             -11.9356
        27        2.0000           -0.4315145             -11.7421
        28        2.0000           -0.4202475             -11.4355
        29        2.0000           -0.4132151             -11.2442
        30        2.0000           -0.4034053             -10.9772
        31        2.0000           -0.3831080             -10.4249 (HOMO)
        32                          0.0110051               0.2995 (LUMO)
        33                          0.0396045               1.0777
        34                          0.0572528               1.5579
        35                          0.0903596               2.4588
        36                          0.0934431               2.5427
       ...                                ...                  ...
        58                          0.3242072               8.8221
      -------------------------------------------------------------
                  HL-Gap            0.3941130 Eh           10.7244 eV
             Fermi-level           -0.1860515 Eh           -5.0627 eV

 SCC (total)                   0 d,  0 h,  0 min,  0.131 sec
 SCC setup                      ...        0 min,  0.005 sec (  3.993%)
 Dispersion                     ...        0 min,  0.010 sec (  7.336%)
 classical contributions        ...        0 min,  0.005 sec (  3.908%)
 integral evaluation            ...        0 min,  0.017 sec ( 12.592%)
 iterations                     ...        0 min,  0.049 sec ( 37.460%)
 molecular gradient             ...        0 min,  0.045 sec ( 34.586%)
 printout                       ...        0 min,  0.000 sec (  0.104%)

         :::::::::::::::::::::::::::::::::::::::::::::::::::::
         ::                     SUMMARY                     ::
         :::::::::::::::::::::::::::::::::::::::::::::::::::::
         :: total energy             -34.447135243928 Eh    ::
         :: gradient norm              0.000102211482 Eh/a0 ::
         :: HOMO-LUMO gap             10.724361157894 eV    ::
         ::.................................................::
         :: SCC energy               -34.854811918587 Eh    ::
         :: -> isotropic ES            0.055012184329 Eh    ::
         :: -> anisotropic ES          0.005465091720 Eh    ::
         :: -> anisotropic XC          0.009836673585 Eh    ::
         :: -> dispersion             -0.021534767218 Eh    ::
         :: repulsion energy           0.407676674659 Eh    ::
         :: add. restraining           0.000000000000 Eh    ::
         :: total charge               0.000000000000 e     ::
         :::::::::::::::::::::::::::::::::::::::::::::::::::::

           -------------------------------------------------
          |                Property Printout                |
           -------------------------------------------------

    * Orbital Energies and Occupations

         #    Occupation            Energy/Eh            Energy/eV
      -------------------------------------------------------------
         1        2.0000           -0.6959605             -18.9380
       ...           ...                  ...                  ...
        19        2.0000           -0.4758095             -12.9474
        20        2.0000           -0.4692303             -12.7684
        21        2.0000           -0.4653743             -12.6635
        22        2.0000           -0.4600145             -12.5176
        23        2.0000           -0.4571951             -12.4409
        24        2.0000           -0.4481455             -12.1947
        25        2.0000           -0.4404849             -11.9862
        26        2.0000           -0.4386264             -11.9356
        27        2.0000           -0.4315145             -11.7421
        28        2.0000           -0.4202475             -11.4355
        29        2.0000           -0.4132151             -11.2442
        30        2.0000           -0.4034053             -10.9772
        31        2.0000           -0.3831080             -10.4249 (HOMO)
        32                          0.0110051               0.2995 (LUMO)
        33                          0.0396045               1.0777
        34                          0.0572528               1.5579
        35                          0.0903596               2.4588
        36                          0.0934431               2.5427
        37                          0.1069598               2.9105
        38                          0.1196658               3.2563
        39                          0.1224623               3.3324
        40                          0.1366930               3.7196
        41                          0.1520185               4.1366
        42                          0.1600709               4.3558
       ...                                ...                  ...
        58                          0.3242072               8.8221
      -------------------------------------------------------------
                  HL-Gap            0.3941130 Eh           10.7244 eV
             Fermi-level           -0.1860515 Eh           -5.0627 eV

     #   Z          covCN         q      C6AA      α(0)
     1   6 C        3.751    -0.103    22.521     6.768
     2   6 C        3.804    -0.063    21.706     6.633
     3   6 C        3.772     0.145    18.281     6.093
     4   6 C        3.755    -0.121    22.879     6.820
     5   8 O        1.656    -0.462    22.098     6.346
     6   6 C        3.848    -0.041    21.274     6.561
     7   6 C        3.755    -0.112    22.703     6.794
     8   6 C        3.724     0.118    18.757     6.185
     9   6 C        3.752    -0.118    22.829     6.814
    10   8 O        1.654    -0.456    21.969     6.327
    11   1 H        0.925     0.054     2.266     2.354
    12   1 H        0.925     0.031     2.579     2.511
    13   1 H        0.925     0.029     2.599     2.521
    14   1 H        0.924     0.047     2.353     2.399
    15   1 H        0.925     0.029     2.607     2.525
    16   1 H        0.925     0.046     2.366     2.406
    17   1 H        0.925     0.030     2.587     2.515
    18   1 H        0.925     0.042     2.420     2.433
    19   1 H        0.805     0.310     0.691     1.305
    20   1 H        0.924     0.051     2.305     2.374
    21   1 H        0.925     0.035     2.514     2.480
    22   1 H        0.925     0.034     2.525     2.485
    23   1 H        0.925     0.049     2.334     2.389
    24   1 H        0.923     0.016     2.796     2.615
    25   1 H        0.925     0.032     2.557     2.501
    26   1 H        0.925     0.048     2.344     2.394
    27   1 H        0.925     0.042     2.417     2.431
    28   1 H        0.805     0.288     0.759     1.368

 Mol. C6AA /au·bohr⁶  :       5333.190179
 Mol. C8AA /au·bohr⁸  :     111294.403248
 Mol. α(0) /au        :        107.346233


Wiberg/Mayer (AO) data.
largest (>0.10) Wiberg bond orders for each atom

 ---------------------------------------------------------------------------
     #   Z sym  total        # sym  WBO       # sym  WBO       # sym  WBO
 ---------------------------------------------------------------------------
     1   6 C    3.996 --     2 C    1.020    12 H    0.987    11 H    0.985
                            13 H    0.985
     2   6 C    3.996 --     1 C    1.020     3 C    0.979    15 H    0.976
                            14 H    0.975
     3   6 C    3.957 --     5 O    0.990     4 C    0.988     2 C    0.979
                             6 C    0.959
     4   6 C    3.996 --     3 C    0.988    18 H    0.985    17 H    0.984
                            16 H    0.982
     5   8 O    1.955 --     3 C    0.990    19 H    0.865
     6   6 C    3.990 --     7 C    1.010     8 C    0.978    20 H    0.964
                             3 C    0.959
     7   6 C    3.996 --     6 C    1.010    21 H    0.984    22 H    0.981
                            23 H    0.981
     8   6 C    3.948 --     9 C    1.004     6 C    0.978    10 O    0.973
                            24 H    0.961
     9   6 C    3.995 --     8 C    1.004    26 H    0.985    25 H    0.984
                            27 H    0.980
    10   8 O    1.966 --     8 C    0.973    28 H    0.894
    11   1 H    0.997 --     1 C    0.985
    12   1 H    0.999 --     1 C    0.987
    13   1 H    0.999 --     1 C    0.985
    14   1 H    0.997 --     2 C    0.975
    15   1 H    0.999 --     2 C    0.976
    16   1 H    0.998 --     4 C    0.982
    17   1 H    0.999 --     4 C    0.984
    18   1 H    0.998 --     4 C    0.985
    19   1 H    0.904 --     5 O    0.865
    20   1 H    0.997 --     6 C    0.964
    21   1 H    0.999 --     7 C    0.984
    22   1 H    0.999 --     7 C    0.981
    23   1 H    0.997 --     7 C    0.981
    24   1 H    1.000 --     8 C    0.961
    25   1 H    0.999 --     9 C    0.984
    26   1 H    0.998 --     9 C    0.985
    27   1 H    0.998 --     9 C    0.980
    28   1 H    0.917 --    10 O    0.894
 ---------------------------------------------------------------------------

Topologies differ in total number of bonds
Writing topology from bond orders to xtbtopo.mol

molecular dipole:
                 x           y           z       tot (Debye)
 q only:       -0.858      -0.192      -0.362
   full:       -1.370      -0.254      -0.381       3.671
molecular quadrupole (traceless):
                xx          xy          yy          xz          yz          zz
 q only:        2.184      -3.911      -0.897      -3.524      -0.426      -1.287
  q+dip:        3.897      -5.625      -1.326      -5.310      -1.220      -2.571
   full:        3.743      -5.742      -1.471      -5.400      -0.665      -2.272

           -------------------------------------------------
          |                Geometry Summary                 |
           -------------------------------------------------

      molecular mass/u    :      146.2276305
   center of mass at/Å    :        0.0174087       0.1493294       0.3054598
  moments of inertia/u·Å² :        0.2806416E+03   0.5260011E+03   0.6059879E+03
rotational constants/cm⁻¹ :        0.6006818E-01   0.3204867E-01   0.2781843E-01

 * 24 selected distances

     #   Z          #   Z                                           value/Å
     1   6 C        2   6 C                                       1.5244679
     3   6 C        4   6 C                                       1.5362818 (max)
     3   6 C        5   8 O                                       1.4146908
     6   6 C        7   6 C                                       1.5291815
     8   6 C        9   6 C                                       1.5294082
     8   6 C       10   8 O                                       1.4227085
     1   6 C       11   1 H                                       1.0862170
     1   6 C       12   1 H                                       1.0879075
     1   6 C       13   1 H                                       1.0871004
     2   6 C       14   1 H                                       1.0915392
     2   6 C       15   1 H                                       1.0897592
     4   6 C       16   1 H                                       1.0862659
     4   6 C       17   1 H                                       1.0861809
     4   6 C       18   1 H                                       1.0872803
     5   8 O       19   1 H                                       0.9662372
     6   6 C       20   1 H                                       1.0948202
     7   6 C       21   1 H                                       1.0872638
     7   6 C       22   1 H                                       1.0868037
     7   6 C       23   1 H                                       1.0844154
     8   6 C       24   1 H                                       1.1027364
     9   6 C       25   1 H                                       1.0900999
     9   6 C       26   1 H                                       1.0881722
     9   6 C       27   1 H                                       1.0848023
    10   8 O       28   1 H                                       0.9629503 (min)

 * 4 distinct bonds (by element types)

   Z      Z             #   av. dist./Å        max./Å        min./Å
   1 H    6 C          16     1.0888353     1.1027364     1.0844154
   6 C    6 C           4     1.5298348     1.5362818     1.5244679
   1 H    8 O           2     0.9645938     0.9662372     0.9629503
   6 C    8 O           2     1.4186996     1.4227085     1.4146908


optimized geometry written to: xtbopt.xyz


           -------------------------------------------------
          | TOTAL ENERGY              -34.447135243928 Eh   |
          | GRADIENT NORM               0.000102211482 Eh/α |
          | HOMO-LUMO GAP              10.724361157894 eV   |
           -------------------------------------------------

------------------------------------------------------------------------
 * finished run on 2026/07/07 at 22:17:28.850     
------------------------------------------------------------------------
 total:
 * wall-time:     0 d,  0 h,  0 min,  4.211 sec
 *  cpu-time:     0 d,  0 h,  1 min,  7.083 sec
 * ratio c/w:    15.931 speedup
 SCF:
 * wall-time:     0 d,  0 h,  0 min,  0.244 sec
 *  cpu-time:     0 d,  0 h,  0 min,  3.914 sec
 * ratio c/w:    16.030 speedup
 ANC optimizer:
 * wall-time:     0 d,  0 h,  0 min,  3.911 sec
 *  cpu-time:     0 d,  0 h,  1 min,  2.341 sec
 * ratio c/w:    15.941 speedup

