28
 energy: -34.447135243928 gnorm: 0.000102211482 xtb: 6.7.1 (edcfbbe)
C            2.64541481417716        0.47292931817739       -0.95839637471332
C            2.12523555400280       -0.56820576347476        0.02621185637441
C            0.81160922173221       -0.16609350821912        0.72630291699067
C            0.42113910575531       -1.28004363362560        1.70956758727325
O            1.12725293309608        1.01364686367767        1.44039772444766
C           -0.33500864939901        0.13244767410476       -0.28618420293421
C           -0.48904075087733       -0.96479585777761       -1.34009420638603
C           -1.70847471039686        0.36414374708621        0.38825308874717
C           -2.65811745571320        1.13446839390206       -0.53036953358412
O           -1.55395992421437        1.08522623908813        1.60491420705991
H            2.68282427980240        1.44219332730348       -0.46952530110882
H            3.64944499955710        0.20669237363076       -1.28179044312082
H            2.01396802471481        0.54974220284973       -1.83996423962215
H            2.86564960692439       -0.67943590439801        0.82048671365973
H            2.00852175972977       -1.53689064858459       -0.45917698226821
H           -0.42620067011294       -0.97040390998495        2.31463944492218
H            0.17257021323309       -2.19775050705626        1.18438540855880
H            1.25786872010585       -1.47627407076391        2.37556708633204
H            0.30590423392873        1.33145822408296        1.83788543865118
H           -0.05479387302327        1.06775205776713       -0.78147856641598
H           -0.71128470752264       -1.92087249001941       -0.87247529346607
H           -1.29943254879519       -0.72891739707260       -2.02476099688178
H            0.41567925078131       -1.07033018231483       -1.92856748198933
H           -2.15385300218667       -0.61796834082237        0.61873362915808
H           -3.62508733617615        1.26376533896384       -0.04398580232027
H           -2.24412215584529        2.11716148761979       -0.74725805737303
H           -2.82178826819708        0.60865772758062       -1.46499829505197
H           -2.42191866508256        1.38769723827777        1.89202393361603
