26
 energy: -36.668719282243 gnorm: 0.000239093632 xtb: 6.7.1 (edcfbbe)
C            4.01427878931191       -0.12569087995159        1.65385597963573
O            3.34209657675821       -0.87136293038867        0.67048145770548
C            2.15914501975884       -0.39112080411144        0.18536974725049
C            1.54654711959843        0.78640753964298        0.59369049164216
C            0.34275004965944        1.17078816615440        0.02431510340247
C           -0.27420308387823        0.40650052648538       -0.95294400713571
C           -1.59510385591503        0.81116445256982       -1.54167451408576
C           -2.74898845939662       -0.02098838719178       -0.96779161676628
C           -2.95098718632919        0.23736213364295        0.52157898068863
O           -3.35745506121382        1.57900797303120        0.70187614775391
C            0.34903279743916       -0.77149315402215       -1.35456916187385
C            1.54536624013954       -1.16783525690136       -0.79815663376494
H            3.41340738331648       -0.02332716127838        2.56382220620666
H            4.28983258080177        0.86892995254182        1.28757451640707
H            4.91894895960973       -0.68688889232484        1.88312429937626
H            1.99242794134914        1.41406633550923        1.34973462830395
H           -0.12210255332808        2.09021352123833        0.35077260394195
H           -1.79362051447823        1.86176083712642       -1.32904025822851
H           -1.57165164178420        0.67374016046460       -2.62498483170082
H           -3.67102827482007        0.23937632677606       -1.48927983559283
H           -2.55116191919164       -1.08433801481343       -1.11200728420560
H           -3.71969702437996       -0.44720314115123        0.91015122335324
H           -2.01185203960343        0.04416647917082        1.05931050165387
H           -3.46893417593336        1.74870564863936        1.64204792027662
H           -0.10960972507791       -1.38301993852493       -2.11840396666936
H            2.03256205758434       -2.07874903676064       -1.10885369757627
