29
REP_00140 MMFF geometry for GFN2-xTB preoptimization
C  -1.759529892774  2.183192363859  0.251316894219
C  -0.773249893022  1.153964918487  0.786209663111
N  -0.681502697415 -0.005448155399 -0.122750616099
C  -1.801143632130 -0.959203416679 -0.013723259265
C  -1.279806748875 -2.355137325525  0.294359325405
C   0.199361988827 -0.004618332138 -1.216567012616
C  -0.413662630920 -0.285809231365 -2.575433655731
C   1.523266526977  0.250725971863 -1.182077211182
C   2.388437981006  0.468977217524 -0.007856829762
O   3.353322667404  1.220349623192 -0.046325439837
O   2.032738259932 -0.314593261986  1.037530684692
C   2.870832888329 -0.173504850130  2.182205717063
H  -1.819941790855  3.038287876058  0.931762010093
H  -2.763839471429  1.759943427243  0.148845334415
H  -1.449630699069  2.551840884128 -0.732084515278
H   0.198316473078  1.639901691472  0.916880834948
H  -1.083585730814  0.821642739082  1.784055907330
H  -2.400640837384 -0.966162252984 -0.930548071365
H  -2.483853875541 -0.666395053859  0.793306801803
H  -0.637896763829 -2.731447507430 -0.508377629714
H  -0.694468293810 -2.357592933107  1.220045061687
H  -2.114084450626 -3.053108585513  0.415169599532
H   0.285193027009 -0.098481803235 -3.398120345219
H  -0.731006484693 -1.330877148820 -2.648147166837
H  -1.283374703393  0.359629165926 -2.740155005939
H   2.090837308536  0.305733478930 -2.105808573904
H   2.484646206380 -0.828531563829  2.968070716906
H   3.894967269539 -0.480433381281  1.947960327347
H   2.849297999561  0.857155445515  2.550256454195
