14
 energy: -20.724226672472 gnorm: 0.000151167293 xtb: 6.7.1 (edcfbbe)
C            2.02578366893936       -0.58009461593284        0.61569956430350
C            0.91025531611212       -0.53236987043005       -0.08681595566239
C           -0.10644768060111        0.56653590688344        0.02721934193388
O           -0.30514799369196        1.22110476056784       -1.22045235419775
C           -1.48163490941319       -0.00362752949908        0.42178538764834
O           -1.99218234543074       -0.85114813185549       -0.56776162354173
H            2.27803322046527        0.18499232303950        1.33273454527051
H            2.72948090736499       -1.38808352849832        0.51246187020917
H            0.66043999575275       -1.30283036760249       -0.80296736482096
H            0.20815404825055        1.29611958378184        0.78954163297316
H            0.54761824151865        1.51633623597943       -1.55439327218636
H           -2.16584832248001        0.83849040591963        0.60068898323693
H           -1.39153264519039       -0.59326748482222        1.33616476369228
H           -1.91697150159727       -0.37215768753017       -1.40390551885859
