25
REP_00205 MMFF geometry for GFN2-xTB preoptimization
C   3.412585981350 -0.002290503798  0.347365209596
C   2.122921067830 -0.024373844293 -0.465111817785
C   0.878890506256  0.078252712966  0.427044381126
O   0.803602001479 -1.095741414396  1.234923868401
C  -0.433900486175  0.274554101852 -0.379418191515
C  -0.746698054332 -0.939719704648 -1.266068919061
C  -1.597368035748  0.606520533533  0.588816617484
C  -2.905884037571  0.962564927575 -0.108258310065
O  -1.820976398069 -0.475931343263  1.495209126436
H   3.463618439825 -0.850432447658  1.037202656759
H   4.278789187738 -0.058240567860 -0.319600712298
H   3.492836151186  0.921150964748  0.929661669684
H   2.108916907866 -0.959959010919 -1.035232447172
H   2.141114674742  0.806351411760 -1.179529933679
H   1.008598906140  0.931555663766  1.104487677050
H  -0.036867867361 -1.031038776355  1.736345545587
H  -0.297009925743  1.142711456560 -1.038045974457
H   0.060624244209 -1.124883909315 -1.981054098574
H  -0.889842241419 -1.851367856673 -0.677680192510
H  -1.651648639606 -0.774675482850 -1.858474324229
H  -1.302509816899  1.467276248567  1.200874138153
H  -3.647273282099  1.284396588461  0.631635587424
H  -2.764533754046  1.772081664776 -0.830399113478
H  -3.343874231149  0.099953555903 -0.620125932254
H  -2.334111298400 -1.158714968441  1.025433489378
