      -----------------------------------------------------------      
     |                   =====================                   |     
     |                           x T B                           |     
     |                   =====================                   |     
     |                         S. Grimme                         |     
     |          Mulliken Center for Theoretical Chemistry        |     
     |                    University of Bonn                     |     
      -----------------------------------------------------------      

   * xtb version 6.7.1 (edcfbbe) compiled by 'conda@5dfe00f5fb80' on 2026-06-10

   xtb is free software: you can redistribute it and/or modify it under
   the terms of the GNU Lesser General Public License as published by
   the Free Software Foundation, either version 3 of the License, or
   (at your option) any later version.
   
   xtb is distributed in the hope that it will be useful,
   but WITHOUT ANY WARRANTY; without even the implied warranty of
   MERCHANTABILITY or FITNESS FOR A PARTICULAR PURPOSE.  See the
   GNU Lesser General Public License for more details.
   
   Cite this work as:
   * C. Bannwarth, E. Caldeweyher, S. Ehlert, A. Hansen, P. Pracht,
     J. Seibert, S. Spicher, S. Grimme, WIREs Comput. Mol. Sci., 2020, 11,
     e01493. DOI: 10.1002/wcms.1493
   
   for GFN2-xTB:
   * C. Bannwarth, S. Ehlert and S. Grimme., J. Chem. Theory Comput., 2019,
     15, 1652-1671. DOI: 10.1021/acs.jctc.8b01176
   for GFN1-xTB:
   * S. Grimme, C. Bannwarth, P. Shushkov, J. Chem. Theory Comput., 2017,
     13, 1989-2009. DOI: 10.1021/acs.jctc.7b00118
   for GFN0-xTB:
   * P. Pracht, E. Caldeweyher, S. Ehlert, S. Grimme, ChemRxiv, 2019, preprint.
     DOI: 10.26434/chemrxiv.8326202.v1
   for GFN-FF:
   * S. Spicher and S. Grimme, Angew. Chem. Int. Ed., 2020, 59, 15665-15673.
     DOI: 10.1002/anie.202004239
   
   for ALPB and GBSA implicit solvation:
   * S. Ehlert, M. Stahn, S. Spicher, S. Grimme, J. Chem. Theory Comput.,
     2021, 17, 4250-4261. DOI: 10.1021/acs.jctc.1c00471
   
   for ddCOSMO and CPCM-X implicit solvation:
   * M. Stahn, S. Ehlert, S. Grimme, J. Phys. Chem. A,
     2023, XX, XXXX-XXXX. DOI: 10.1021/acs.jpca.3c04382
   
   for DFT-D4:
   * E. Caldeweyher, C. Bannwarth and S. Grimme, J. Chem. Phys., 2017,
     147, 034112. DOI: 10.1063/1.4993215
   * E. Caldeweyher, S. Ehlert, A. Hansen, H. Neugebauer, S. Spicher,
     C. Bannwarth and S. Grimme, J. Chem. Phys., 2019, 150, 154122.
     DOI: 10.1063/1.5090222
   * E. Caldeweyher, J.-M. Mewes, S. Ehlert and S. Grimme, Phys. Chem. Chem. Phys.
     2020, 22, 8499-8512. DOI: 10.1039/D0CP00502A
   
   for sTDA-xTB:
   * S. Grimme and C. Bannwarth, J. Chem. Phys., 2016, 145, 054103.
     DOI: 10.1063/1.4959605
   
   in the mass-spec context:
   * V. Asgeirsson, C. Bauer and S. Grimme, Chem. Sci., 2017, 8, 4879.
     DOI: 10.1039/c7sc00601b
   * J. Koopman and S. Grimme, ACS Omega 2019, 4, 12, 15120-15133.
     DOI: 10.1021/acsomega.9b02011
   
   for metadynamics refer to:
   * S. Grimme, J. Chem. Theory Comput., 2019, 155, 2847-2862
     DOI: 10.1021/acs.jctc.9b00143
   
   for SPH calculations refer to:
   * S. Spicher and S. Grimme, J. Chem. Theory Comput., 2021, 17, 1701-1714
     DOI: 10.1021/acs.jctc.0c01306
   
   for ONIOM refer to:
   * C. Plett, A. Katbashev, S. Ehlert, S. Grimme, M. Bursch,
     Phys. Chem. Chem. Phys., 2023, 25, 17860-17868. DOI: 10.1039/D3CP02178E
   
   for DIPRO refer to:
   * J. Kohn, N. Gildemeister, S. Grimme, D. Fazzi, A. Hansen,
     J. Chem. Phys., 2023, just accepted.
   
   for PTB refer to:
   * S. Grimme, M. Mueller, A. Hansen, J. Chem. Phys., 2023, 158, 124111.
     DOI: 10.1063/5.0137838
   
   with help from (in alphabetical order)
   P. Atkinson, C. Bannwarth, F. Bohle, G. Brandenburg, E. Caldeweyher
   M. Checinski, S. Dohm, S. Ehlert, S. Ehrlich, I. Gerasimov, C. Hölzer
   A. Katbashev, J. Kohn, J. Koopman, C. Lavigne, S. Lehtola, F. März, M. Müller,
   F. Musil, H. Neugebauer, J. Pisarek, C. Plett, P. Pracht, F. Pultar,
   J. Seibert, P. Shushkov, S. Spicher, M. Stahn, M. Steiner, T. Strunk,
   J. Stückrath, T. Rose, and J. Unsleber
   
 * started run on 2026/07/07 at 06:41:39.679     
   ID    Z sym.   atoms
    1    6 C      1-3, 5, 7-13
    2    8 O      4, 6, 14
    3    1 H      15-26

           -------------------------------------------------
          |                Calculation Setup                |
           -------------------------------------------------

          program call               : /home/ws/xd2484/miniforge3/envs/p3z_dft/bin/xtb xtb_input.xyz --gfn 2 --opt tight --cycles 500 --chrg 0 --uhf 0
          hostname                   : gpu10
          coordinate file            : xtb_input.xyz
          omp threads                :                    16


           -------------------------------------------------
          |                 G F N 2 - x T B                 |
           -------------------------------------------------

        Reference                      10.1021/acs.jctc.8b01176
      * Hamiltonian:
        H0-scaling (s, p, d)           1.850000    2.230000    2.230000
        zeta-weighting                 0.500000
      * Dispersion:
        s8                             2.700000
        a1                             0.520000
        a2                             5.000000
        s9                             5.000000
      * Repulsion:
        kExp                           1.500000    1.000000
        rExp                           1.000000
      * Coulomb:
        alpha                          2.000000
        third order                    shell-resolved
        anisotropic                    true
        a3                             3.000000
        a5                             4.000000
        cn-shift                       1.200000
        cn-exp                         4.000000
        max-rad                        5.000000


          ...................................................
          :                      SETUP                      :
          :.................................................:
          :  # basis functions                  68          :
          :  # atomic orbitals                  68          :
          :  # shells                           40          :
          :  # electrons                        74          :
          :  max. iterations                   250          :
          :  Hamiltonian                  GFN2-xTB          :
          :  restarted?                      false          :
          :  GBSA solvation                  false          :
          :  PC potential                    false          :
          :  electronic temp.          300.0000000     K    :
          :  accuracy                    1.0000000          :
          :  -> integral cutoff          0.2500000E+02      :
          :  -> integral neglect         0.1000000E-07      :
          :  -> SCF convergence          0.1000000E-05 Eh   :
          :  -> wf. convergence          0.1000000E-03 e    :
          :  Broyden damping             0.4000000          :
          :  net charge                          0          :
          :  unpaired electrons                  0          :
          ...................................................

 iter      E             dE          RMSdq      gap      omega  full diag
   1    -42.3232052 -0.423232E+02  0.432E+00    4.56       0.0  T
   2    -42.3869835 -0.637783E-01  0.243E+00    4.10       1.0  T
   3    -42.3874997 -0.516211E-03  0.124E+00    4.39       1.0  T
   4    -42.3962406 -0.874090E-02  0.189E-01    3.98       1.0  T
   5    -42.3965196 -0.278980E-03  0.851E-02    4.01       1.0  T
   6    -42.3966093 -0.897012E-04  0.407E-02    4.03       1.0  T
   7    -42.3966167 -0.736959E-05  0.131E-02    4.04       1.5  T
   8    -42.3966176 -0.882459E-06  0.489E-03    4.04       4.0  T
   9    -42.3966177 -0.137968E-06  0.172E-03    4.04      11.4  T
  10    -42.3966177 -0.114883E-07  0.669E-04    4.04      29.3  T
  11    -42.3966177 -0.558421E-08  0.332E-04    4.04      59.0  T

   *** convergence criteria satisfied after 11 iterations ***

         #    Occupation            Energy/Eh            Energy/eV
      -------------------------------------------------------------
         1        2.0000           -0.7656968             -20.8357
       ...           ...                  ...                  ...
        31        2.0000           -0.4649573             -12.6521
        32        2.0000           -0.4454317             -12.1208
        33        2.0000           -0.4372933             -11.8994
        34        2.0000           -0.4270629             -11.6210
        35        2.0000           -0.4189120             -11.3992
        36        2.0000           -0.4109378             -11.1822
        37        2.0000           -0.4068696             -11.0715 (HOMO)
        38                         -0.2584988              -7.0341 (LUMO)
        39                         -0.2368944              -6.4462
        40                         -0.2344422              -6.3795
        41                         -0.1109458              -3.0190
        42                         -0.0301031              -0.8191
       ...                                ...                  ...
        68                          0.6180104              16.8169
      -------------------------------------------------------------
                  HL-Gap            0.1483708 Eh            4.0374 eV
             Fermi-level           -0.3326842 Eh           -9.0528 eV

 SCC (total)                   0 d,  0 h,  0 min,  0.220 sec
 SCC setup                      ...        0 min,  0.002 sec (  1.082%)
 Dispersion                     ...        0 min,  0.004 sec (  1.936%)
 classical contributions        ...        0 min,  0.002 sec (  1.032%)
 integral evaluation            ...        0 min,  0.020 sec (  9.096%)
 iterations                     ...        0 min,  0.149 sec ( 67.789%)
 molecular gradient             ...        0 min,  0.042 sec ( 18.955%)
 printout                       ...        0 min,  0.000 sec (  0.093%)

         :::::::::::::::::::::::::::::::::::::::::::::::::::::
         ::                     SUMMARY                     ::
         :::::::::::::::::::::::::::::::::::::::::::::::::::::
         :: total energy             -41.885235806275 Eh    ::
         :: gradient norm              0.090506709088 Eh/a0 ::
         :: HOMO-LUMO gap              4.037374747068 eV    ::
         ::.................................................::
         :: SCC energy               -42.396450175973 Eh    ::
         :: -> isotropic ES            0.065110306733 Eh    ::
         :: -> anisotropic ES          0.003003399267 Eh    ::
         :: -> anisotropic XC          0.012396904149 Eh    ::
         :: -> dispersion             -0.023884659628 Eh    ::
         :: repulsion energy           0.511214369698 Eh    ::
         :: add. restraining           0.000000000000 Eh    ::
         :: total charge               0.000000000000 e     ::
         :::::::::::::::::::::::::::::::::::::::::::::::::::::

      ----------------------------------------------------------- 
     |                   =====================                   |
     |                        A N C O P T                        |
     |                   =====================                   |
     |               Approximate Normal Coordinate               |
     |                Rational Function Optimizer                |
      ----------------------------------------------------------- 
      ----------------------------------------------------------- 
     |                   =====================                   |
     |                        A N C O P T                        |
     |                   =====================                   |
     |               Approximate Normal Coordinate               |
     |                Rational Function Optimizer                |
      ----------------------------------------------------------- 

          ...................................................
          :                      SETUP                      :
          :.................................................:
          :   optimization level             tight          :
          :   max. optcycles                   500          :
          :   ANC micro-cycles                  20          :
          :   degrees of freedom                72          :
          :.................................................:
          :   RF solver                   davidson          :
          :   write xtbopt.log                true          :
          :   linear?                        false          :
          :   energy convergence         0.1000000E-05 Eh   :
          :   grad. convergence          0.8000000E-03 Eh/α :
          :   maxmium RF displ.          1.0000000          :
          :   Hlow (freq-cutoff)         0.1000000E-01      :
          :   Hmax (freq-cutoff)         5.0000000          :
          :   S6 in model hess.         20.0000000          :
          ...................................................

generating ANC from exact Hessian ...
Using Lindh-Hessian (1995)
 Shifting diagonal of input Hessian by    8.9529460103516274E-003
 Lowest  eigenvalues of input Hessian
    0.000000    0.000000    0.000000    0.000000    0.000000    0.000000
    0.010000    0.010454    0.011351    0.014692    0.018911    0.019325
    0.019702    0.019866    0.022918    0.023946    0.029337    0.031770
 Highest eigenvalues
    1.565532    1.666732    1.822980    1.927534    1.941099    2.267409


........................................................................
.............................. CYCLE    1 ..............................
........................................................................

 iter      E             dE          RMSdq      gap      omega  full diag
   1    -42.3966177 -0.423966E+02  0.130E-04    4.04       0.0  T
   2    -42.3966177 -0.113452E-09  0.878E-05    4.04     223.5  T
   3    -42.3966177 -0.839933E-10  0.557E-05    4.04     352.0  T
     SCC iter.                  ...        0 min,  0.025 sec
     gradient                   ...        0 min,  0.025 sec
 * total energy  :   -41.8852358 Eh     change       -0.7140528E-09 Eh
   gradient norm :     0.0905103 Eh/α   predicted     0.0000000E+00 (-100.00%)
   displ. norm   :     0.1955710 α      lambda       -0.9458276E-02
   maximum displ.:     0.0741280 α      in ANC's #10, #12, #45, ...

........................................................................
.............................. CYCLE    2 ..............................
........................................................................

 iter      E             dE          RMSdq      gap      omega  full diag
   1    -42.4313283 -0.424313E+02  0.186E-01    4.36       0.0  T
   2    -42.4314201 -0.917490E-04  0.112E-01    4.30       1.0  T
   3    -42.4314147  0.537627E-05  0.468E-02    4.32       1.0  T
   4    -42.4314297 -0.150292E-04  0.810E-03    4.30       2.4  T
   5    -42.4314307 -0.100472E-05  0.373E-03    4.30       5.3  T
   6    -42.4314309 -0.168930E-06  0.197E-03    4.30      10.0  T
   7    -42.4314309 -0.142026E-07  0.488E-04    4.30      40.2  T
   8    -42.4314309 -0.166384E-08  0.214E-04    4.30      91.5  T
     SCC iter.                  ...        0 min,  0.138 sec
     gradient                   ...        0 min,  0.044 sec
 * total energy  :   -41.8912575 Eh     change       -0.6021714E-02 Eh
   gradient norm :     0.0284708 Eh/α   predicted    -0.4911335E-02 ( -18.44%)
   displ. norm   :     0.1516142 α      lambda       -0.1482230E-02
   maximum displ.:     0.0850020 α      in ANC's #10, #2, #13, ...

........................................................................
.............................. CYCLE    3 ..............................
........................................................................

 iter      E             dE          RMSdq      gap      omega  full diag
   1    -42.4426957 -0.424427E+02  0.992E-02    4.41       0.0  T
   2    -42.4427045 -0.875365E-05  0.590E-02    4.39       1.0  T
   3    -42.4427021  0.234215E-05  0.166E-02    4.39       1.2  T
   4    -42.4427060 -0.384262E-05  0.305E-03    4.38       6.4  T
   5    -42.4427060 -0.666260E-07  0.173E-03    4.39      11.3  T
   6    -42.4427061 -0.256433E-07  0.829E-04    4.39      23.6  T
   7    -42.4427061 -0.229012E-08  0.289E-04    4.39      67.9  T
     SCC iter.                  ...        0 min,  0.118 sec
     gradient                   ...        0 min,  0.046 sec
 * total energy  :   -41.8921093 Eh     change       -0.8517547E-03 Eh
   gradient norm :     0.0087048 Eh/α   predicted    -0.7589742E-03 ( -10.89%)
   displ. norm   :     0.0977323 α      lambda       -0.1999667E-03
   maximum displ.:     0.0607857 α      in ANC's #2, #10, #3, ...

........................................................................
.............................. CYCLE    4 ..............................
........................................................................

 iter      E             dE          RMSdq      gap      omega  full diag
   1    -42.4426533 -0.424427E+02  0.450E-02    4.38       0.0  T
   2    -42.4426554 -0.214463E-05  0.265E-02    4.38       1.0  T
   3    -42.4426550  0.416179E-06  0.641E-03    4.38       3.1  T
   4    -42.4426555 -0.511240E-06  0.205E-03    4.38       9.6  T
   5    -42.4426556 -0.121736E-06  0.660E-04    4.38      29.7  T
   6    -42.4426556 -0.303726E-08  0.355E-04    4.38      55.2  T
     SCC iter.                  ...        0 min,  0.107 sec
     gradient                   ...        0 min,  0.053 sec
 * total energy  :   -41.8922531 Eh     change       -0.1438490E-03 Eh
   gradient norm :     0.0039867 Eh/α   predicted    -0.1009396E-03 ( -29.83%)
   displ. norm   :     0.1321391 α      lambda       -0.1304279E-03
   maximum displ.:     0.0966954 α      in ANC's #2, #1, #3, ...

........................................................................
.............................. CYCLE    5 ..............................
........................................................................

 iter      E             dE          RMSdq      gap      omega  full diag
   1    -42.4414851 -0.424415E+02  0.484E-02    4.37       0.0  T
   2    -42.4414873 -0.218912E-05  0.286E-02    4.37       1.0  T
   3    -42.4414867  0.515711E-06  0.657E-03    4.37       3.0  T
   4    -42.4414873 -0.601537E-06  0.220E-03    4.36       8.9  T
   5    -42.4414875 -0.138113E-06  0.693E-04    4.36      28.3  T
   6    -42.4414875 -0.253412E-08  0.361E-04    4.36      54.3  T
     SCC iter.                  ...        0 min,  0.076 sec
     gradient                   ...        0 min,  0.039 sec
 * total energy  :   -41.8923435 Eh     change       -0.9035258E-04 Eh
   gradient norm :     0.0027238 Eh/α   predicted    -0.6640570E-04 ( -26.50%)
   displ. norm   :     0.1156412 α      lambda       -0.6946571E-04
   maximum displ.:     0.0879562 α      in ANC's #2, #1, #3, ...

........................................................................
.............................. CYCLE    6 ..............................
........................................................................

 iter      E             dE          RMSdq      gap      omega  full diag
   1    -42.4409158 -0.424409E+02  0.350E-02    4.36       0.0  T
   2    -42.4409162 -0.405449E-06  0.209E-02    4.36       1.0  T
   3    -42.4409158  0.326021E-06  0.390E-03    4.36       5.0  T
   4    -42.4409162 -0.408312E-06  0.105E-03    4.36      18.7  T
   5    -42.4409163 -0.179677E-07  0.495E-04    4.36      39.6  T
   6    -42.4409163 -0.868745E-09  0.230E-04    4.36      85.2  T
     SCC iter.                  ...        0 min,  0.126 sec
     gradient                   ...        0 min,  0.041 sec
 * total energy  :   -41.8924023 Eh     change       -0.5878584E-04 Eh
   gradient norm :     0.0034301 Eh/α   predicted    -0.3520861E-04 ( -40.11%)
   displ. norm   :     0.1431702 α      lambda       -0.8408020E-04
   maximum displ.:     0.1049325 α      in ANC's #2, #1, #3, ...

........................................................................
.............................. CYCLE    7 ..............................
........................................................................

 iter      E             dE          RMSdq      gap      omega  full diag
   1    -42.4407177 -0.424407E+02  0.417E-02    4.36       0.0  T
   2    -42.4407179 -0.185124E-06  0.248E-02    4.36       1.0  T
   3    -42.4407178  0.106867E-06  0.273E-03    4.36       7.2  T
   4    -42.4407180 -0.189544E-06  0.933E-04    4.36      21.0  T
   5    -42.4407180 -0.182975E-08  0.513E-04    4.36      38.2  T
     SCC iter.                  ...        0 min,  0.062 sec
     gradient                   ...        0 min,  0.036 sec
 * total energy  :   -41.8924746 Eh     change       -0.7231912E-04 Eh
   gradient norm :     0.0030528 Eh/α   predicted    -0.4290218E-04 ( -40.68%)
   displ. norm   :     0.1790537 α      lambda       -0.9041361E-04
   maximum displ.:     0.1302486 α      in ANC's #2, #1, #4, ...

........................................................................
.............................. CYCLE    8 ..............................
........................................................................

 iter      E             dE          RMSdq      gap      omega  full diag
   1    -42.4409770 -0.424410E+02  0.526E-02    4.37       0.0  T
   2    -42.4409773 -0.329400E-06  0.312E-02    4.37       1.0  T
   3    -42.4409773  0.634757E-07  0.285E-03    4.37       6.9  T
   4    -42.4409774 -0.168746E-06  0.113E-03    4.37      17.3  T
   5    -42.4409774 -0.834454E-08  0.615E-04    4.37      31.9  T
   6    -42.4409774 -0.147237E-08  0.198E-04    4.37      99.2  T
     SCC iter.                  ...        0 min,  0.085 sec
     gradient                   ...        0 min,  0.037 sec
 * total energy  :   -41.8925478 Eh     change       -0.7321402E-04 Eh
   gradient norm :     0.0022295 Eh/α   predicted    -0.4665716E-04 ( -36.27%)
   displ. norm   :     0.1640439 α      lambda       -0.6158238E-04
   maximum displ.:     0.1205771 α      in ANC's #2, #1, #8, ...

........................................................................
.............................. CYCLE    9 ..............................
........................................................................

 iter      E             dE          RMSdq      gap      omega  full diag
   1    -42.4413963 -0.424414E+02  0.485E-02    4.37       0.0  T
   2    -42.4413966 -0.297000E-06  0.287E-02    4.37       1.0  T
   3    -42.4413965  0.766489E-07  0.259E-03    4.37       7.6  T
   4    -42.4413967 -0.150312E-06  0.109E-03    4.37      18.1  T
   5    -42.4413967 -0.149763E-07  0.542E-04    4.37      36.2  T
   6    -42.4413967 -0.438270E-09  0.153E-04    4.37     127.8  T
     SCC iter.                  ...        0 min,  0.086 sec
     gradient                   ...        0 min,  0.045 sec
 * total energy  :   -41.8925968 Eh     change       -0.4898020E-04 Eh
   gradient norm :     0.0016390 Eh/α   predicted    -0.3162467E-04 ( -35.43%)
   displ. norm   :     0.1892943 α      lambda       -0.3702513E-04
   maximum displ.:     0.1407252 α      in ANC's #2, #1, #8, ...

........................................................................
.............................. CYCLE   10 ..............................
........................................................................

 iter      E             dE          RMSdq      gap      omega  full diag
   1    -42.4419853 -0.424420E+02  0.582E-02    4.37       0.0  T
   2    -42.4419857 -0.383538E-06  0.343E-02    4.37       1.0  T
   3    -42.4419856  0.119344E-06  0.292E-03    4.37       6.7  T
   4    -42.4419858 -0.208521E-06  0.121E-03    4.37      16.2  T
   5    -42.4419858 -0.206645E-07  0.590E-04    4.37      33.3  T
   6    -42.4419858 -0.420840E-09  0.134E-04    4.37     146.8  T
     SCC iter.                  ...        0 min,  0.103 sec
     gradient                   ...        0 min,  0.046 sec
 * total energy  :   -41.8926363 Eh     change       -0.3947933E-04 Eh
   gradient norm :     0.0011805 Eh/α   predicted    -0.1880884E-04 ( -52.36%)
   displ. norm   :     0.1000984 α      lambda       -0.1448529E-04
   maximum displ.:     0.0734806 α      in ANC's #2, #1, #3, ...

........................................................................
.............................. CYCLE   11 ..............................
........................................................................

 iter      E             dE          RMSdq      gap      omega  full diag
   1    -42.4420684 -0.424421E+02  0.338E-02    4.37       0.0  T
   2    -42.4420685 -0.785579E-07  0.199E-02    4.37       1.0  T
   3    -42.4420684  0.599226E-07  0.179E-03    4.37      11.0  T
   4    -42.4420685 -0.915105E-07  0.547E-04    4.37      35.8  T
   5    -42.4420685 -0.177296E-08  0.269E-04    4.37      72.8  T
     SCC iter.                  ...        0 min,  0.070 sec
     gradient                   ...        0 min,  0.043 sec
 * total energy  :   -41.8926528 Eh     change       -0.1657668E-04 Eh
   gradient norm :     0.0007075 Eh/α   predicted    -0.7275454E-05 ( -56.11%)
   displ. norm   :     0.0885698 α      lambda       -0.1024634E-04
   maximum displ.:     0.0612767 α      in ANC's #2, #1, #3, ...

........................................................................
.............................. CYCLE   12 ..............................
........................................................................

 iter      E             dE          RMSdq      gap      omega  full diag
   1    -42.4421367 -0.424421E+02  0.307E-02    4.37       0.0  T
   2    -42.4421368 -0.709668E-07  0.181E-02    4.36       1.1  T
   3    -42.4421368  0.431592E-07  0.161E-03    4.36      12.2  T
   4    -42.4421368 -0.692902E-07  0.496E-04    4.36      39.5  T
   5    -42.4421368 -0.139513E-08  0.225E-04    4.36      87.2  T
     SCC iter.                  ...        0 min,  0.079 sec
     gradient                   ...        0 min,  0.046 sec
 * total energy  :   -41.8926633 Eh     change       -0.1043654E-04 Eh
   gradient norm :     0.0007035 Eh/α   predicted    -0.5141569E-05 ( -50.73%)
   displ. norm   :     0.0692491 α      lambda       -0.6101616E-05
   maximum displ.:     0.0453074 α      in ANC's #2, #1, #3, ...

........................................................................
.............................. CYCLE   13 ..............................
........................................................................

 iter      E             dE          RMSdq      gap      omega  full diag
   1    -42.4420318 -0.424420E+02  0.245E-02    4.36       0.0  T
   2    -42.4420318 -0.421627E-07  0.144E-02    4.36       1.4  T
   3    -42.4420318  0.588064E-07  0.160E-03    4.36      12.3  T
   4    -42.4420319 -0.782315E-07  0.364E-04    4.36      53.8  T
   5    -42.4420319 -0.628319E-09  0.197E-04    4.36      99.7  T
     SCC iter.                  ...        0 min,  0.075 sec
     gradient                   ...        0 min,  0.035 sec
 * total energy  :   -41.8926689 Eh     change       -0.5621457E-05 Eh
   gradient norm :     0.0007485 Eh/α   predicted    -0.3060372E-05 ( -45.56%)
   displ. norm   :     0.0452987 α      lambda       -0.3476279E-05
   maximum displ.:     0.0253602 α      in ANC's #2, #3, #5, ...

........................................................................
.............................. CYCLE   14 ..............................
........................................................................

 iter      E             dE          RMSdq      gap      omega  full diag
   1    -42.4421137 -0.424421E+02  0.136E-02    4.36       0.0  T
   2    -42.4421137 -0.203569E-07  0.805E-03    4.36       2.4  T
   3    -42.4421137  0.459120E-08  0.688E-04    4.36      28.5  T
   4    -42.4421137 -0.110392E-07  0.275E-04    4.36      71.4  T
     SCC iter.                  ...        0 min,  0.092 sec
     gradient                   ...        0 min,  0.047 sec
 * total energy  :   -41.8926728 Eh     change       -0.3919836E-05 Eh
   gradient norm :     0.0005376 Eh/α   predicted    -0.1739945E-05 ( -55.61%)
   displ. norm   :     0.0514013 α      lambda       -0.3730504E-05
   maximum displ.:     0.0306576 α      in ANC's #3, #5, #8, ...

........................................................................
.............................. CYCLE   15 ..............................
........................................................................

 iter      E             dE          RMSdq      gap      omega  full diag
   1    -42.4421499 -0.424421E+02  0.158E-02    4.36       0.0  T
   2    -42.4421499 -0.237533E-07  0.936E-03    4.36       2.1  T
   3    -42.4421499  0.164147E-08  0.701E-04    4.36      28.0  T
   4    -42.4421499 -0.961599E-08  0.331E-04    4.36      59.3  T
     SCC iter.                  ...        0 min,  0.057 sec
     gradient                   ...        0 min,  0.042 sec
 * total energy  :   -41.8926767 Eh     change       -0.3852775E-05 Eh
   gradient norm :     0.0003290 Eh/α   predicted    -0.1870565E-05 ( -51.45%)
   displ. norm   :     0.0336886 α      lambda       -0.1716454E-05
   maximum displ.:     0.0179403 α      in ANC's #3, #8, #1, ...

........................................................................
.............................. CYCLE   16 ..............................
........................................................................

 iter      E             dE          RMSdq      gap      omega  full diag
   1    -42.4421405 -0.424421E+02  0.132E-02    4.36       0.0  T
   2    -42.4421405 -0.999316E-08  0.780E-03    4.36       2.5  T
   3    -42.4421405 -0.537987E-09  0.479E-04    4.36      41.0  T
   4    -42.4421405 -0.313694E-08  0.215E-04    4.36      91.1  T
     SCC iter.                  ...        0 min,  0.068 sec
     gradient                   ...        0 min,  0.040 sec
 * total energy  :   -41.8926782 Eh     change       -0.1577073E-05 Eh
   gradient norm :     0.0002790 Eh/α   predicted    -0.8600922E-06 ( -45.46%)
   displ. norm   :     0.0164371 α      lambda       -0.6111187E-06
   maximum displ.:     0.0102075 α      in ANC's #1, #8, #3, ...

........................................................................
.............................. CYCLE   17 ..............................
........................................................................

 iter      E             dE          RMSdq      gap      omega  full diag
   1    -42.4421081 -0.424421E+02  0.801E-03    4.36       0.0  T
   2    -42.4421081 -0.305135E-08  0.472E-03    4.36       4.2  T
   3    -42.4421081  0.102833E-08  0.317E-04    4.36      62.0  T
   4    -42.4421081 -0.200196E-08  0.996E-05    4.36     196.9  T
     SCC iter.                  ...        0 min,  0.051 sec
     gradient                   ...        0 min,  0.034 sec
 * total energy  :   -41.8926787 Eh     change       -0.4769313E-06 Eh
   gradient norm :     0.0002502 Eh/α   predicted    -0.3090185E-06 ( -35.21%)
   displ. norm   :     0.0072369 α      lambda       -0.2701318E-06
   maximum displ.:     0.0057268 α      in ANC's #1, #4, #5, ...

   *** GEOMETRY OPTIMIZATION CONVERGED AFTER 17 ITERATIONS ***

------------------------------------------------------------------------
 total energy gain   :        -0.0074429 Eh       -4.6705 kcal/mol
 total RMSD          :         0.2656055 a0        0.1406 Å
 total power (kW/mol):        -1.1494918 (step)   -7.1062 (real)
------------------------------------------------------------------------

 ANCopt (total)                0 d,  0 h,  0 min,  2.750 sec
 optimizer setup                ...        0 min,  0.001 sec (  0.024%)
 model hessian                  ...        0 min,  0.012 sec (  0.429%)
 ANC generation                 ...        0 min,  0.001 sec (  0.040%)
 coordinate transformation      ...        0 min,  0.001 sec (  0.035%)
 single point calculation       ...        0 min,  2.660 sec ( 96.733%)
 optimization log               ...        0 min,  0.002 sec (  0.081%)
 hessian update                 ...        0 min,  0.069 sec (  2.503%)
 rational function              ...        0 min,  0.002 sec (  0.057%)

================
 final structure:
================
26
 xtb: 6.7.1 (edcfbbe)
C            3.26013565040545        1.38143262960073       -0.21763944710624
C            1.99778774003113        0.52588704728890       -0.19523612474335
C            2.01342066722401       -0.48682466572138        0.95288621813069
O            1.88999075788378       -0.18968862257152       -1.42712351549291
C            0.67221510688977       -0.04636475412416       -1.94650713470861
O            0.30070534580876       -0.56497644483250       -2.95527087243701
C           -0.11760783001734        0.88147379390197       -1.01812933856308
C           -1.25184548217629        0.13466985842546       -0.34094502055934
C           -2.14175528258756       -0.61040773270792       -1.10395022955768
C           -3.17614832992783       -1.29067801419596       -0.48638417431021
C           -3.33221688654080       -1.22674071390816        0.88864458318463
C           -2.45140123403119       -0.47567081181522        1.64712837819412
C           -1.41305412144287        0.20487165683052        1.03506258585848
O            0.86647876085466        1.37143956720418       -0.13483407779331
H            3.31029419209703        1.96511425735320        0.69594916433166
H            3.22756634162180        2.05617900782134       -1.06887049268667
H            4.13402442408772        0.74313324878505       -0.29832890546000
H            2.87458092304705       -1.13982510461124        0.84785309517858
H            2.06834008577379        0.04182367898204        1.89969669653904
H            1.10656612523386       -1.08743375612466        0.93023216820922
H           -0.52340652403679        1.72568861377888       -1.59076325514958
H           -2.01301161415337       -0.66544267627613       -2.17382865750725
H           -3.86262021597979       -1.87334183716411       -1.08213797310946
H           -4.14083661305996       -1.75897550886812        1.36706935839551
H           -2.57194215152635       -0.41549193401782        2.71867052445222
H           -0.72625983547554        0.80014921696773        1.61764976119196

 Bond Distances (Angstroems)
 ---------------------------
C1-C2=1.5251         C1-H15=1.0853        C1-H16=1.0867        C1-H17=1.0852        C2-C1=1.5251         C2-C3=1.5310         
C2-O4=1.4287         C2-O14=1.4137        C3-C2=1.5310         C3-H18=1.0858        C3-H19=1.0858        C3-H20=1.0879        
O4-C2=1.4287         O4-C5=1.3316         C5-O4=1.3316         C5-O6=1.1936         C5-C7=1.5319         O6-C5=1.1936         
C7-C5=1.5319         C7-C8=1.5175         C7-O14=1.4102        C7-H21=1.0979        C8-C7=1.5175         C8-C9=1.3890         
C8-C13=1.3872        C9-C8=1.3890         C9-C10=1.3835        C9-H22=1.0790        C10-C9=1.3835        C10-C11=1.3853       
C10-H23=1.0797       C11-C10=1.3853       C11-C12=1.3839       C11-H24=1.0798       C12-C11=1.3839       C12-C13=1.3842       
C12-H25=1.0800       C13-C8=1.3872        C13-C12=1.3842       C13-H26=1.0796       O14-C2=1.4137        O14-C7=1.4102        
H15-C1=1.0853        H16-C1=1.0867        H17-C1=1.0852        H18-C3=1.0858        H19-C3=1.0858        H20-C3=1.0879        
H21-C7=1.0979        H22-C9=1.0790        H23-C10=1.0797       H24-C11=1.0798       H25-C12=1.0800       H26-C13=1.0796       
 C  H  Rav=1.0844 sigma=0.0052  Rmin=1.0790  Rmax=1.0979    12
 C  C  Rav=1.4419 sigma=0.0691  Rmin=1.3835  Rmax=1.5319    10
 O  C  Rav=1.3556 sigma=0.0878  Rmin=1.1936  Rmax=1.4287     5

 selected bond angles (degree)
 --------------------
H15-C1-C2=109.12               H16-C1-C2=109.57               H16-C1-H15=109.08              H17-C1-C2=109.74               
H17-C1-H15=109.98              H17-C1-H16=109.34              C3-C2-C1=111.94                O4-C2-C1=109.31                
O4-C2-C3=108.43                O14-C2-C1=109.12               O14-C2-C3=111.82               O14-C2-O4=106.02               
H18-C3-C2=109.47               H19-C3-C2=109.41               H19-C3-H18=109.70              H20-C3-C2=109.94               
H20-C3-H18=109.09              H20-C3-H19=109.21              C5-O4-C2=110.57                O6-C5-O4=124.58                
C7-C5-O4=107.48                C7-C5-O6=127.95                C8-C7-C5=110.96                O14-C7-C5=103.31               
O14-C7-C8=114.40               H21-C7-C5=109.89               H21-C7-C8=109.57               H21-C7-O14=108.51              
C9-C8-C7=119.85                C13-C8-C7=120.31               C13-C8-C9=119.84               C10-C9-C8=119.84               
H22-C9-C8=119.71               H22-C9-C10=120.45              C11-C10-C9=120.30              H23-C10-C9=119.63              
H23-C10-C11=120.06             

 selected dihedral angles (degree)
 ---------------------------------
C3-C2-C1-H15=297.04           C3-C2-C1-H16=177.67           C3-C2-C1-H17= 57.61           O4-C2-C1-H15=176.89           
O4-C2-C1-H16= 57.52           O4-C2-C1-H17=297.46           O14-C2-C1-H15= 61.36          O14-C2-C1-H16=301.99          
O14-C2-C1-H17=181.93          H18-C3-C2-C1=300.59           H18-C3-C2-O4= 61.26           H18-C3-C2-O14=177.80          
H19-C3-C2-C1= 60.83           H19-C3-C2-O4=181.50           H19-C3-C2-O14=298.04          H20-C3-C2-C1=180.77           
H20-C3-C2-O4=301.44           H20-C3-C2-O14= 57.98          C5-O4-C2-C1=229.43            C5-O4-C2-C3=107.15            
C5-O4-C2-O14=346.93           O6-C5-O4-C2=181.90            C7-C5-O4-C2=  1.84            C8-C7-C5-O4=246.93            
C8-C7-C5-O6= 66.87            O14-C7-C5-O4=  9.96           O14-C7-C5-O6=189.90           H21-C7-C5-O4=125.59           
H21-C7-C5-O6=305.53           C9-C8-C7-C5=308.62            C9-C8-C7-O14=192.23           C9-C8-C7-H21= 70.15           
C13-C8-C7-C5=129.35           C13-C8-C7-O14= 12.96          C13-C8-C7-H21=250.88          C10-C9-C8-C7=180.03           
C10-C9-C8-C13=359.30          H22-C9-C8-C7=  0.87           H22-C9-C8-C13=180.14          C11-C10-C9-C8=  0.32          
C11-C10-C9-H22=179.47         H23-C10-C9-C8=180.34          H23-C10-C9-H22=359.50         
           -------------------------------------------------
          |                Final Singlepoint                |
           -------------------------------------------------

          ...................................................
          :                      SETUP                      :
          :.................................................:
          :  # basis functions                  68          :
          :  # atomic orbitals                  68          :
          :  # shells                           40          :
          :  # electrons                        74          :
          :  max. iterations                   250          :
          :  Hamiltonian                  GFN2-xTB          :
          :  restarted?                      false          :
          :  GBSA solvation                  false          :
          :  PC potential                    false          :
          :  electronic temp.          300.0000000     K    :
          :  accuracy                    1.0000000          :
          :  -> integral cutoff          0.2500000E+02      :
          :  -> integral neglect         0.1000000E-07      :
          :  -> SCF convergence          0.1000000E-05 Eh   :
          :  -> wf. convergence          0.1000000E-03 e    :
          :  Broyden damping             0.4000000          :
          :  net charge                          0          :
          :  unpaired electrons                  0          :
          ...................................................

 iter      E             dE          RMSdq      gap      omega  full diag
   1    -42.4421081 -0.424421E+02  0.487E-05    4.36       0.0  T
   2    -42.4421081 -0.476774E-11  0.302E-05    4.36     650.3  T
   3    -42.4421081 -0.426326E-13  0.181E-05    4.36    1086.4  T

   *** convergence criteria satisfied after 3 iterations ***

         #    Occupation            Energy/Eh            Energy/eV
      -------------------------------------------------------------
         1        2.0000           -0.7662098             -20.8496
       ...           ...                  ...                  ...
        31        2.0000           -0.4661070             -12.6834
        32        2.0000           -0.4446323             -12.0991
        33        2.0000           -0.4374419             -11.9034
        34        2.0000           -0.4272293             -11.6255
        35        2.0000           -0.4153404             -11.3020
        36        2.0000           -0.4123137             -11.2196
        37        2.0000           -0.4052328             -11.0269 (HOMO)
        38                         -0.2450073              -6.6670 (LUMO)
        39                         -0.2315795              -6.3016
        40                         -0.2297212              -6.2510
        41                         -0.1024438              -2.7876
        42                         -0.0360487              -0.9809
       ...                                ...                  ...
        68                          0.6668324              18.1454
      -------------------------------------------------------------
                  HL-Gap            0.1602254 Eh            4.3600 eV
             Fermi-level           -0.3251200 Eh           -8.8470 eV

 SCC (total)                   0 d,  0 h,  0 min,  0.096 sec
 SCC setup                      ...        0 min,  0.004 sec (  3.946%)
 Dispersion                     ...        0 min,  0.007 sec (  7.399%)
 classical contributions        ...        0 min,  0.004 sec (  3.837%)
 integral evaluation            ...        0 min,  0.011 sec ( 11.859%)
 iterations                     ...        0 min,  0.036 sec ( 37.724%)
 molecular gradient             ...        0 min,  0.034 sec ( 35.051%)
 printout                       ...        0 min,  0.000 sec (  0.155%)

         :::::::::::::::::::::::::::::::::::::::::::::::::::::
         ::                     SUMMARY                     ::
         :::::::::::::::::::::::::::::::::::::::::::::::::::::
         :: total energy             -41.892678717513 Eh    ::
         :: gradient norm              0.000249944505 Eh/a0 ::
         :: HOMO-LUMO gap              4.359955108201 eV    ::
         ::.................................................::
         :: SCC energy               -42.441933139056 Eh    ::
         :: -> isotropic ES            0.064254586287 Eh    ::
         :: -> anisotropic ES          0.002087252528 Eh    ::
         :: -> anisotropic XC          0.010903687805 Eh    ::
         :: -> dispersion             -0.024408783021 Eh    ::
         :: repulsion energy           0.549254421543 Eh    ::
         :: add. restraining           0.000000000000 Eh    ::
         :: total charge              -0.000000000000 e     ::
         :::::::::::::::::::::::::::::::::::::::::::::::::::::

           -------------------------------------------------
          |                Property Printout                |
           -------------------------------------------------

    * Orbital Energies and Occupations

         #    Occupation            Energy/Eh            Energy/eV
      -------------------------------------------------------------
         1        2.0000           -0.7662098             -20.8496
       ...           ...                  ...                  ...
        25        2.0000           -0.4929997             -13.4152
        26        2.0000           -0.4906515             -13.3513
        27        2.0000           -0.4888704             -13.3028
        28        2.0000           -0.4833416             -13.1524
        29        2.0000           -0.4823835             -13.1263
        30        2.0000           -0.4774837             -12.9930
        31        2.0000           -0.4661070             -12.6834
        32        2.0000           -0.4446323             -12.0991
        33        2.0000           -0.4374419             -11.9034
        34        2.0000           -0.4272293             -11.6255
        35        2.0000           -0.4153404             -11.3020
        36        2.0000           -0.4123137             -11.2196
        37        2.0000           -0.4052328             -11.0269 (HOMO)
        38                         -0.2450073              -6.6670 (LUMO)
        39                         -0.2315795              -6.3016
        40                         -0.2297212              -6.2510
        41                         -0.1024438              -2.7876
        42                         -0.0360487              -0.9809
        43                          0.0324629               0.8834
        44                          0.0516738               1.4061
        45                          0.0712640               1.9392
        46                          0.0795496               2.1647
        47                          0.1172867               3.1915
        48                          0.1198585               3.2615
       ...                                ...                  ...
        68                          0.6668324              18.1454
      -------------------------------------------------------------
                  HL-Gap            0.1602254 Eh            4.3600 eV
             Fermi-level           -0.3251200 Eh           -8.8470 eV

     #   Z          covCN         q      C6AA      α(0)
     1   6 C        3.753    -0.127    22.989     6.837
     2   6 C        3.778     0.271    16.494     5.786
     3   6 C        3.752    -0.127    23.002     6.839
     4   8 O        1.706    -0.266    18.417     5.794
     5   6 C        2.765     0.356    20.961     7.498
     6   8 O        0.856    -0.369    21.075     6.155
     7   6 C        3.789     0.087    19.158     6.234
     8   6 C        2.973    -0.003    28.089     8.693
     9   6 C        2.922    -0.039    28.974     8.827
    10   6 C        2.921    -0.026    28.643     8.777
    11   6 C        2.919    -0.030    28.746     8.792
    12   6 C        2.920    -0.029    28.731     8.790
    13   6 C        2.922    -0.032    28.803     8.801
    14   8 O        1.704    -0.329    19.515     5.964
    15   1 H        0.925     0.068     2.103     2.268
    16   1 H        0.925     0.067     2.121     2.277
    17   1 H        0.925     0.066     2.127     2.281
    18   1 H        0.925     0.062     2.172     2.305
    19   1 H        0.925     0.063     2.166     2.302
    20   1 H        0.925     0.057     2.232     2.336
    21   1 H        0.924     0.067     2.122     2.278
    22   1 H        0.926     0.053     2.289     2.366
    23   1 H        0.926     0.040     2.448     2.447
    24   1 H        0.926     0.037     2.494     2.470
    25   1 H        0.926     0.036     2.498     2.472
    26   1 H        0.926     0.048     2.345     2.395

 Mol. C6AA /au·bohr⁶  :       7368.896035
 Mol. C8AA /au·bohr⁸  :     172863.685542
 Mol. α(0) /au        :        131.983144


Wiberg/Mayer (AO) data.
largest (>0.10) Wiberg bond orders for each atom

 ---------------------------------------------------------------------------
     #   Z sym  total        # sym  WBO       # sym  WBO       # sym  WBO
 ---------------------------------------------------------------------------
     1   6 C    3.988 --     2 C    0.986    16 H    0.983    17 H    0.982
                            15 H    0.981
     2   6 C    3.894 --     1 C    0.986     3 C    0.980    14 O    0.962
                             4 O    0.915
     3   6 C    3.991 --    18 H    0.982    20 H    0.982    19 H    0.982
                             2 C    0.980
     4   8 O    2.320 --     5 C    1.135     2 C    0.915     6 O    0.166
     5   6 C    3.917 --     6 O    1.781     4 O    1.135     7 C    0.926
     6   8 O    2.077 --     5 C    1.781     4 O    0.166
     7   6 C    3.944 --    14 O    0.976     8 C    0.962    21 H    0.935
                             5 C    0.926
     8   6 C    3.983 --    13 C    1.418     9 C    1.409     7 C    0.962
                            11 C    0.109
     9   6 C    3.990 --    10 C    1.448     8 C    1.409    22 H    0.966
                            12 C    0.113
    10   6 C    3.992 --     9 C    1.448    11 C    1.435    23 H    0.970
                            13 C    0.111
    11   6 C    3.991 --    12 C    1.443    10 C    1.435    24 H    0.971
                             8 C    0.109
    12   6 C    3.991 --    11 C    1.443    13 C    1.437    25 H    0.971
                             9 C    0.113
    13   6 C    3.991 --    12 C    1.437     8 C    1.418    26 H    0.966
                            10 C    0.111
    14   8 O    2.081 --     7 C    0.976     2 C    0.962
    15   1 H    0.995 --     1 C    0.981
    16   1 H    0.996 --     1 C    0.983
    17   1 H    0.995 --     1 C    0.982
    18   1 H    0.996 --     3 C    0.982
    19   1 H    0.996 --     3 C    0.982
    20   1 H    0.997 --     3 C    0.982
    21   1 H    0.996 --     7 C    0.935
    22   1 H    0.997 --     9 C    0.966
    23   1 H    0.998 --    10 C    0.970
    24   1 H    0.998 --    11 C    0.971
    25   1 H    0.998 --    12 C    0.971
    26   1 H    0.998 --    13 C    0.966
 ---------------------------------------------------------------------------

Topologies differ in total number of bonds
Writing topology from bond orders to xtbtopo.mol

molecular dipole:
                 x           y           z       tot (Debye)
 q only:        0.190       0.287       1.287
   full:        0.227       0.349       1.318       3.514
molecular quadrupole (traceless):
                xx          xy          yy          xz          yz          zz
 q only:        9.990       3.670      -0.889       3.901      -4.669      -9.101
  q+dip:        9.275       5.385      -1.024       2.561      -6.172      -8.250
   full:        9.532       3.946       0.113       3.011      -6.640      -9.646

           -------------------------------------------------
          |                Geometry Summary                 |
           -------------------------------------------------

      molecular mass/u    :      192.2115987
   center of mass at/Å    :       -0.1016081      -0.0096161      -0.4048058
  moments of inertia/u·Å² :        0.3698561E+03   0.9803993E+03   0.1198171E+04
rotational constants/cm⁻¹ :        0.4557889E-01   0.1719466E-01   0.1406947E-01

 * 25 selected distances

     #   Z          #   Z                                           value/Å
     1   6 C        2   6 C                                       1.5251173
     2   6 C        3   6 C                                       1.5310176 (max)
     2   6 C        4   8 O                                       1.4287112
     4   8 O        5   6 C                                       1.3316452
     5   6 C        6   8 O                                       1.1935586
     8   6 C        9   6 C                                       1.3889771
     9   6 C       10   6 C                                       1.3835190
    10   6 C       11   6 C                                       1.3853338
    11   6 C       12   6 C                                       1.3839220
     8   6 C       13   6 C                                       1.3871964
    12   6 C       13   6 C                                       1.3841704
     2   6 C       14   8 O                                       1.4136718
     7   6 C       14   8 O                                       1.4102141
     1   6 C       15   1 H                                       1.0852854
     1   6 C       16   1 H                                       1.0867097
     1   6 C       17   1 H                                       1.0851814
     3   6 C       18   1 H                                       1.0858355
     3   6 C       19   1 H                                       1.0857880
     3   6 C       20   1 H                                       1.0879475
     7   6 C       21   1 H                                       1.0978529
     9   6 C       22   1 H                                       1.0790013 (min)
    10   6 C       23   1 H                                       1.0796590
    11   6 C       24   1 H                                       1.0798288
    12   6 C       25   1 H                                       1.0799789
    13   6 C       26   1 H                                       1.0795600

 * 3 distinct bonds (by element types)

   Z      Z             #   av. dist./Å        max./Å        min./Å
   1 H    6 C          12     1.0843857     1.0978529     1.0790013
   6 C    6 C           8     1.4211567     1.5310176     1.3835190
   6 C    8 O           5     1.3555602     1.4287112     1.1935586


optimized geometry written to: xtbopt.xyz


           -------------------------------------------------
          | TOTAL ENERGY              -41.892678717513 Eh   |
          | GRADIENT NORM               0.000249944505 Eh/α |
          | HOMO-LUMO GAP               4.359955108201 eV   |
           -------------------------------------------------

------------------------------------------------------------------------
 * finished run on 2026/07/07 at 06:41:42.808     
------------------------------------------------------------------------
 total:
 * wall-time:     0 d,  0 h,  0 min,  3.129 sec
 *  cpu-time:     0 d,  0 h,  0 min, 49.284 sec
 * ratio c/w:    15.751 speedup
 SCF:
 * wall-time:     0 d,  0 h,  0 min,  0.220 sec
 *  cpu-time:     0 d,  0 h,  0 min,  3.372 sec
 * ratio c/w:    15.348 speedup
 ANC optimizer:
 * wall-time:     0 d,  0 h,  0 min,  2.852 sec
 *  cpu-time:     0 d,  0 h,  0 min, 45.478 sec
 * ratio c/w:    15.947 speedup

