      -----------------------------------------------------------      
     |                   =====================                   |     
     |                           x T B                           |     
     |                   =====================                   |     
     |                         S. Grimme                         |     
     |          Mulliken Center for Theoretical Chemistry        |     
     |                    University of Bonn                     |     
      -----------------------------------------------------------      

   * xtb version 6.7.1 (edcfbbe) compiled by 'conda@5dfe00f5fb80' on 2026-06-10

   xtb is free software: you can redistribute it and/or modify it under
   the terms of the GNU Lesser General Public License as published by
   the Free Software Foundation, either version 3 of the License, or
   (at your option) any later version.
   
   xtb is distributed in the hope that it will be useful,
   but WITHOUT ANY WARRANTY; without even the implied warranty of
   MERCHANTABILITY or FITNESS FOR A PARTICULAR PURPOSE.  See the
   GNU Lesser General Public License for more details.
   
   Cite this work as:
   * C. Bannwarth, E. Caldeweyher, S. Ehlert, A. Hansen, P. Pracht,
     J. Seibert, S. Spicher, S. Grimme, WIREs Comput. Mol. Sci., 2020, 11,
     e01493. DOI: 10.1002/wcms.1493
   
   for GFN2-xTB:
   * C. Bannwarth, S. Ehlert and S. Grimme., J. Chem. Theory Comput., 2019,
     15, 1652-1671. DOI: 10.1021/acs.jctc.8b01176
   for GFN1-xTB:
   * S. Grimme, C. Bannwarth, P. Shushkov, J. Chem. Theory Comput., 2017,
     13, 1989-2009. DOI: 10.1021/acs.jctc.7b00118
   for GFN0-xTB:
   * P. Pracht, E. Caldeweyher, S. Ehlert, S. Grimme, ChemRxiv, 2019, preprint.
     DOI: 10.26434/chemrxiv.8326202.v1
   for GFN-FF:
   * S. Spicher and S. Grimme, Angew. Chem. Int. Ed., 2020, 59, 15665-15673.
     DOI: 10.1002/anie.202004239
   
   for ALPB and GBSA implicit solvation:
   * S. Ehlert, M. Stahn, S. Spicher, S. Grimme, J. Chem. Theory Comput.,
     2021, 17, 4250-4261. DOI: 10.1021/acs.jctc.1c00471
   
   for ddCOSMO and CPCM-X implicit solvation:
   * M. Stahn, S. Ehlert, S. Grimme, J. Phys. Chem. A,
     2023, XX, XXXX-XXXX. DOI: 10.1021/acs.jpca.3c04382
   
   for DFT-D4:
   * E. Caldeweyher, C. Bannwarth and S. Grimme, J. Chem. Phys., 2017,
     147, 034112. DOI: 10.1063/1.4993215
   * E. Caldeweyher, S. Ehlert, A. Hansen, H. Neugebauer, S. Spicher,
     C. Bannwarth and S. Grimme, J. Chem. Phys., 2019, 150, 154122.
     DOI: 10.1063/1.5090222
   * E. Caldeweyher, J.-M. Mewes, S. Ehlert and S. Grimme, Phys. Chem. Chem. Phys.
     2020, 22, 8499-8512. DOI: 10.1039/D0CP00502A
   
   for sTDA-xTB:
   * S. Grimme and C. Bannwarth, J. Chem. Phys., 2016, 145, 054103.
     DOI: 10.1063/1.4959605
   
   in the mass-spec context:
   * V. Asgeirsson, C. Bauer and S. Grimme, Chem. Sci., 2017, 8, 4879.
     DOI: 10.1039/c7sc00601b
   * J. Koopman and S. Grimme, ACS Omega 2019, 4, 12, 15120-15133.
     DOI: 10.1021/acsomega.9b02011
   
   for metadynamics refer to:
   * S. Grimme, J. Chem. Theory Comput., 2019, 155, 2847-2862
     DOI: 10.1021/acs.jctc.9b00143
   
   for SPH calculations refer to:
   * S. Spicher and S. Grimme, J. Chem. Theory Comput., 2021, 17, 1701-1714
     DOI: 10.1021/acs.jctc.0c01306
   
   for ONIOM refer to:
   * C. Plett, A. Katbashev, S. Ehlert, S. Grimme, M. Bursch,
     Phys. Chem. Chem. Phys., 2023, 25, 17860-17868. DOI: 10.1039/D3CP02178E
   
   for DIPRO refer to:
   * J. Kohn, N. Gildemeister, S. Grimme, D. Fazzi, A. Hansen,
     J. Chem. Phys., 2023, just accepted.
   
   for PTB refer to:
   * S. Grimme, M. Mueller, A. Hansen, J. Chem. Phys., 2023, 158, 124111.
     DOI: 10.1063/5.0137838
   
   with help from (in alphabetical order)
   P. Atkinson, C. Bannwarth, F. Bohle, G. Brandenburg, E. Caldeweyher
   M. Checinski, S. Dohm, S. Ehlert, S. Ehrlich, I. Gerasimov, C. Hölzer
   A. Katbashev, J. Kohn, J. Koopman, C. Lavigne, S. Lehtola, F. März, M. Müller,
   F. Musil, H. Neugebauer, J. Pisarek, C. Plett, P. Pracht, F. Pultar,
   J. Seibert, P. Shushkov, S. Spicher, M. Stahn, M. Steiner, T. Strunk,
   J. Stückrath, T. Rose, and J. Unsleber
   
 * started run on 2026/07/08 at 05:34:36.051     
   ID    Z sym.   atoms
    1    8 O      1, 11
    2    6 C      2-10
    3    1 H      12-17

           -------------------------------------------------
          |                Calculation Setup                |
           -------------------------------------------------

          program call               : /home/ws/xd2484/miniforge3/envs/p3z_dft/bin/xtb xtb_input.xyz --gfn 2 --opt tight --cycles 500 --chrg 0 --uhf 0
          hostname                   : gpu10
          coordinate file            : xtb_input.xyz
          omp threads                :                    16


           -------------------------------------------------
          |                 G F N 2 - x T B                 |
           -------------------------------------------------

        Reference                      10.1021/acs.jctc.8b01176
      * Hamiltonian:
        H0-scaling (s, p, d)           1.850000    2.230000    2.230000
        zeta-weighting                 0.500000
      * Dispersion:
        s8                             2.700000
        a1                             0.520000
        a2                             5.000000
        s9                             5.000000
      * Repulsion:
        kExp                           1.500000    1.000000
        rExp                           1.000000
      * Coulomb:
        alpha                          2.000000
        third order                    shell-resolved
        anisotropic                    true
        a3                             3.000000
        a5                             4.000000
        cn-shift                       1.200000
        cn-exp                         4.000000
        max-rad                        5.000000


          ...................................................
          :                      SETUP                      :
          :.................................................:
          :  # basis functions                  50          :
          :  # atomic orbitals                  50          :
          :  # shells                           28          :
          :  # electrons                        54          :
          :  max. iterations                   250          :
          :  Hamiltonian                  GFN2-xTB          :
          :  restarted?                      false          :
          :  GBSA solvation                  false          :
          :  PC potential                    false          :
          :  electronic temp.          300.0000000     K    :
          :  accuracy                    1.0000000          :
          :  -> integral cutoff          0.2500000E+02      :
          :  -> integral neglect         0.1000000E-07      :
          :  -> SCF convergence          0.1000000E-05 Eh   :
          :  -> wf. convergence          0.1000000E-03 e    :
          :  Broyden damping             0.4000000          :
          :  net charge                          0          :
          :  unpaired electrons                  0          :
          ...................................................

 iter      E             dE          RMSdq      gap      omega  full diag
   1    -30.8392614 -0.308393E+02  0.536E+00    3.30       0.0  T
   2    -30.8792729 -0.400115E-01  0.303E+00    2.87       1.0  T
   3    -30.8730555  0.621737E-02  0.164E+00    3.23       1.0  T
   4    -30.8854379 -0.123823E-01  0.417E-01    3.07       1.0  T
   5    -30.8874250 -0.198716E-02  0.120E-01    3.11       1.0  T
   6    -30.8875964 -0.171388E-03  0.484E-02    3.10       1.0  T
   7    -30.8876066 -0.102001E-04  0.241E-02    3.10       1.0  T
   8    -30.8876091 -0.249860E-05  0.932E-03    3.10       2.6  T
   9    -30.8876094 -0.326484E-06  0.274E-03    3.10       8.9  T
  10    -30.8876095 -0.641074E-07  0.129E-03    3.10      18.8  T
  11    -30.8876095 -0.693391E-08  0.646E-04    3.10      37.6  T
  12    -30.8876095 -0.688704E-09  0.191E-04    3.10     126.8  T

   *** convergence criteria satisfied after 12 iterations ***

         #    Occupation            Energy/Eh            Energy/eV
      -------------------------------------------------------------
         1        2.0000           -0.7445331             -20.2598
       ...           ...                  ...                  ...
        21        2.0000           -0.4827799             -13.1371
        22        2.0000           -0.4656499             -12.6710
        23        2.0000           -0.4595231             -12.5043
        24        2.0000           -0.4516120             -12.2890
        25        2.0000           -0.4249014             -11.5622
        26        2.0000           -0.4139760             -11.2649
        27        2.0000           -0.4115631             -11.1992 (HOMO)
        28                         -0.2976674              -8.0999 (LUMO)
        29                         -0.2544913              -6.9251
        30                         -0.2383395              -6.4855
        31                         -0.1774991              -4.8300
        32                         -0.1034523              -2.8151
       ...                                ...                  ...
        50                          0.6749285              18.3657
      -------------------------------------------------------------
                  HL-Gap            0.1138957 Eh            3.0993 eV
             Fermi-level           -0.3546152 Eh           -9.6496 eV

 SCC (total)                   0 d,  0 h,  0 min,  0.270 sec
 SCC setup                      ...        0 min,  0.005 sec (  1.952%)
 Dispersion                     ...        0 min,  0.012 sec (  4.366%)
 classical contributions        ...        0 min,  0.006 sec (  2.178%)
 integral evaluation            ...        0 min,  0.019 sec (  6.858%)
 iterations                     ...        0 min,  0.183 sec ( 67.798%)
 molecular gradient             ...        0 min,  0.045 sec ( 16.785%)
 printout                       ...        0 min,  0.000 sec (  0.053%)

         :::::::::::::::::::::::::::::::::::::::::::::::::::::
         ::                     SUMMARY                     ::
         :::::::::::::::::::::::::::::::::::::::::::::::::::::
         :: total energy             -30.451851872118 Eh    ::
         :: gradient norm              0.065549816536 Eh/a0 ::
         :: HOMO-LUMO gap              3.099259237960 eV    ::
         ::.................................................::
         :: SCC energy               -30.887586287259 Eh    ::
         :: -> isotropic ES            0.044518097297 Eh    ::
         :: -> anisotropic ES          0.000407734477 Eh    ::
         :: -> anisotropic XC          0.011148081606 Eh    ::
         :: -> dispersion             -0.015492443995 Eh    ::
         :: repulsion energy           0.435734415141 Eh    ::
         :: add. restraining           0.000000000000 Eh    ::
         :: total charge               0.000000000000 e     ::
         :::::::::::::::::::::::::::::::::::::::::::::::::::::

      ----------------------------------------------------------- 
     |                   =====================                   |
     |                        A N C O P T                        |
     |                   =====================                   |
     |               Approximate Normal Coordinate               |
     |                Rational Function Optimizer                |
      ----------------------------------------------------------- 
      ----------------------------------------------------------- 
     |                   =====================                   |
     |                        A N C O P T                        |
     |                   =====================                   |
     |               Approximate Normal Coordinate               |
     |                Rational Function Optimizer                |
      ----------------------------------------------------------- 

          ...................................................
          :                      SETUP                      :
          :.................................................:
          :   optimization level             tight          :
          :   max. optcycles                   500          :
          :   ANC micro-cycles                  20          :
          :   degrees of freedom                45          :
          :.................................................:
          :   RF solver                   davidson          :
          :   write xtbopt.log                true          :
          :   linear?                        false          :
          :   energy convergence         0.1000000E-05 Eh   :
          :   grad. convergence          0.8000000E-03 Eh/α :
          :   maxmium RF displ.          1.0000000          :
          :   Hlow (freq-cutoff)         0.1000000E-01      :
          :   Hmax (freq-cutoff)         5.0000000          :
          :   S6 in model hess.         20.0000000          :
          ...................................................

generating ANC from exact Hessian ...
Using Lindh-Hessian (1995)
 Shifting diagonal of input Hessian by    4.4420378792805956E-003
 Lowest  eigenvalues of input Hessian
    0.000000    0.000000    0.000000    0.000000    0.000000    0.000000
    0.010000    0.010488    0.020458    0.023947    0.025424    0.033676
    0.040120    0.052505    0.068390    0.070632    0.081584    0.086356
 Highest eigenvalues
    1.731141    1.827268    1.901979    1.998616    2.018656    2.261037


........................................................................
.............................. CYCLE    1 ..............................
........................................................................

 iter      E             dE          RMSdq      gap      omega  full diag
   1    -30.8876095 -0.308876E+02  0.734E-05    3.10       0.0  T
   2    -30.8876095 -0.174936E-10  0.463E-05    3.10     524.2  T
   3    -30.8876095 -0.997247E-11  0.307E-05    3.10     790.6  T
     SCC iter.                  ...        0 min,  0.038 sec
     gradient                   ...        0 min,  0.041 sec
 * total energy  :   -30.4518519 Eh     change       -0.3948131E-09 Eh
   gradient norm :     0.0655516 Eh/α   predicted     0.0000000E+00 (-100.00%)
   displ. norm   :     0.1899122 α      lambda       -0.6676669E-02
   maximum displ.:     0.1164399 α      in ANC's #9, #6, #24, ...

........................................................................
.............................. CYCLE    2 ..............................
........................................................................

 iter      E             dE          RMSdq      gap      omega  full diag
   1    -30.9130354 -0.309130E+02  0.212E-01    3.11       0.0  T
   2    -30.9132037 -0.168345E-03  0.142E-01    3.12       1.0  T
   3    -30.9132365 -0.327514E-04  0.791E-02    3.13       1.0  T
   4    -30.9132472 -0.106843E-04  0.169E-02    3.13       1.4  T
   5    -30.9132497 -0.256680E-05  0.715E-03    3.13       3.4  T
   6    -30.9132503 -0.562437E-06  0.320E-03    3.13       7.6  T
   7    -30.9132504 -0.564887E-07  0.176E-03    3.13      13.8  T
   8    -30.9132504 -0.150553E-07  0.601E-04    3.13      40.4  T
   9    -30.9132504 -0.352994E-09  0.199E-04    3.13     121.9  T
     SCC iter.                  ...        0 min,  0.115 sec
     gradient                   ...        0 min,  0.040 sec
 * total energy  :   -30.4564188 Eh     change       -0.4566958E-02 Eh
   gradient norm :     0.0298053 Eh/α   predicted    -0.3458737E-02 ( -24.27%)
   displ. norm   :     0.1274908 α      lambda       -0.1892259E-02
   maximum displ.:     0.0703613 α      in ANC's #9, #6, #18, ...

........................................................................
.............................. CYCLE    3 ..............................
........................................................................

 iter      E             dE          RMSdq      gap      omega  full diag
   1    -30.9219187 -0.309219E+02  0.151E-01    3.12       0.0  T
   2    -30.9220363 -0.117602E-03  0.102E-01    3.12       1.0  T
   3    -30.9220697 -0.334234E-04  0.575E-02    3.13       1.0  T
   4    -30.9220719 -0.222705E-05  0.171E-02    3.13       1.4  T
   5    -30.9220738 -0.185958E-05  0.715E-03    3.13       3.4  T
   6    -30.9220745 -0.752479E-06  0.165E-03    3.13      14.7  T
   7    -30.9220745 -0.137118E-07  0.960E-04    3.13      25.3  T
   8    -30.9220746 -0.391856E-08  0.355E-04    3.13      68.3  T
     SCC iter.                  ...        0 min,  0.140 sec
     gradient                   ...        0 min,  0.048 sec
 * total energy  :   -30.4574673 Eh     change       -0.1048496E-02 Eh
   gradient norm :     0.0099196 Eh/α   predicted    -0.9615048E-03 (  -8.30%)
   displ. norm   :     0.0243909 α      lambda       -0.1155067E-03
   maximum displ.:     0.0111934 α      in ANC's #6, #18, #15, ...

........................................................................
.............................. CYCLE    4 ..............................
........................................................................

 iter      E             dE          RMSdq      gap      omega  full diag
   1    -30.9206327 -0.309206E+02  0.334E-02    3.11       0.0  T
   2    -30.9206353 -0.261911E-05  0.201E-02    3.11       1.2  T
   3    -30.9206361 -0.766238E-06  0.123E-02    3.11       2.0  T
   4    -30.9206366 -0.500878E-06  0.238E-03    3.11      10.2  T
   5    -30.9206367 -0.718621E-07  0.896E-04    3.11      27.1  T
   6    -30.9206367 -0.936339E-08  0.313E-04    3.11      77.4  T
     SCC iter.                  ...        0 min,  0.087 sec
     gradient                   ...        0 min,  0.040 sec
 * total energy  :   -30.4575453 Eh     change       -0.7797373E-04 Eh
   gradient norm :     0.0051900 Eh/α   predicted    -0.5778629E-04 ( -25.89%)
   displ. norm   :     0.0153252 α      lambda       -0.4286106E-04
   maximum displ.:     0.0096688 α      in ANC's #15, #20, #9, ...

........................................................................
.............................. CYCLE    5 ..............................
........................................................................

 iter      E             dE          RMSdq      gap      omega  full diag
   1    -30.9195290 -0.309195E+02  0.230E-02    3.10       0.0  T
   2    -30.9195305 -0.150829E-05  0.131E-02    3.10       1.9  T
   3    -30.9195307 -0.139302E-06  0.785E-03    3.10       3.1  T
   4    -30.9195308 -0.887587E-07  0.215E-03    3.10      11.3  T
   5    -30.9195308 -0.567447E-07  0.654E-04    3.10      37.1  T
   6    -30.9195308 -0.392783E-08  0.301E-04    3.10      80.7  T
     SCC iter.                  ...        0 min,  0.070 sec
     gradient                   ...        0 min,  0.036 sec
 * total energy  :   -30.4575714 Eh     change       -0.2611288E-04 Eh
   gradient norm :     0.0023506 Eh/α   predicted    -0.2143559E-04 ( -17.91%)
   displ. norm   :     0.0067092 α      lambda       -0.7210148E-05
   maximum displ.:     0.0037482 α      in ANC's #15, #6, #9, ...

........................................................................
.............................. CYCLE    6 ..............................
........................................................................

 iter      E             dE          RMSdq      gap      omega  full diag
   1    -30.9195257 -0.309195E+02  0.947E-03    3.10       0.0  T
   2    -30.9195264 -0.698503E-06  0.570E-03    3.10       4.3  T
   3    -30.9195265 -0.514768E-07  0.323E-03    3.10       7.5  T
   4    -30.9195265  0.148363E-07  0.142E-03    3.10      17.1  T
   5    -30.9195265 -0.210876E-07  0.404E-04    3.10      60.0  T
   6    -30.9195265 -0.208685E-08  0.126E-04    3.10     193.1  T
     SCC iter.                  ...        0 min,  0.084 sec
     gradient                   ...        0 min,  0.041 sec
 * total energy  :   -30.4575760 Eh     change       -0.4620570E-05 Eh
   gradient norm :     0.0010605 Eh/α   predicted    -0.3604513E-05 ( -21.99%)
   displ. norm   :     0.0045464 α      lambda       -0.1507930E-05
   maximum displ.:     0.0023719 α      in ANC's #6, #16, #15, ...

........................................................................
.............................. CYCLE    7 ..............................
........................................................................

 iter      E             dE          RMSdq      gap      omega  full diag
   1    -30.9198079 -0.309198E+02  0.723E-03    3.10       0.0  T
   2    -30.9198082 -0.355879E-06  0.434E-03    3.10       5.6  T
   3    -30.9198082 -0.229474E-07  0.235E-03    3.10      10.3  T
   4    -30.9198082  0.808566E-08  0.115E-03    3.10      21.0  T
   5    -30.9198082 -0.141712E-07  0.277E-04    3.10      87.6  T
   6    -30.9198082 -0.102729E-08  0.685E-05    3.10     353.9  T
     SCC iter.                  ...        0 min,  0.088 sec
     gradient                   ...        0 min,  0.047 sec
 * total energy  :   -30.4575769 Eh     change       -0.8386532E-06 Eh
   gradient norm :     0.0002966 Eh/α   predicted    -0.7531326E-06 ( -10.20%)
   displ. norm   :     0.0016257 α      lambda       -0.1575828E-06
   maximum displ.:     0.0011145 α      in ANC's #6, #15, #18, ...

   *** GEOMETRY OPTIMIZATION CONVERGED AFTER 7 ITERATIONS ***

------------------------------------------------------------------------
 total energy gain   :        -0.0057250 Eh       -3.5925 kcal/mol
 total RMSD          :         0.0767727 a0        0.0406 Å
 total power (kW/mol):        -2.1472835 (step)  -12.9231 (real)
------------------------------------------------------------------------

 ANCopt (total)                0 d,  0 h,  0 min,  1.163 sec
 optimizer setup                ...        0 min,  0.001 sec (  0.061%)
 model hessian                  ...        0 min,  0.002 sec (  0.186%)
 ANC generation                 ...        0 min,  0.000 sec (  0.041%)
 coordinate transformation      ...        0 min,  0.000 sec (  0.005%)
 single point calculation       ...        0 min,  1.127 sec ( 96.888%)
 optimization log               ...        0 min,  0.001 sec (  0.050%)
 hessian update                 ...        0 min,  0.030 sec (  2.594%)
 rational function              ...        0 min,  0.001 sec (  0.092%)

================
 final structure:
================
17
 xtb: 6.7.1 (edcfbbe)
O            3.30884852257437        1.67122228544962       -0.76173508294127
C            2.38030387917387        0.95863233888048       -0.47782598165488
C            2.48658592414929       -0.44012776798134       -0.08398717976247
C            1.40029079022334       -1.17251627400398        0.21900281836252
C            0.09590761839392       -0.58073582503248        0.15912109408961
C           -1.08326164886294       -1.27119830890035        0.45790822210222
C           -2.30112920472205       -0.63612464078184        0.37822638637433
C           -2.36778384992615        0.70238115485431       -0.00160816117032
C           -1.22070926685185        1.40537161569518       -0.30128274780823
C            0.01688413817517        0.76834496024696       -0.22271068097112
O            1.11877313946372        1.49023217634275       -0.52399980659647
H            3.48737567002024       -0.83979068624759       -0.05370126708600
H            1.48336631898441       -2.21014121307511        0.51079258205034
H           -1.01916593210957       -2.30853359019787        0.75122453431152
H           -3.20788633501797       -1.17342632834994        0.60981673098260
H           -3.32625794383229        1.19470816639670       -0.06216347224650
H           -1.25214181983352        2.44170193670449       -0.59707798803688

 Bond Distances (Angstroems)
 ---------------------------
O1-C2=1.2044         C2-O1=1.2044         C2-C3=1.4570         C2-O11=1.3697        C3-C2=1.4570         C3-C4=1.3447         
C3-H12=1.0781        C4-C3=1.3447         C4-C5=1.4336         C4-H13=1.0811        C5-C4=1.4336         C5-C6=1.3987         
C5-C10=1.4043        C6-C5=1.3987         C6-C7=1.3758         C6-H14=1.0799        C7-C6=1.3758         C7-C8=1.3930         
C7-H15=1.0791        C8-C7=1.3930         C8-C9=1.3783         C8-H16=1.0792        C9-C8=1.3783         C9-C10=1.3941        
C9-H17=1.0782        C10-C5=1.4043        C10-C9=1.3941        C10-O11=1.3513       O11-C2=1.3697        O11-C10=1.3513       
H12-C3=1.0781        H13-C4=1.0811        H14-C6=1.0799        H15-C7=1.0791        H16-C8=1.0792        H17-C9=1.0782        
 C  H  Rav=1.0793 sigma=0.0010  Rmin=1.0781  Rmax=1.0811     6
 C  C  Rav=1.3977 sigma=0.0308  Rmin=1.3447  Rmax=1.4570     9
 O  C  Rav=1.3085 sigma=0.0740  Rmin=1.2044  Rmax=1.3697     3

 selected bond angles (degree)
 --------------------
C3-C2-O1=125.13                O11-C2-O1=118.20               O11-C2-C3=116.67               C4-C3-C2=121.66                
H12-C3-C2=115.54               H12-C3-C4=122.80               C5-C4-C3=120.05                H13-C4-C3=121.43               
H13-C4-C5=118.52               C6-C5-C4=123.67                C10-C5-C4=117.33               C10-C5-C6=119.00               
C7-C6-C5=120.40                H14-C6-C5=118.83               H14-C6-C7=120.78               C8-C7-C6=120.11                
H15-C7-C6=120.10               H15-C7-C8=119.79               C9-C8-C7=120.63                H16-C8-C7=119.75               
H16-C8-C9=119.62               C10-C9-C8=119.57               H17-C9-C8=121.71               H17-C9-C10=118.72              
C9-C10-C5=120.28               O11-C10-C5=121.87              O11-C10-C9=117.85              

 selected dihedral angles (degree)
 ---------------------------------
C4-C3-C2-O1=180.00            C4-C3-C2-O11=  0.00           H12-C3-C2-O1=  0.00           H12-C3-C2-O11=180.00          
C5-C4-C3-C2=  0.00            C5-C4-C3-H12=180.00           H13-C4-C3-C2=180.00           H13-C4-C3-H12=  0.00          
C6-C5-C4-C3=180.00            C6-C5-C4-H13=  0.00           C10-C5-C4-C3=  0.00           C10-C5-C4-H13=180.00          
C7-C6-C5-C4=180.00            C7-C6-C5-C10=  0.00           H14-C6-C5-C4=  0.00           H14-C6-C5-C10=180.00          
C8-C7-C6-C5=  0.00            C8-C7-C6-H14=180.00           H15-C7-C6-C5=180.00           H15-C7-C6-H14=  0.00          
C9-C8-C7-C6=  0.00            C9-C8-C7-H15=180.00           H16-C8-C7-C6=180.00           H16-C8-C7-H15=  0.00          
C10-C9-C8-C7=  0.00           C10-C9-C8-H16=180.00          H17-C9-C8-C7=180.00           H17-C9-C8-H16=  0.00          
C9-C10-C5-C4=180.00           C9-C10-C5-C6=  0.00           O11-C10-C5-C4=  0.00          O11-C10-C5-C6=180.00          
C5-C10-C9-C8=  0.00           C5-C10-C9-H17=180.00          O11-C10-C9-C8=180.00          O11-C10-C9-H17=  0.00         
           -------------------------------------------------
          |                Final Singlepoint                |
           -------------------------------------------------

          ...................................................
          :                      SETUP                      :
          :.................................................:
          :  # basis functions                  50          :
          :  # atomic orbitals                  50          :
          :  # shells                           28          :
          :  # electrons                        54          :
          :  max. iterations                   250          :
          :  Hamiltonian                  GFN2-xTB          :
          :  restarted?                      false          :
          :  GBSA solvation                  false          :
          :  PC potential                    false          :
          :  electronic temp.          300.0000000     K    :
          :  accuracy                    1.0000000          :
          :  -> integral cutoff          0.2500000E+02      :
          :  -> integral neglect         0.1000000E-07      :
          :  -> SCF convergence          0.1000000E-05 Eh   :
          :  -> wf. convergence          0.1000000E-03 e    :
          :  Broyden damping             0.4000000          :
          :  net charge                          0          :
          :  unpaired electrons                  0          :
          ...................................................

 iter      E             dE          RMSdq      gap      omega  full diag
   1    -30.9198082 -0.309198E+02  0.399E-05    3.10       0.0  T
   2    -30.9198082 -0.274269E-11  0.250E-05    3.10     971.5  T
   3    -30.9198082 -0.749623E-12  0.188E-05    3.10    1288.1  T

   *** convergence criteria satisfied after 3 iterations ***

         #    Occupation            Energy/Eh            Energy/eV
      -------------------------------------------------------------
         1        2.0000           -0.7551691             -20.5492
       ...           ...                  ...                  ...
        21        2.0000           -0.4817565             -13.1093
        22        2.0000           -0.4667238             -12.7002
        23        2.0000           -0.4590978             -12.4927
        24        2.0000           -0.4495065             -12.2317
        25        2.0000           -0.4245079             -11.5514
        26        2.0000           -0.4119155             -11.2088
        27        2.0000           -0.4105005             -11.1703 (HOMO)
        28                         -0.2966325              -8.0718 (LUMO)
        29                         -0.2503087              -6.8112
        30                         -0.2318506              -6.3090
        31                         -0.1705767              -4.6416
        32                         -0.0963448              -2.6217
       ...                                ...                  ...
        50                          0.7028099              19.1244
      -------------------------------------------------------------
                  HL-Gap            0.1138680 Eh            3.0985 eV
             Fermi-level           -0.3535665 Eh           -9.6210 eV

 SCC (total)                   0 d,  0 h,  0 min,  0.111 sec
 SCC setup                      ...        0 min,  0.005 sec (  4.049%)
 Dispersion                     ...        0 min,  0.008 sec (  7.421%)
 classical contributions        ...        0 min,  0.004 sec (  3.630%)
 integral evaluation            ...        0 min,  0.014 sec ( 12.197%)
 iterations                     ...        0 min,  0.041 sec ( 37.089%)
 molecular gradient             ...        0 min,  0.039 sec ( 35.491%)
 printout                       ...        0 min,  0.000 sec (  0.100%)

         :::::::::::::::::::::::::::::::::::::::::::::::::::::
         ::                     SUMMARY                     ::
         :::::::::::::::::::::::::::::::::::::::::::::::::::::
         :: total energy             -30.457576871863 Eh    ::
         :: gradient norm              0.000296537607 Eh/a0 ::
         :: HOMO-LUMO gap              3.098504639531 eV    ::
         ::.................................................::
         :: SCC energy               -30.919783691508 Eh    ::
         :: -> isotropic ES            0.043096889178 Eh    ::
         :: -> anisotropic ES          0.000804381614 Eh    ::
         :: -> anisotropic XC          0.009927973842 Eh    ::
         :: -> dispersion             -0.015627584982 Eh    ::
         :: repulsion energy           0.462206819645 Eh    ::
         :: add. restraining           0.000000000000 Eh    ::
         :: total charge               0.000000000000 e     ::
         :::::::::::::::::::::::::::::::::::::::::::::::::::::

           -------------------------------------------------
          |                Property Printout                |
           -------------------------------------------------

    * Orbital Energies and Occupations

         #    Occupation            Energy/Eh            Energy/eV
      -------------------------------------------------------------
         1        2.0000           -0.7551691             -20.5492
       ...           ...                  ...                  ...
        15        2.0000           -0.5276413             -14.3579
        16        2.0000           -0.5199736             -14.1492
        17        2.0000           -0.5157720             -14.0349
        18        2.0000           -0.5090937             -13.8531
        19        2.0000           -0.4994241             -13.5900
        20        2.0000           -0.4938595             -13.4386
        21        2.0000           -0.4817565             -13.1093
        22        2.0000           -0.4667238             -12.7002
        23        2.0000           -0.4590978             -12.4927
        24        2.0000           -0.4495065             -12.2317
        25        2.0000           -0.4245079             -11.5514
        26        2.0000           -0.4119155             -11.2088
        27        2.0000           -0.4105005             -11.1703 (HOMO)
        28                         -0.2966325              -8.0718 (LUMO)
        29                         -0.2503087              -6.8112
        30                         -0.2318506              -6.3090
        31                         -0.1705767              -4.6416
        32                         -0.0963448              -2.6217
        33                          0.0319203               0.8686
        34                          0.0946566               2.5757
        35                          0.0995173               2.7080
        36                          0.1091265               2.9695
        37                          0.1336909               3.6379
        38                          0.1585218               4.3136
       ...                                ...                  ...
        50                          0.7028099              19.1244
      -------------------------------------------------------------
                  HL-Gap            0.1138680 Eh            3.0985 eV
             Fermi-level           -0.3535665 Eh           -9.6210 eV

     #   Z          covCN         q      C6AA      α(0)
     1   8 O        0.857    -0.389    21.471     6.213
     2   6 C        2.716     0.347    21.111     7.521
     3   6 C        2.902    -0.071    29.776     8.947
     4   6 C        2.911    -0.011    28.280     8.720
     5   6 C        2.982    -0.007    28.200     8.711
     6   6 C        2.921    -0.031    28.777     8.797
     7   6 C        2.916    -0.033    28.821     8.803
     8   6 C        2.921    -0.023    28.571     8.765
     9   6 C        2.914    -0.047    29.171     8.857
    10   6 C        2.877     0.148    24.775     8.160
    11   8 O        1.709    -0.220    17.656     5.673
    12   1 H        0.926     0.069     2.091     2.261
    13   1 H        0.926     0.054     2.274     2.358
    14   1 H        0.926     0.049     2.332     2.388
    15   1 H        0.926     0.048     2.344     2.394
    16   1 H        0.926     0.053     2.289     2.366
    17   1 H        0.926     0.065     2.141     2.288

 Mol. C6AA /au·bohr⁶  :       4203.400374
 Mol. C8AA /au·bohr⁸  :     104893.762430
 Mol. α(0) /au        :        103.222493


Wiberg/Mayer (AO) data.
largest (>0.10) Wiberg bond orders for each atom

 ---------------------------------------------------------------------------
     #   Z sym  total        # sym  WBO       # sym  WBO       # sym  WBO
 ---------------------------------------------------------------------------
     1   8 O    2.033 --     2 C    1.722    11 O    0.144
     2   6 C    3.921 --     1 O    1.722     3 C    1.080    11 O    1.034
     3   6 C    3.989 --     4 C    1.728     2 C    1.080    12 H    0.965
     4   6 C    3.988 --     3 C    1.728     5 C    1.165    13 H    0.964
     5   6 C    3.990 --     6 C    1.336    10 C    1.295     4 C    1.165
     6   6 C    3.985 --     7 C    1.494     5 C    1.336    14 H    0.968
                             9 C    0.109
     7   6 C    3.982 --     6 C    1.494     8 C    1.386    15 H    0.970
     8   6 C    3.986 --     9 C    1.479     7 C    1.386    16 H    0.970
     9   6 C    3.988 --     8 C    1.479    10 C    1.349    17 H    0.966
                             6 C    0.109
    10   6 C    3.927 --     9 C    1.349     5 C    1.295    11 O    1.076
    11   8 O    2.407 --    10 C    1.076     2 C    1.034     1 O    0.144
    12   1 H    0.995 --     3 C    0.965
    13   1 H    0.997 --     4 C    0.964
    14   1 H    0.998 --     6 C    0.968
    15   1 H    0.997 --     7 C    0.970
    16   1 H    0.996 --     8 C    0.970
    17   1 H    0.995 --     9 C    0.966
 ---------------------------------------------------------------------------

Topologies differ in total number of bonds
Writing topology from bond orders to xtbtopo.mol

molecular dipole:
                 x           y           z       tot (Debye)
 q only:       -1.545      -1.193       0.475
   full:       -1.614      -1.385       0.536       5.574
molecular quadrupole (traceless):
                xx          xy          yy          xz          yz          zz
 q only:       -3.758     -11.223       1.519       3.801       1.364       2.239
  q+dip:       -4.226     -13.787       3.847       4.400       0.302       0.379
   full:       -5.791     -13.600       1.967       4.814       1.968       3.824

           -------------------------------------------------
          |                Geometry Summary                 |
           -------------------------------------------------

      molecular mass/u    :      146.1430774
   center of mass at/Å    :        0.4095497       0.3042798      -0.1223418
  moments of inertia/u·Å² :        0.1766889E+03   0.5656823E+03   0.7423712E+03
rotational constants/cm⁻¹ :        0.9540854E-01   0.2980053E-01   0.2270782E-01

 * 17 selected distances

     #   Z          #   Z                                           value/Å
     1   8 O        2   6 C                                       1.2044020
     3   6 C        4   6 C                                       1.3447057
     4   6 C        5   6 C                                       1.4335989 (max)
     5   6 C        6   6 C                                       1.3987325
     6   6 C        7   6 C                                       1.3758159
     7   6 C        8   6 C                                       1.3929520
     8   6 C        9   6 C                                       1.3783254
     5   6 C       10   6 C                                       1.4043004
     9   6 C       10   6 C                                       1.3941357
     2   6 C       11   8 O                                       1.3697411
    10   6 C       11   8 O                                       1.3513164
     3   6 C       12   1 H                                       1.0780668 (min)
     4   6 C       13   1 H                                       1.0810682
     6   6 C       14   1 H                                       1.0799108
     7   6 C       15   1 H                                       1.0791366
     8   6 C       16   1 H                                       1.0792246
     9   6 C       17   1 H                                       1.0781760

 * 3 distinct bonds (by element types)

   Z      Z             #   av. dist./Å        max./Å        min./Å
   1 H    6 C           6     1.0792639     1.0810682     1.0780668
   6 C    6 C           8     1.3903208     1.4335989     1.3447057
   6 C    8 O           3     1.3084865     1.3697411     1.2044020


optimized geometry written to: xtbopt.xyz


           -------------------------------------------------
          | TOTAL ENERGY              -30.457576871863 Eh   |
          | GRADIENT NORM               0.000296537607 Eh/α |
          | HOMO-LUMO GAP               3.098504639531 eV   |
           -------------------------------------------------

------------------------------------------------------------------------
 * finished run on 2026/07/08 at 05:34:37.667     
------------------------------------------------------------------------
 total:
 * wall-time:     0 d,  0 h,  0 min,  1.615 sec
 *  cpu-time:     0 d,  0 h,  0 min, 25.746 sec
 * ratio c/w:    15.939 speedup
 SCF:
 * wall-time:     0 d,  0 h,  0 min,  0.270 sec
 *  cpu-time:     0 d,  0 h,  0 min,  4.314 sec
 * ratio c/w:    15.973 speedup
 ANC optimizer:
 * wall-time:     0 d,  0 h,  0 min,  1.279 sec
 *  cpu-time:     0 d,  0 h,  0 min, 20.449 sec
 * ratio c/w:    15.983 speedup

