23
 energy: -33.521786229862 gnorm: 0.000136344149 xtb: 6.7.1 (edcfbbe)
C           -2.78169893055621       -0.99430639775692       -0.93363587930424
C           -1.81358701710016       -1.56312963632832        0.10556149130777
C           -0.82071848997931       -0.51922468273144        0.53423202763610
C           -1.08573590952243        0.31782938490280        1.60492996449967
C           -0.18670071195721        1.30431471230582        1.97353837892457
C            0.99335009321352        1.46836810234528        1.27088332124902
O            1.87851481241964        2.43535512535652        1.63557268106042
C            1.27018399113833        0.62728115748079        0.18076310023471
O            2.47409592192985        0.87820385805894       -0.44579575121780
C            2.82408364412885        0.08217475009114       -1.54816524892242
C            0.36444361978025       -0.35332769166637       -0.17715999569646
H           -3.32150013429271       -0.14569455744246       -0.52017012059169
H           -3.50171163146309       -1.75029819712575       -1.23883707364452
H           -2.23829255941822       -0.65666292057501       -1.81327045149894
H           -2.38045124176751       -1.90822661852162        0.97216689987947
H           -1.29042651002464       -2.42101588332066       -0.32211808362474
H           -2.00233111921979        0.19966930045968        2.16308210470250
H           -0.38375062131706        1.95782578279733        2.80796749601251
H            2.63114658750424        2.38743355194407        1.03079339458315
H            2.10051184414260        0.18650216126980       -2.36300652159390
H            2.90937039156649       -0.97294460439987       -1.26939231809309
H            3.79528761548875        0.44677917143544       -1.87988133604961
H            0.56591635530680       -1.00690586857914       -1.01204488225555
