28
 energy: -38.190788094460 gnorm: 0.000401046655 xtb: 6.7.1 (edcfbbe)
C           -2.86246522817452        1.43621070613529        0.43980481122419
C           -2.08933031697440        0.14587693859537        0.16216205352513
C           -2.79846593570902       -1.04405594718496        0.80200155139127
C           -1.87396907884023       -0.06334080094150       -1.36954632306523
O           -0.48396818896618       -0.18722043681516       -1.55333350472338
C            0.10862038106007        0.53037334407877       -0.47947480077318
C            1.54067474020331        0.13211665194034       -0.25754511387935
C            2.19081073096713        0.55728674934997        0.89483979536390
C            3.50404524468257        0.19032679139284        1.12515530144452
C            4.17623571133373       -0.60030304904086        0.20732601326287
C            3.53026463458643       -1.02258448053984       -0.94183460171992
C            2.21506071182555       -0.65887956034627       -1.17539869759659
N           -0.72533654540261        0.28748071336132        0.68199731797796
H           -3.84849238299204        1.39214385300892       -0.01608237340929
H           -2.32453374292074        2.29165129587991        0.04007976886802
H           -2.97197019423735        1.57210844766371        1.51225154621575
H           -2.27202480083578       -1.97005374474770        0.57613370005600
H           -2.83519725847996       -0.91617876587737        1.88178846961830
H           -3.81585586055811       -1.12232686604698        0.42627960138622
H           -2.34568007247581       -0.97340565205175       -1.74366199335799
H           -2.25542466295239        0.79952633190001       -1.93272102357736
H            0.05410007993389        1.61481158776442       -0.70519719120865
H            1.65664307380186        1.17038268703930        1.60514303195039
H            4.00487181479011        0.52164140700647        2.02330908588493
H            5.20201374014789       -0.88624244350546        0.38875122759207
H            4.05136864742718       -1.63877929313083       -1.65982772701771
H            1.69831972780822       -0.98400510112814       -2.06454018883476
H           -0.43031496904538       -0.57456136375710        1.13214026340391
