      -----------------------------------------------------------      
     |                   =====================                   |     
     |                           x T B                           |     
     |                   =====================                   |     
     |                         S. Grimme                         |     
     |          Mulliken Center for Theoretical Chemistry        |     
     |                    University of Bonn                     |     
      -----------------------------------------------------------      

   * xtb version 6.7.1 (edcfbbe) compiled by 'conda@5dfe00f5fb80' on 2026-06-10

   xtb is free software: you can redistribute it and/or modify it under
   the terms of the GNU Lesser General Public License as published by
   the Free Software Foundation, either version 3 of the License, or
   (at your option) any later version.
   
   xtb is distributed in the hope that it will be useful,
   but WITHOUT ANY WARRANTY; without even the implied warranty of
   MERCHANTABILITY or FITNESS FOR A PARTICULAR PURPOSE.  See the
   GNU Lesser General Public License for more details.
   
   Cite this work as:
   * C. Bannwarth, E. Caldeweyher, S. Ehlert, A. Hansen, P. Pracht,
     J. Seibert, S. Spicher, S. Grimme, WIREs Comput. Mol. Sci., 2020, 11,
     e01493. DOI: 10.1002/wcms.1493
   
   for GFN2-xTB:
   * C. Bannwarth, S. Ehlert and S. Grimme., J. Chem. Theory Comput., 2019,
     15, 1652-1671. DOI: 10.1021/acs.jctc.8b01176
   for GFN1-xTB:
   * S. Grimme, C. Bannwarth, P. Shushkov, J. Chem. Theory Comput., 2017,
     13, 1989-2009. DOI: 10.1021/acs.jctc.7b00118
   for GFN0-xTB:
   * P. Pracht, E. Caldeweyher, S. Ehlert, S. Grimme, ChemRxiv, 2019, preprint.
     DOI: 10.26434/chemrxiv.8326202.v1
   for GFN-FF:
   * S. Spicher and S. Grimme, Angew. Chem. Int. Ed., 2020, 59, 15665-15673.
     DOI: 10.1002/anie.202004239
   
   for ALPB and GBSA implicit solvation:
   * S. Ehlert, M. Stahn, S. Spicher, S. Grimme, J. Chem. Theory Comput.,
     2021, 17, 4250-4261. DOI: 10.1021/acs.jctc.1c00471
   
   for ddCOSMO and CPCM-X implicit solvation:
   * M. Stahn, S. Ehlert, S. Grimme, J. Phys. Chem. A,
     2023, XX, XXXX-XXXX. DOI: 10.1021/acs.jpca.3c04382
   
   for DFT-D4:
   * E. Caldeweyher, C. Bannwarth and S. Grimme, J. Chem. Phys., 2017,
     147, 034112. DOI: 10.1063/1.4993215
   * E. Caldeweyher, S. Ehlert, A. Hansen, H. Neugebauer, S. Spicher,
     C. Bannwarth and S. Grimme, J. Chem. Phys., 2019, 150, 154122.
     DOI: 10.1063/1.5090222
   * E. Caldeweyher, J.-M. Mewes, S. Ehlert and S. Grimme, Phys. Chem. Chem. Phys.
     2020, 22, 8499-8512. DOI: 10.1039/D0CP00502A
   
   for sTDA-xTB:
   * S. Grimme and C. Bannwarth, J. Chem. Phys., 2016, 145, 054103.
     DOI: 10.1063/1.4959605
   
   in the mass-spec context:
   * V. Asgeirsson, C. Bauer and S. Grimme, Chem. Sci., 2017, 8, 4879.
     DOI: 10.1039/c7sc00601b
   * J. Koopman and S. Grimme, ACS Omega 2019, 4, 12, 15120-15133.
     DOI: 10.1021/acsomega.9b02011
   
   for metadynamics refer to:
   * S. Grimme, J. Chem. Theory Comput., 2019, 155, 2847-2862
     DOI: 10.1021/acs.jctc.9b00143
   
   for SPH calculations refer to:
   * S. Spicher and S. Grimme, J. Chem. Theory Comput., 2021, 17, 1701-1714
     DOI: 10.1021/acs.jctc.0c01306
   
   for ONIOM refer to:
   * C. Plett, A. Katbashev, S. Ehlert, S. Grimme, M. Bursch,
     Phys. Chem. Chem. Phys., 2023, 25, 17860-17868. DOI: 10.1039/D3CP02178E
   
   for DIPRO refer to:
   * J. Kohn, N. Gildemeister, S. Grimme, D. Fazzi, A. Hansen,
     J. Chem. Phys., 2023, just accepted.
   
   for PTB refer to:
   * S. Grimme, M. Mueller, A. Hansen, J. Chem. Phys., 2023, 158, 124111.
     DOI: 10.1063/5.0137838
   
   with help from (in alphabetical order)
   P. Atkinson, C. Bannwarth, F. Bohle, G. Brandenburg, E. Caldeweyher
   M. Checinski, S. Dohm, S. Ehlert, S. Ehrlich, I. Gerasimov, C. Hölzer
   A. Katbashev, J. Kohn, J. Koopman, C. Lavigne, S. Lehtola, F. März, M. Müller,
   F. Musil, H. Neugebauer, J. Pisarek, C. Plett, P. Pracht, F. Pultar,
   J. Seibert, P. Shushkov, S. Spicher, M. Stahn, M. Steiner, T. Strunk,
   J. Stückrath, T. Rose, and J. Unsleber
   
 * started run on 2026/07/07 at 10:39:57.267     
   ID    Z sym.   atoms
    1    6 C      1-4, 6, 8
    2    8 O      5, 7, 9
    3    1 H      10-23

           -------------------------------------------------
          |                Calculation Setup                |
           -------------------------------------------------

          program call               : /home/ws/xd2484/miniforge3/envs/p3z_dft/bin/xtb xtb_input.xyz --gfn 2 --opt tight --cycles 500 --chrg 0 --uhf 0
          hostname                   : gpu10
          coordinate file            : xtb_input.xyz
          omp threads                :                    16


           -------------------------------------------------
          |                 G F N 2 - x T B                 |
           -------------------------------------------------

        Reference                      10.1021/acs.jctc.8b01176
      * Hamiltonian:
        H0-scaling (s, p, d)           1.850000    2.230000    2.230000
        zeta-weighting                 0.500000
      * Dispersion:
        s8                             2.700000
        a1                             0.520000
        a2                             5.000000
        s9                             5.000000
      * Repulsion:
        kExp                           1.500000    1.000000
        rExp                           1.000000
      * Coulomb:
        alpha                          2.000000
        third order                    shell-resolved
        anisotropic                    true
        a3                             3.000000
        a5                             4.000000
        cn-shift                       1.200000
        cn-exp                         4.000000
        max-rad                        5.000000


          ...................................................
          :                      SETUP                      :
          :.................................................:
          :  # basis functions                  50          :
          :  # atomic orbitals                  50          :
          :  # shells                           32          :
          :  # electrons                        56          :
          :  max. iterations                   250          :
          :  Hamiltonian                  GFN2-xTB          :
          :  restarted?                      false          :
          :  GBSA solvation                  false          :
          :  PC potential                    false          :
          :  electronic temp.          300.0000000     K    :
          :  accuracy                    1.0000000          :
          :  -> integral cutoff          0.2500000E+02      :
          :  -> integral neglect         0.1000000E-07      :
          :  -> SCF convergence          0.1000000E-05 Eh   :
          :  -> wf. convergence          0.1000000E-03 e    :
          :  Broyden damping             0.4000000          :
          :  net charge                          0          :
          :  unpaired electrons                  0          :
          ...................................................

 iter      E             dE          RMSdq      gap      omega  full diag
   1    -32.4214305 -0.324214E+02  0.384E+00   11.14       0.0  T
   2    -32.4626983 -0.412677E-01  0.207E+00   10.53       1.0  T
   3    -32.4639607 -0.126248E-02  0.753E-01   10.42       1.0  T
   4    -32.4644096 -0.448838E-03  0.130E-01   10.36       1.0  T
   5    -32.4644506 -0.409902E-04  0.693E-02   10.40       1.0  T
   6    -32.4644575 -0.694790E-05  0.172E-02   10.42       1.2  T
   7    -32.4644599 -0.235209E-05  0.733E-03   10.41       2.8  T
   8    -32.4644600 -0.139455E-06  0.244E-03   10.41       8.6  T
   9    -32.4644600 -0.786429E-08  0.945E-04   10.41      22.1  T
  10    -32.4644600 -0.196203E-08  0.145E-04   10.41     144.2  T

   *** convergence criteria satisfied after 10 iterations ***

         #    Occupation            Energy/Eh            Energy/eV
      -------------------------------------------------------------
         1        2.0000           -0.6988422             -19.0165
       ...           ...                  ...                  ...
        22        2.0000           -0.4516824             -12.2909
        23        2.0000           -0.4344791             -11.8228
        24        2.0000           -0.4279309             -11.6446
        25        2.0000           -0.4171852             -11.3522
        26        2.0000           -0.4158487             -11.3158
        27        2.0000           -0.4145037             -11.2792
        28        2.0000           -0.3909391             -10.6380 (HOMO)
        29                         -0.0082917              -0.2256 (LUMO)
        30                          0.0071790               0.1954
        31                          0.0531338               1.4458
        32                          0.0540998               1.4721
        33                          0.0848817               2.3097
       ...                                ...                  ...
        50                          0.3022445               8.2245
      -------------------------------------------------------------
                  HL-Gap            0.3826475 Eh           10.4124 eV
             Fermi-level           -0.1996154 Eh           -5.4318 eV

 SCC (total)                   0 d,  0 h,  0 min,  0.228 sec
 SCC setup                      ...        0 min,  0.010 sec (  4.590%)
 Dispersion                     ...        0 min,  0.021 sec (  9.071%)
 classical contributions        ...        0 min,  0.011 sec (  4.770%)
 integral evaluation            ...        0 min,  0.018 sec (  7.851%)
 iterations                     ...        0 min,  0.126 sec ( 55.543%)
 molecular gradient             ...        0 min,  0.041 sec ( 18.094%)
 printout                       ...        0 min,  0.000 sec (  0.069%)

         :::::::::::::::::::::::::::::::::::::::::::::::::::::
         ::                     SUMMARY                     ::
         :::::::::::::::::::::::::::::::::::::::::::::::::::::
         :: total energy             -32.163463253001 Eh    ::
         :: gradient norm              0.038242391296 Eh/a0 ::
         :: HOMO-LUMO gap             10.412368116701 eV    ::
         ::.................................................::
         :: SCC energy               -32.464320907810 Eh    ::
         :: -> isotropic ES            0.074444679294 Eh    ::
         :: -> anisotropic ES          0.003588965779 Eh    ::
         :: -> anisotropic XC          0.002922112094 Eh    ::
         :: -> dispersion             -0.016621499196 Eh    ::
         :: repulsion energy           0.300857654809 Eh    ::
         :: add. restraining           0.000000000000 Eh    ::
         :: total charge              -0.000000000000 e     ::
         :::::::::::::::::::::::::::::::::::::::::::::::::::::

      ----------------------------------------------------------- 
     |                   =====================                   |
     |                        A N C O P T                        |
     |                   =====================                   |
     |               Approximate Normal Coordinate               |
     |                Rational Function Optimizer                |
      ----------------------------------------------------------- 
      ----------------------------------------------------------- 
     |                   =====================                   |
     |                        A N C O P T                        |
     |                   =====================                   |
     |               Approximate Normal Coordinate               |
     |                Rational Function Optimizer                |
      ----------------------------------------------------------- 

          ...................................................
          :                      SETUP                      :
          :.................................................:
          :   optimization level             tight          :
          :   max. optcycles                   500          :
          :   ANC micro-cycles                  20          :
          :   degrees of freedom                63          :
          :.................................................:
          :   RF solver                   davidson          :
          :   write xtbopt.log                true          :
          :   linear?                        false          :
          :   energy convergence         0.1000000E-05 Eh   :
          :   grad. convergence          0.8000000E-03 Eh/α :
          :   maxmium RF displ.          1.0000000          :
          :   Hlow (freq-cutoff)         0.1000000E-01      :
          :   Hmax (freq-cutoff)         5.0000000          :
          :   S6 in model hess.         20.0000000          :
          ...................................................

generating ANC from exact Hessian ...
Using Lindh-Hessian (1995)
 Shifting diagonal of input Hessian by    7.7371195230768082E-003
 Lowest  eigenvalues of input Hessian
    0.000000    0.000000    0.000000    0.000000    0.000000    0.000000
    0.010000    0.011388    0.011971    0.013129    0.013487    0.014766
    0.015561    0.017817    0.020018    0.025278    0.028120    0.035060
 Highest eigenvalues
    1.231965    1.251151    1.266742    1.411297    1.421710    1.446138


........................................................................
.............................. CYCLE    1 ..............................
........................................................................

 iter      E             dE          RMSdq      gap      omega  full diag
   1    -32.4644600 -0.324645E+02  0.490E-05   10.41       0.0  T
   2    -32.4644600 -0.373745E-11  0.290E-05   10.41     719.0  T
   3    -32.4644600 -0.419220E-12  0.926E-06   10.41    2252.4  T
     SCC iter.                  ...        0 min,  0.040 sec
     gradient                   ...        0 min,  0.034 sec
 * total energy  :   -32.1634633 Eh     change       -0.3662137E-10 Eh
   gradient norm :     0.0382438 Eh/α   predicted     0.0000000E+00 (-100.00%)
   displ. norm   :     0.2712923 α      lambda       -0.5434523E-02
   maximum displ.:     0.1569871 α      in ANC's #19, #10, #15, ...

........................................................................
.............................. CYCLE    2 ..............................
........................................................................

 iter      E             dE          RMSdq      gap      omega  full diag
   1    -32.4764823 -0.324765E+02  0.215E-01   10.66       0.0  T
   2    -32.4764978 -0.155395E-04  0.124E-01   10.69       1.0  T
   3    -32.4764972  0.636043E-06  0.191E-02   10.70       1.1  T
   4    -32.4765011 -0.388506E-05  0.494E-03   10.70       4.2  T
   5    -32.4765012 -0.108503E-06  0.216E-03   10.70       9.7  T
   6    -32.4765012 -0.656003E-08  0.914E-04   10.70      22.8  T
   7    -32.4765012 -0.186864E-08  0.193E-04   10.70     108.1  T
     SCC iter.                  ...        0 min,  0.131 sec
     gradient                   ...        0 min,  0.050 sec
 * total energy  :   -32.1669239 Eh     change       -0.3460664E-02 Eh
   gradient norm :     0.0182663 Eh/α   predicted    -0.2917339E-02 ( -15.70%)
   displ. norm   :     0.1658034 α      lambda       -0.1050235E-02
   maximum displ.:     0.0884733 α      in ANC's #10, #5, #15, ...

........................................................................
.............................. CYCLE    3 ..............................
........................................................................

 iter      E             dE          RMSdq      gap      omega  full diag
   1    -32.4824301 -0.324824E+02  0.889E-02   10.88       0.0  T
   2    -32.4824357 -0.563553E-05  0.520E-02   10.89       1.0  T
   3    -32.4824357  0.297903E-07  0.110E-02   10.91       1.9  T
   4    -32.4824365 -0.829477E-06  0.292E-03   10.90       7.1  T
   5    -32.4824365 -0.575196E-07  0.104E-03   10.90      20.0  T
   6    -32.4824366 -0.219991E-08  0.525E-04   10.90      39.7  T
   7    -32.4824366 -0.390841E-09  0.952E-05   10.90     219.1  T
     SCC iter.                  ...        0 min,  0.113 sec
     gradient                   ...        0 min,  0.047 sec
 * total energy  :   -32.1675641 Eh     change       -0.6401551E-03 Eh
   gradient norm :     0.0073743 Eh/α   predicted    -0.5400008E-03 ( -15.65%)
   displ. norm   :     0.1077943 α      lambda       -0.2342065E-03
   maximum displ.:     0.0604819 α      in ANC's #1, #5, #10, ...

........................................................................
.............................. CYCLE    4 ..............................
........................................................................

 iter      E             dE          RMSdq      gap      omega  full diag
   1    -32.4835657 -0.324836E+02  0.501E-02   10.98       0.0  T
   2    -32.4835671 -0.133927E-05  0.301E-02   10.99       1.0  T
   3    -32.4835671 -0.402112E-07  0.485E-03   10.99       4.3  T
   4    -32.4835673 -0.188377E-06  0.160E-03   10.99      13.0  T
   5    -32.4835673 -0.160629E-07  0.551E-04   10.99      37.8  T
   6    -32.4835673 -0.656783E-09  0.276E-04   10.99      75.6  T
     SCC iter.                  ...        0 min,  0.093 sec
     gradient                   ...        0 min,  0.049 sec
 * total energy  :   -32.1677325 Eh     change       -0.1683780E-03 Eh
   gradient norm :     0.0031353 Eh/α   predicted    -0.1184692E-03 ( -29.64%)
   displ. norm   :     0.1359440 α      lambda       -0.1516408E-03
   maximum displ.:     0.0927849 α      in ANC's #1, #5, #14, ...

........................................................................
.............................. CYCLE    5 ..............................
........................................................................

 iter      E             dE          RMSdq      gap      omega  full diag
   1    -32.4830386 -0.324830E+02  0.575E-02   11.04       0.0  T
   2    -32.4830395 -0.980167E-06  0.348E-02   11.05       1.0  T
   3    -32.4830397 -0.136940E-06  0.348E-03   11.05       6.0  T
   4    -32.4830398 -0.772252E-07  0.139E-03   11.05      15.0  T
   5    -32.4830398 -0.830421E-08  0.558E-04   11.05      37.4  T
   6    -32.4830398 -0.875900E-09  0.244E-04   11.05      85.3  T
     SCC iter.                  ...        0 min,  0.078 sec
     gradient                   ...        0 min,  0.028 sec
 * total energy  :   -32.1678349 Eh     change       -0.1024935E-03 Eh
   gradient norm :     0.0025930 Eh/α   predicted    -0.7730202E-04 ( -24.58%)
   displ. norm   :     0.1076869 α      lambda       -0.6072273E-04
   maximum displ.:     0.0835993 α      in ANC's #1, #5, #7, ...

........................................................................
.............................. CYCLE    6 ..............................
........................................................................

 iter      E             dE          RMSdq      gap      omega  full diag
   1    -32.4825763 -0.324826E+02  0.386E-02   11.07       0.0  T
   2    -32.4825765 -0.207107E-06  0.234E-02   11.07       1.0  T
   3    -32.4825766 -0.681078E-07  0.151E-03   11.07      13.8  T
   4    -32.4825766 -0.756069E-08  0.739E-04   11.07      28.2  T
   5    -32.4825766 -0.132484E-08  0.259E-04   11.07      80.4  T
     SCC iter.                  ...        0 min,  0.069 sec
     gradient                   ...        0 min,  0.041 sec
 * total energy  :   -32.1678818 Eh     change       -0.4688724E-04 Eh
   gradient norm :     0.0026830 Eh/α   predicted    -0.3071599E-04 ( -34.49%)
   displ. norm   :     0.0888438 α      lambda       -0.4240880E-04
   maximum displ.:     0.0738610 α      in ANC's #1, #5, #7, ...

........................................................................
.............................. CYCLE    7 ..............................
........................................................................

 iter      E             dE          RMSdq      gap      omega  full diag
   1    -32.4825608 -0.324826E+02  0.272E-02   11.08       0.0  T
   2    -32.4825609 -0.120829E-06  0.164E-02   11.08       1.3  T
   3    -32.4825609 -0.149369E-07  0.144E-03   11.08      14.5  T
   4    -32.4825609 -0.215488E-07  0.599E-04   11.08      34.8  T
   5    -32.4825609 -0.937973E-09  0.211E-04   11.08      98.8  T
     SCC iter.                  ...        0 min,  0.057 sec
     gradient                   ...        0 min,  0.034 sec
 * total energy  :   -32.1679174 Eh     change       -0.3557721E-04 Eh
   gradient norm :     0.0017375 Eh/α   predicted    -0.2138506E-04 ( -39.89%)
   displ. norm   :     0.1150638 α      lambda       -0.3443581E-04
   maximum displ.:     0.1016073 α      in ANC's #1, #3, #7, ...

........................................................................
.............................. CYCLE    8 ..............................
........................................................................

 iter      E             dE          RMSdq      gap      omega  full diag
   1    -32.4829320 -0.324829E+02  0.299E-02   11.07       0.0  T
   2    -32.4829322 -0.266638E-06  0.178E-02   11.07       1.2  T
   3    -32.4829322 -0.115018E-07  0.206E-03   11.07      10.1  T
   4    -32.4829323 -0.375953E-07  0.704E-04   11.07      29.6  T
   5    -32.4829323 -0.205215E-08  0.289E-04   11.07      72.2  T
     SCC iter.                  ...        0 min,  0.068 sec
     gradient                   ...        0 min,  0.040 sec
 * total energy  :   -32.1679585 Eh     change       -0.4109246E-04 Eh
   gradient norm :     0.0016072 Eh/α   predicted    -0.1732850E-04 ( -57.83%)
   displ. norm   :     0.0845913 α      lambda       -0.2311530E-04
   maximum displ.:     0.0781097 α      in ANC's #1, #3, #7, ...

........................................................................
.............................. CYCLE    9 ..............................
........................................................................

 iter      E             dE          RMSdq      gap      omega  full diag
   1    -32.4831801 -0.324832E+02  0.193E-02   11.07       0.0  T
   2    -32.4831801 -0.831383E-07  0.115E-02   11.07       1.8  T
   3    -32.4831802 -0.125577E-07  0.918E-04   11.07      22.7  T
   4    -32.4831802 -0.402550E-08  0.394E-04   11.07      52.9  T
     SCC iter.                  ...        0 min,  0.059 sec
     gradient                   ...        0 min,  0.048 sec
 * total energy  :   -32.1679905 Eh     change       -0.3204136E-04 Eh
   gradient norm :     0.0018413 Eh/α   predicted    -0.1159628E-04 ( -63.81%)
   displ. norm   :     0.0949218 α      lambda       -0.2803880E-04
   maximum displ.:     0.0837222 α      in ANC's #1, #5, #3, ...

........................................................................
.............................. CYCLE   10 ..............................
........................................................................

 iter      E             dE          RMSdq      gap      omega  full diag
   1    -32.4833536 -0.324834E+02  0.235E-02   11.06       0.0  T
   2    -32.4833537 -0.124464E-06  0.141E-02   11.06       1.5  T
   3    -32.4833537 -0.724330E-08  0.133E-03   11.06      15.7  T
   4    -32.4833538 -0.181647E-07  0.511E-04   11.06      40.8  T
   5    -32.4833538 -0.402110E-09  0.190E-04   11.06     110.0  T
     SCC iter.                  ...        0 min,  0.079 sec
     gradient                   ...        0 min,  0.040 sec
 * total energy  :   -32.1680295 Eh     change       -0.3895855E-04 Eh
   gradient norm :     0.0015487 Eh/α   predicted    -0.1407649E-04 ( -63.87%)
   displ. norm   :     0.1344540 α      lambda       -0.3674182E-04
   maximum displ.:     0.1153036 α      in ANC's #1, #5, #4, ...

........................................................................
.............................. CYCLE   11 ..............................
........................................................................

 iter      E             dE          RMSdq      gap      omega  full diag
   1    -32.4830947 -0.324831E+02  0.335E-02   11.05       0.0  T
   2    -32.4830949 -0.188632E-06  0.201E-02   11.05       1.0  T
   3    -32.4830949 -0.151346E-07  0.173E-03   11.05      12.1  T
   4    -32.4830949 -0.308228E-07  0.708E-04   11.05      29.5  T
   5    -32.4830949 -0.711594E-09  0.221E-04   11.05      94.4  T
     SCC iter.                  ...        0 min,  0.108 sec
     gradient                   ...        0 min,  0.052 sec
 * total energy  :   -32.1680787 Eh     change       -0.4923742E-04 Eh
   gradient norm :     0.0011579 Eh/α   predicted    -0.1851979E-04 ( -62.39%)
   displ. norm   :     0.1620908 α      lambda       -0.3951117E-04
   maximum displ.:     0.1400195 α      in ANC's #1, #5, #4, ...

........................................................................
.............................. CYCLE   12 ..............................
........................................................................

 iter      E             dE          RMSdq      gap      omega  full diag
   1    -32.4829449 -0.324829E+02  0.404E-02   11.04       0.0  T
   2    -32.4829451 -0.272744E-06  0.243E-02   11.04       1.0  T
   3    -32.4829452 -0.288650E-07  0.191E-03   11.04      10.9  T
   4    -32.4829452 -0.335785E-07  0.792E-04   11.04      26.3  T
   5    -32.4829452 -0.665750E-09  0.200E-04   11.04     104.1  T
     SCC iter.                  ...        0 min,  0.091 sec
     gradient                   ...        0 min,  0.049 sec
 * total energy  :   -32.1681296 Eh     change       -0.5089552E-04 Eh
   gradient norm :     0.0012609 Eh/α   predicted    -0.1998813E-04 ( -60.73%)
   displ. norm   :     0.1691213 α      lambda       -0.3525349E-04
   maximum displ.:     0.1491269 α      in ANC's #1, #5, #4, ...

........................................................................
.............................. CYCLE   13 ..............................
........................................................................

 iter      E             dE          RMSdq      gap      omega  full diag
   1    -32.4827721 -0.324828E+02  0.411E-02   11.03       0.0  T
   2    -32.4827723 -0.204622E-06  0.246E-02   11.03       1.0  T
   3    -32.4827723 -0.470337E-07  0.157E-03   11.03      13.3  T
   4    -32.4827724 -0.134262E-07  0.776E-04   11.03      26.9  T
   5    -32.4827724 -0.835335E-09  0.197E-04   11.03     105.9  T
     SCC iter.                  ...        0 min,  0.064 sec
     gradient                   ...        0 min,  0.041 sec
 * total energy  :   -32.1681736 Eh     change       -0.4392991E-04 Eh
   gradient norm :     0.0015352 Eh/α   predicted    -0.1785155E-04 ( -59.36%)
   displ. norm   :     0.1725703 α      lambda       -0.3128894E-04
   maximum displ.:     0.1568620 α      in ANC's #1, #5, #7, ...

........................................................................
.............................. CYCLE   14 ..............................
........................................................................

 iter      E             dE          RMSdq      gap      omega  full diag
   1    -32.4827773 -0.324828E+02  0.412E-02   11.03       0.0  T
   2    -32.4827775 -0.212532E-06  0.247E-02   11.04       1.0  T
   3    -32.4827776 -0.480622E-07  0.160E-03   11.04      13.0  T
   4    -32.4827776 -0.145489E-07  0.774E-04   11.04      26.9  T
   5    -32.4827776 -0.869029E-09  0.193E-04   11.04     108.0  T
     SCC iter.                  ...        0 min,  0.068 sec
     gradient                   ...        0 min,  0.042 sec
 * total energy  :   -32.1682105 Eh     change       -0.3692883E-04 Eh
   gradient norm :     0.0014331 Eh/α   predicted    -0.1585309E-04 ( -57.07%)
   displ. norm   :     0.1665536 α      lambda       -0.2191651E-04
   maximum displ.:     0.1523976 α      in ANC's #1, #7, #5, ...

........................................................................
.............................. CYCLE   15 ..............................
........................................................................

 iter      E             dE          RMSdq      gap      omega  full diag
   1    -32.4828737 -0.324829E+02  0.401E-02   11.03       0.0  T
   2    -32.4828738 -0.142298E-06  0.240E-02   11.04       1.0  T
   3    -32.4828739 -0.459373E-07  0.140E-03   11.04      14.9  T
   4    -32.4828739 -0.746102E-08  0.691E-04   11.04      30.2  T
   5    -32.4828739 -0.128091E-08  0.190E-04   11.04     109.5  T
     SCC iter.                  ...        0 min,  0.088 sec
     gradient                   ...        0 min,  0.036 sec
 * total energy  :   -32.1682331 Eh     change       -0.2261693E-04 Eh
   gradient norm :     0.0011690 Eh/α   predicted    -0.1109509E-04 ( -50.94%)
   displ. norm   :     0.1224178 α      lambda       -0.1193412E-04
   maximum displ.:     0.1140825 α      in ANC's #1, #7, #42, ...

........................................................................
.............................. CYCLE   16 ..............................
........................................................................

 iter      E             dE          RMSdq      gap      omega  full diag
   1    -32.4833865 -0.324834E+02  0.298E-02   11.04       0.0  T
   2    -32.4833866 -0.157310E-06  0.178E-02   11.04       1.2  T
   3    -32.4833867 -0.251049E-07  0.115E-03   11.04      18.1  T
   4    -32.4833867 -0.434323E-08  0.527E-04   11.04      39.5  T
   5    -32.4833867 -0.357574E-09  0.182E-04   11.04     114.7  T
     SCC iter.                  ...        0 min,  0.086 sec
     gradient                   ...        0 min,  0.046 sec
 * total energy  :   -32.1682411 Eh     change       -0.7943292E-05 Eh
   gradient norm :     0.0011157 Eh/α   predicted    -0.6009523E-05 ( -24.34%)
   displ. norm   :     0.0463538 α      lambda       -0.4024950E-05
   maximum displ.:     0.0398747 α      in ANC's #1, #7, #4, ...

........................................................................
.............................. CYCLE   17 ..............................
........................................................................

 iter      E             dE          RMSdq      gap      omega  full diag
   1    -32.4830723 -0.324831E+02  0.133E-02   11.04       0.0  T
   2    -32.4830723 -0.666402E-07  0.784E-03   11.04       2.7  T
   3    -32.4830723 -0.500290E-08  0.905E-04   11.03      23.0  T
   4    -32.4830723 -0.280541E-08  0.281E-04   11.03      74.2  T
     SCC iter.                  ...        0 min,  0.064 sec
     gradient                   ...        0 min,  0.040 sec
 * total energy  :   -32.1682428 Eh     change       -0.1705752E-05 Eh
   gradient norm :     0.0008628 Eh/α   predicted    -0.2016743E-05 (  18.23%)
   displ. norm   :     0.0348575 α      lambda       -0.2945874E-05
   maximum displ.:     0.0288875 α      in ANC's #1, #5, #2, ...

........................................................................
.............................. CYCLE   18 ..............................
........................................................................

 iter      E             dE          RMSdq      gap      omega  full diag
   1    -32.4834868 -0.324835E+02  0.106E-02   11.03       0.0  T
   2    -32.4834869 -0.351351E-07  0.632E-03   11.03       3.3  T
   3    -32.4834869 -0.530559E-08  0.600E-04   11.03      34.8  T
   4    -32.4834869 -0.134268E-08  0.250E-04   11.03      83.4  T
     SCC iter.                  ...        0 min,  0.065 sec
     gradient                   ...        0 min,  0.047 sec
 * total energy  :   -32.1682449 Eh     change       -0.2186224E-05 Eh
   gradient norm :     0.0004953 Eh/α   predicted    -0.1477936E-05 ( -32.40%)
   displ. norm   :     0.0108951 α      lambda       -0.1325040E-05
   maximum displ.:     0.0047294 α      in ANC's #12, #5, #3, ...

........................................................................
.............................. CYCLE   19 ..............................
........................................................................

 iter      E             dE          RMSdq      gap      omega  full diag
   1    -32.4833907 -0.324834E+02  0.574E-03   11.03       0.0  T
   2    -32.4833908 -0.807302E-08  0.345E-03   11.03       6.0  T
   3    -32.4833908 -0.180852E-08  0.356E-04   11.03      58.5  T
   4    -32.4833908 -0.851415E-09  0.156E-04   11.03     134.0  T
     SCC iter.                  ...        0 min,  0.056 sec
     gradient                   ...        0 min,  0.037 sec
 * total energy  :   -32.1682460 Eh     change       -0.1097692E-05 Eh
   gradient norm :     0.0003562 Eh/α   predicted    -0.6630834E-06 ( -39.59%)
   displ. norm   :     0.0116360 α      lambda       -0.5783290E-06
   maximum displ.:     0.0057322 α      in ANC's #1, #3, #12, ...

........................................................................
.............................. CYCLE   20 ..............................
........................................................................

 iter      E             dE          RMSdq      gap      omega  full diag
   1    -32.4833730 -0.324834E+02  0.471E-03   11.03       0.0  T
   2    -32.4833730 -0.587930E-08  0.287E-03   11.03       7.3  T
   3    -32.4833730 -0.177233E-08  0.256E-04   11.03      81.6  T
   4    -32.4833730 -0.259078E-09  0.121E-04   11.03     172.7  T
     SCC iter.                  ...        0 min,  0.064 sec
     gradient                   ...        0 min,  0.031 sec
 * total energy  :   -32.1682466 Eh     change       -0.5225672E-06 Eh
   gradient norm :     0.0002504 Eh/α   predicted    -0.2927315E-06 ( -43.98%)
   displ. norm   :     0.0092129 α      lambda       -0.2594785E-06
   maximum displ.:     0.0052638 α      in ANC's #1, #3, #12, ...

   *** GEOMETRY OPTIMIZATION CONVERGED AFTER 20 ITERATIONS ***

------------------------------------------------------------------------
 total energy gain   :        -0.0047833 Eh       -3.0016 kcal/mol
 total RMSD          :         0.3460538 a0        0.1831 Å
 total power (kW/mol):        -0.6279291 (step)   -3.9744 (real)
------------------------------------------------------------------------

 ANCopt (total)                0 d,  0 h,  0 min,  3.160 sec
 optimizer setup                ...        0 min,  0.001 sec (  0.020%)
 model hessian                  ...        0 min,  0.025 sec (  0.785%)
 ANC generation                 ...        0 min,  0.001 sec (  0.027%)
 coordinate transformation      ...        0 min,  0.000 sec (  0.006%)
 single point calculation       ...        0 min,  3.044 sec ( 96.330%)
 optimization log               ...        0 min,  0.002 sec (  0.063%)
 hessian update                 ...        0 min,  0.082 sec (  2.590%)
 rational function              ...        0 min,  0.002 sec (  0.056%)

================
 final structure:
================
23
 xtb: 6.7.1 (edcfbbe)
C            2.27801531846925       -0.04433229123624        0.36055936575771
C            0.87933646291797       -0.50239917454823        0.75546545326500
C           -0.25464104517772        0.01250613938454       -0.14906273809473
C           -1.59991084333112       -0.28907126671126        0.53641696360550
O           -1.70777015996067        0.43730583801148        1.74798248907811
C           -0.24945152658308       -0.72097508666955       -1.49863708283173
O           -0.50982613619416       -2.09328564329230       -1.29678015931027
C           -0.14164979179940        1.52656724304504       -0.41895912488013
O            0.10507114858213        2.28810153695257        0.72798627139157
H            3.00793350646897       -0.50380324515924        1.02324145001647
H            2.52141240488808       -0.33317579595949       -0.65908591310485
H            2.36583333018362        1.03406187709437        0.45273434530996
H            0.83096306638348       -1.59287898705499        0.74467182517620
H            0.67777698415210       -0.16362709259008        1.77237914820329
H           -1.65929743429136       -1.36665412545294        0.72532938942543
H           -2.42013426496630       -0.00942401170796       -0.14093275516356
H           -2.51482007485256        0.16926947380345        2.19677033781925
H           -1.01856091297628       -0.28107212566947       -2.15197685385200
H            0.72533647480014       -0.58017427599988       -1.98138500305735
H           -0.41934825392080       -2.55192053104225       -2.13797743946873
H           -1.07059193582411        1.86213639396153       -0.91020258562895
H            0.68685225288513        1.72383428924902       -1.10450402910821
H           -0.51252856985470        1.97901086159123        1.40596664545007

 Bond Distances (Angstroems)
 ---------------------------
C1-C2=1.5238         C1-H10=1.0877        C1-H11=1.0874        C1-H12=1.0859        C2-C1=1.5238         C2-C3=1.5392         
C2-H13=1.0916        C2-H14=1.0906        C3-C2=1.5392         C3-C4=1.5397         C3-C6=1.5360         C3-C8=1.5421         
C4-C3=1.5397         C4-O5=1.4167         C4-H15=1.0956        C4-H16=1.0999        O5-C4=1.4167         O5-H17=0.9616        
C6-C3=1.5360         C6-O7=1.4113         C6-H18=1.1009        C6-H19=1.0969        O7-C6=1.4113         O7-H20=0.9624        
C8-C3=1.5421         C8-O9=1.3987         C8-H21=1.1031        C8-H22=1.0933        O9-C8=1.3987         O9-H23=0.9678        
H10-C1=1.0877        H11-C1=1.0874        H12-C1=1.0859        H13-C2=1.0916        H14-C2=1.0906        H15-C4=1.0956        
H16-C4=1.0999        H17-O5=0.9616        H18-C6=1.1009        H19-C6=1.0969        H20-O7=0.9624        H21-C8=1.1031        
H22-C8=1.0933        H23-O9=0.9678        
 C  H  Rav=1.0939 sigma=0.0056  Rmin=1.0859  Rmax=1.1031    11
 C  C  Rav=1.5362 sigma=0.0065  Rmin=1.5238  Rmax=1.5421     5
 O  H  Rav=0.9639 sigma=0.0028  Rmin=0.9616  Rmax=0.9678     3
 O  C  Rav=1.4089 sigma=0.0076  Rmin=1.3987  Rmax=1.4167     3

 selected bond angles (degree)
 --------------------
H10-C1-C2=109.33               H11-C1-C2=111.63               H11-C1-H10=107.99              H12-C1-C2=110.53               
H12-C1-H10=108.27              H12-C1-H11=108.98              C3-C2-C1=115.05                H13-C2-C1=109.78               
H13-C2-C3=107.20               H14-C2-C1=108.54               H14-C2-C3=107.93               H14-C2-H13=108.14              
C4-C3-C2=108.45                C6-C3-C2=110.74                C6-C3-C4=107.49                C8-C3-C2=112.17                
C8-C3-C4=109.53                C8-C3-C6=108.35                O5-C4-C3=110.29                H15-C4-C3=108.47               
H15-C4-O5=110.65               H16-C4-C3=109.12               H16-C4-O5=109.85               H16-C4-H15=108.41              
H17-O5-C4=108.67               O7-C6-C3=109.76                H18-C6-C3=109.16               H18-C6-O7=110.15               
H19-C6-C3=109.17               H19-C6-O7=110.59               H19-C6-H18=107.96              H20-O7-C6=108.73               
O9-C8-C3=113.83                H21-C8-C3=108.36               H21-C8-O9=110.37               H22-C8-C3=110.02               
H22-C8-O9=106.40               H22-C8-H21=107.70              H23-O9-C8=106.74               

 selected dihedral angles (degree)
 ---------------------------------
C3-C2-C1-H10=183.14           C3-C2-C1-H11=302.57           C3-C2-C1-H12= 64.05           H13-C2-C1-H10=304.14          
H13-C2-C1-H11= 63.56          H13-C2-C1-H12=185.04          H14-C2-C1-H10= 62.14          H14-C2-C1-H11=181.57          
H14-C2-C1-H12=303.05          C4-C3-C2-C1=191.47            C4-C3-C2-H13= 69.08           C4-C3-C2-H14=312.80           
C6-C3-C2-C1= 73.74            C6-C3-C2-H13=311.35           C6-C3-C2-H14=195.08           C8-C3-C2-C1=312.56            
C8-C3-C2-H13=190.17           C8-C3-C2-H14= 73.90           O5-C4-C3-C2= 64.38            O5-C4-C3-C6=184.15            
O5-C4-C3-C8=301.67            H15-C4-C3-C2=303.05           H15-C4-C3-C6= 62.82           H15-C4-C3-C8=180.34           
H16-C4-C3-C2=185.13           H16-C4-C3-C6=304.90           H16-C4-C3-C8= 62.42           H17-O5-C4-C3=185.34           
H17-O5-C4-H15=305.36          H17-O5-C4-H16= 65.02          O7-C6-C3-C2= 63.47            O7-C6-C3-C4=305.16            
O7-C6-C3-C8=186.88            H18-C6-C3-C2=184.30           H18-C6-C3-C4= 65.99           H18-C6-C3-C8=307.71           
H19-C6-C3-C2=302.10           H19-C6-C3-C4=183.79           H19-C6-C3-C8= 65.51           H20-O7-C6-C3=185.40           
H20-O7-C6-H18= 65.18          H20-O7-C6-H19=305.91          O9-C8-C3-C2=313.41            O9-C8-C3-C4= 73.88            
O9-C8-C3-C6=190.86            H21-C8-C3-C2=190.21           H21-C8-C3-C4=310.69           H21-C8-C3-C6= 67.67           
H22-C8-C3-C2= 72.71           H22-C8-C3-C4=193.18           H22-C8-C3-C6=310.16           H23-O9-C8-C3=313.17           
H23-O9-C8-H21= 75.25          H23-O9-C8-H22=191.82          
           -------------------------------------------------
          |                Final Singlepoint                |
           -------------------------------------------------

          ...................................................
          :                      SETUP                      :
          :.................................................:
          :  # basis functions                  50          :
          :  # atomic orbitals                  50          :
          :  # shells                           32          :
          :  # electrons                        56          :
          :  max. iterations                   250          :
          :  Hamiltonian                  GFN2-xTB          :
          :  restarted?                      false          :
          :  GBSA solvation                  false          :
          :  PC potential                    false          :
          :  electronic temp.          300.0000000     K    :
          :  accuracy                    1.0000000          :
          :  -> integral cutoff          0.2500000E+02      :
          :  -> integral neglect         0.1000000E-07      :
          :  -> SCF convergence          0.1000000E-05 Eh   :
          :  -> wf. convergence          0.1000000E-03 e    :
          :  Broyden damping             0.4000000          :
          :  net charge                          0          :
          :  unpaired electrons                  0          :
          ...................................................

 iter      E             dE          RMSdq      gap      omega  full diag
   1    -32.4833730 -0.324834E+02  0.432E-05   11.03       0.0  T
   2    -32.4833730 -0.514433E-11  0.259E-05   11.03     804.3  T
   3    -32.4833730 -0.412115E-12  0.132E-05   11.03    1573.8  T

   *** convergence criteria satisfied after 3 iterations ***

         #    Occupation            Energy/Eh            Energy/eV
      -------------------------------------------------------------
         1        2.0000           -0.6967224             -18.9588
       ...           ...                  ...                  ...
        22        2.0000           -0.4513243             -12.2812
        23        2.0000           -0.4343858             -11.8202
        24        2.0000           -0.4254990             -11.5784
        25        2.0000           -0.4186433             -11.3919
        26        2.0000           -0.4146807             -11.2840
        27        2.0000           -0.4104602             -11.1692
        28        2.0000           -0.3927922             -10.6884 (HOMO)
        29                          0.0125626               0.3418 (LUMO)
        30                          0.0216731               0.5898
        31                          0.0689793               1.8770
        32                          0.0724100               1.9704
        33                          0.0954224               2.5966
       ...                                ...                  ...
        50                          0.3195250               8.6947
      -------------------------------------------------------------
                  HL-Gap            0.4053548 Eh           11.0303 eV
             Fermi-level           -0.1901148 Eh           -5.1733 eV

 SCC (total)                   0 d,  0 h,  0 min,  0.114 sec
 SCC setup                      ...        0 min,  0.002 sec (  1.404%)
 Dispersion                     ...        0 min,  0.007 sec (  6.454%)
 classical contributions        ...        0 min,  0.005 sec (  4.140%)
 integral evaluation            ...        0 min,  0.009 sec (  8.301%)
 iterations                     ...        0 min,  0.060 sec ( 53.085%)
 molecular gradient             ...        0 min,  0.030 sec ( 26.481%)
 printout                       ...        0 min,  0.000 sec (  0.109%)

         :::::::::::::::::::::::::::::::::::::::::::::::::::::
         ::                     SUMMARY                     ::
         :::::::::::::::::::::::::::::::::::::::::::::::::::::
         :: total energy             -32.168246564623 Eh    ::
         :: gradient norm              0.000250421630 Eh/a0 ::
         :: HOMO-LUMO gap             11.030264432222 eV    ::
         ::.................................................::
         :: SCC energy               -32.483238537303 Eh    ::
         :: -> isotropic ES            0.072216577131 Eh    ::
         :: -> anisotropic ES          0.002853213760 Eh    ::
         :: -> anisotropic XC          0.002239772598 Eh    ::
         :: -> dispersion             -0.016836630479 Eh    ::
         :: repulsion energy           0.314991972681 Eh    ::
         :: add. restraining           0.000000000000 Eh    ::
         :: total charge              -0.000000000000 e     ::
         :::::::::::::::::::::::::::::::::::::::::::::::::::::

           -------------------------------------------------
          |                Property Printout                |
           -------------------------------------------------

    * Orbital Energies and Occupations

         #    Occupation            Energy/Eh            Energy/eV
      -------------------------------------------------------------
         1        2.0000           -0.6967224             -18.9588
       ...           ...                  ...                  ...
        16        2.0000           -0.5153745             -14.0241
        17        2.0000           -0.4959550             -13.4956
        18        2.0000           -0.4926953             -13.4069
        19        2.0000           -0.4820168             -13.1163
        20        2.0000           -0.4722232             -12.8498
        21        2.0000           -0.4598607             -12.5134
        22        2.0000           -0.4513243             -12.2812
        23        2.0000           -0.4343858             -11.8202
        24        2.0000           -0.4254990             -11.5784
        25        2.0000           -0.4186433             -11.3919
        26        2.0000           -0.4146807             -11.2840
        27        2.0000           -0.4104602             -11.1692
        28        2.0000           -0.3927922             -10.6884 (HOMO)
        29                          0.0125626               0.3418 (LUMO)
        30                          0.0216731               0.5898
        31                          0.0689793               1.8770
        32                          0.0724100               1.9704
        33                          0.0954224               2.5966
        34                          0.1088982               2.9633
        35                          0.1138219               3.0973
        36                          0.1281158               3.4862
        37                          0.1363528               3.7103
        38                          0.1634574               4.4479
        39                          0.1715212               4.6673
       ...                                ...                  ...
        50                          0.3195250               8.6947
      -------------------------------------------------------------
                  HL-Gap            0.4053548 Eh           11.0303 eV
             Fermi-level           -0.1901148 Eh           -5.1733 eV

     #   Z          covCN         q      C6AA      α(0)
     1   6 C        3.751    -0.106    22.593     6.779
     2   6 C        3.806    -0.060    21.645     6.623
     3   6 C        3.897    -0.003    20.579     6.449
     4   6 C        3.682     0.082    19.413     6.309
     5   8 O        1.655    -0.447    21.785     6.301
     6   6 C        3.683     0.078    19.470     6.319
     7   8 O        1.655    -0.441    21.663     6.283
     8   6 C        3.680     0.080    19.446     6.316
     9   8 O        1.656    -0.443    21.707     6.289
    10   1 H        0.925     0.036     2.509     2.477
    11   1 H        0.925     0.028     2.615     2.529
    12   1 H        0.925     0.053     2.277     2.360
    13   1 H        0.924     0.047     2.356     2.401
    14   1 H        0.924     0.055     2.259     2.351
    15   1 H        0.924     0.040     2.454     2.450
    16   1 H        0.923     0.017     2.783     2.609
    17   1 H        0.805     0.290     0.751     1.362
    18   1 H        0.923     0.011     2.874     2.651
    19   1 H        0.924     0.025     2.654     2.548
    20   1 H        0.805     0.292     0.746     1.357
    21   1 H        0.923     0.010     2.888     2.658
    22   1 H        0.924     0.039     2.459     2.452
    23   1 H        0.805     0.317     0.673     1.289

 Mol. C6AA /au·bohr⁶  :       3735.428224
 Mol. C8AA /au·bohr⁸  :      77438.889675
 Mol. α(0) /au        :         89.158319


Wiberg/Mayer (AO) data.
largest (>0.10) Wiberg bond orders for each atom

 ---------------------------------------------------------------------------
     #   Z sym  total        # sym  WBO       # sym  WBO       # sym  WBO
 ---------------------------------------------------------------------------
     1   6 C    3.996 --     2 C    1.020    10 H    0.986    11 H    0.985
                            12 H    0.985
     2   6 C    3.993 --     1 C    1.020     3 C    0.984    13 H    0.974
                            14 H    0.973
     3   6 C    3.988 --     2 C    0.984     4 C    0.981     6 C    0.980
                             8 C    0.972
     4   6 C    3.951 --     5 O    0.987     3 C    0.981    15 H    0.970
                            16 H    0.969
     5   8 O    1.962 --     4 C    0.987    17 H    0.899
     6   6 C    3.958 --     7 O    0.997     3 C    0.980    18 H    0.969
                            19 H    0.968
     7   8 O    1.953 --     6 C    0.997    20 H    0.901
     8   6 C    3.968 --     9 O    1.018     3 C    0.972    22 H    0.971
                            21 H    0.965
     9   8 O    1.960 --     8 C    1.018    23 H    0.868
    10   1 H    0.998 --     1 C    0.986
    11   1 H    0.999 --     1 C    0.985
    12   1 H    0.997 --     1 C    0.985
    13   1 H    0.998 --     2 C    0.974
    14   1 H    0.997 --     2 C    0.973
    15   1 H    0.998 --     4 C    0.970
    16   1 H    0.999 --     4 C    0.969
    17   1 H    0.916 --     5 O    0.899
    18   1 H    1.000 --     6 C    0.969
    19   1 H    0.999 --     6 C    0.968
    20   1 H    0.914 --     7 O    0.901
    21   1 H    1.000 --     8 C    0.965
    22   1 H    0.998 --     8 C    0.971
    23   1 H    0.900 --     9 O    0.868
 ---------------------------------------------------------------------------

Topologies differ in total number of bonds
Writing topology from bond orders to xtbtopo.mol

molecular dipole:
                 x           y           z       tot (Debye)
 q only:       -0.436      -0.604      -0.358
   full:       -0.812      -0.871      -0.652       3.449
molecular quadrupole (traceless):
                xx          xy          yy          xz          yz          zz
 q only:        2.576      -1.125      -7.220      -3.118       1.039       4.644
  q+dip:        4.999      -2.581     -10.883      -4.356       0.225       5.884
   full:        4.377      -2.102     -10.764      -4.664       0.920       6.388

           -------------------------------------------------
          |                Geometry Summary                 |
           -------------------------------------------------

      molecular mass/u    :      134.1738007
   center of mass at/Å    :       -0.1612730       0.0691762       0.0977852
  moments of inertia/u·Å² :        0.2867783E+03   0.3655974E+03   0.4735157E+03
rotational constants/cm⁻¹ :        0.5878280E-01   0.4610983E-01   0.3560100E-01

 * 21 selected distances

     #   Z          #   Z                                           value/Å
     1   6 C        2   6 C                                       1.5238370
     2   6 C        3   6 C                                       1.5392219
     3   6 C        4   6 C                                       1.5396696 (max)
     4   6 C        5   8 O                                       1.4167388
     3   6 C        6   6 C                                       1.5360251
     6   6 C        7   8 O                                       1.4113036
     8   6 C        9   8 O                                       1.3986743
     1   6 C       10   1 H                                       1.0876773
     1   6 C       11   1 H                                       1.0873589
     1   6 C       12   1 H                                       1.0858832
     2   6 C       13   1 H                                       1.0916057
     2   6 C       14   1 H                                       1.0906450
     4   6 C       15   1 H                                       1.0956275
     4   6 C       16   1 H                                       1.0998963
     5   8 O       17   1 H                                       0.9615528 (min)
     6   6 C       18   1 H                                       1.1008619
     6   6 C       19   1 H                                       1.0968511
     7   8 O       20   1 H                                       0.9623644
     8   6 C       21   1 H                                       1.1031140
     8   6 C       22   1 H                                       1.0932987
     9   8 O       23   1 H                                       0.9677934

 * 4 distinct bonds (by element types)

   Z      Z             #   av. dist./Å        max./Å        min./Å
   1 H    6 C          11     1.0938927     1.1031140     1.0858832
   6 C    6 C           4     1.5346884     1.5396696     1.5238370
   1 H    8 O           3     0.9639035     0.9677934     0.9615528
   6 C    8 O           3     1.4089055     1.4167388     1.3986743


optimized geometry written to: xtbopt.xyz


           -------------------------------------------------
          | TOTAL ENERGY              -32.168246564623 Eh   |
          | GRADIENT NORM               0.000250421630 Eh/α |
          | HOMO-LUMO GAP              11.030264432222 eV   |
           -------------------------------------------------

------------------------------------------------------------------------
 * finished run on 2026/07/07 at 10:40:00.861     
------------------------------------------------------------------------
 total:
 * wall-time:     0 d,  0 h,  0 min,  3.594 sec
 *  cpu-time:     0 d,  0 h,  0 min, 57.259 sec
 * ratio c/w:    15.932 speedup
 SCF:
 * wall-time:     0 d,  0 h,  0 min,  0.228 sec
 *  cpu-time:     0 d,  0 h,  0 min,  3.610 sec
 * ratio c/w:    15.849 speedup
 ANC optimizer:
 * wall-time:     0 d,  0 h,  0 min,  3.279 sec
 *  cpu-time:     0 d,  0 h,  0 min, 52.291 sec
 * ratio c/w:    15.949 speedup

