24
DEC_00086 MMFF geometry for GFN2-xTB preoptimization
C  -3.947734765381 -0.089548574227 -0.113671701594
C  -2.626838403433  0.656907682311 -0.016018919606
C  -1.436067616839 -0.294244088605 -0.132951558958
C  -0.108919659086  0.460770656842 -0.034496616721
C   1.083980435214 -0.494172656945 -0.153325136913
C   2.423543789631  0.245629840728 -0.093265224695
C   3.591290685743 -0.712243416642 -0.287873936479
O   2.553047611636  0.876196517836  1.177823380561
H  -4.785435349496  0.609565520167 -0.027599980875
H  -4.035279647705 -0.608108600017 -1.073758686987
H  -4.039844211843 -0.830359943376  0.686984437184
H  -2.585147329515  1.190150182642  0.940859198657
H  -2.580510284622  1.411137482565 -0.810179620240
H  -1.489198433424 -1.048893088126  0.661238165991
H  -1.485190545109 -0.828133997506 -1.089821231611
H  -0.065461083412  0.996283923832  0.921311108664
H  -0.055602669077  1.213611883062 -0.830304029301
H   1.012986440360 -1.049420398379 -1.096445251343
H   1.030233381386 -1.223589711419  0.664882961725
H   2.454655564486  1.024997978310 -0.863018304529
H   3.614056828843 -1.468783148354  0.504239438808
H   4.542801544384 -0.172310684233 -0.233858113836
H   3.533979822208 -1.218194409310 -1.256367922571
H   3.400653895051  1.352751048842  1.184083793766
