      -----------------------------------------------------------      
     |                   =====================                   |     
     |                           x T B                           |     
     |                   =====================                   |     
     |                         S. Grimme                         |     
     |          Mulliken Center for Theoretical Chemistry        |     
     |                    University of Bonn                     |     
      -----------------------------------------------------------      

   * xtb version 6.7.1 (edcfbbe) compiled by 'conda@5dfe00f5fb80' on 2026-06-10

   xtb is free software: you can redistribute it and/or modify it under
   the terms of the GNU Lesser General Public License as published by
   the Free Software Foundation, either version 3 of the License, or
   (at your option) any later version.
   
   xtb is distributed in the hope that it will be useful,
   but WITHOUT ANY WARRANTY; without even the implied warranty of
   MERCHANTABILITY or FITNESS FOR A PARTICULAR PURPOSE.  See the
   GNU Lesser General Public License for more details.
   
   Cite this work as:
   * C. Bannwarth, E. Caldeweyher, S. Ehlert, A. Hansen, P. Pracht,
     J. Seibert, S. Spicher, S. Grimme, WIREs Comput. Mol. Sci., 2020, 11,
     e01493. DOI: 10.1002/wcms.1493
   
   for GFN2-xTB:
   * C. Bannwarth, S. Ehlert and S. Grimme., J. Chem. Theory Comput., 2019,
     15, 1652-1671. DOI: 10.1021/acs.jctc.8b01176
   for GFN1-xTB:
   * S. Grimme, C. Bannwarth, P. Shushkov, J. Chem. Theory Comput., 2017,
     13, 1989-2009. DOI: 10.1021/acs.jctc.7b00118
   for GFN0-xTB:
   * P. Pracht, E. Caldeweyher, S. Ehlert, S. Grimme, ChemRxiv, 2019, preprint.
     DOI: 10.26434/chemrxiv.8326202.v1
   for GFN-FF:
   * S. Spicher and S. Grimme, Angew. Chem. Int. Ed., 2020, 59, 15665-15673.
     DOI: 10.1002/anie.202004239
   
   for ALPB and GBSA implicit solvation:
   * S. Ehlert, M. Stahn, S. Spicher, S. Grimme, J. Chem. Theory Comput.,
     2021, 17, 4250-4261. DOI: 10.1021/acs.jctc.1c00471
   
   for ddCOSMO and CPCM-X implicit solvation:
   * M. Stahn, S. Ehlert, S. Grimme, J. Phys. Chem. A,
     2023, XX, XXXX-XXXX. DOI: 10.1021/acs.jpca.3c04382
   
   for DFT-D4:
   * E. Caldeweyher, C. Bannwarth and S. Grimme, J. Chem. Phys., 2017,
     147, 034112. DOI: 10.1063/1.4993215
   * E. Caldeweyher, S. Ehlert, A. Hansen, H. Neugebauer, S. Spicher,
     C. Bannwarth and S. Grimme, J. Chem. Phys., 2019, 150, 154122.
     DOI: 10.1063/1.5090222
   * E. Caldeweyher, J.-M. Mewes, S. Ehlert and S. Grimme, Phys. Chem. Chem. Phys.
     2020, 22, 8499-8512. DOI: 10.1039/D0CP00502A
   
   for sTDA-xTB:
   * S. Grimme and C. Bannwarth, J. Chem. Phys., 2016, 145, 054103.
     DOI: 10.1063/1.4959605
   
   in the mass-spec context:
   * V. Asgeirsson, C. Bauer and S. Grimme, Chem. Sci., 2017, 8, 4879.
     DOI: 10.1039/c7sc00601b
   * J. Koopman and S. Grimme, ACS Omega 2019, 4, 12, 15120-15133.
     DOI: 10.1021/acsomega.9b02011
   
   for metadynamics refer to:
   * S. Grimme, J. Chem. Theory Comput., 2019, 155, 2847-2862
     DOI: 10.1021/acs.jctc.9b00143
   
   for SPH calculations refer to:
   * S. Spicher and S. Grimme, J. Chem. Theory Comput., 2021, 17, 1701-1714
     DOI: 10.1021/acs.jctc.0c01306
   
   for ONIOM refer to:
   * C. Plett, A. Katbashev, S. Ehlert, S. Grimme, M. Bursch,
     Phys. Chem. Chem. Phys., 2023, 25, 17860-17868. DOI: 10.1039/D3CP02178E
   
   for DIPRO refer to:
   * J. Kohn, N. Gildemeister, S. Grimme, D. Fazzi, A. Hansen,
     J. Chem. Phys., 2023, just accepted.
   
   for PTB refer to:
   * S. Grimme, M. Mueller, A. Hansen, J. Chem. Phys., 2023, 158, 124111.
     DOI: 10.1063/5.0137838
   
   with help from (in alphabetical order)
   P. Atkinson, C. Bannwarth, F. Bohle, G. Brandenburg, E. Caldeweyher
   M. Checinski, S. Dohm, S. Ehlert, S. Ehrlich, I. Gerasimov, C. Hölzer
   A. Katbashev, J. Kohn, J. Koopman, C. Lavigne, S. Lehtola, F. März, M. Müller,
   F. Musil, H. Neugebauer, J. Pisarek, C. Plett, P. Pracht, F. Pultar,
   J. Seibert, P. Shushkov, S. Spicher, M. Stahn, M. Steiner, T. Strunk,
   J. Stückrath, T. Rose, and J. Unsleber
   
 * started run on 2026/07/08 at 21:13:03.499     
   ID    Z sym.   atoms
    1    6 C      1-4, 6, 8
    2    8 O      5, 7, 9
    3    1 H      10-21

           -------------------------------------------------
          |                Calculation Setup                |
           -------------------------------------------------

          program call               : /home/ws/xd2484/miniforge3/envs/p3z_dft/bin/xtb xtb_input.xyz --gfn 2 --opt tight --cycles 500 --chrg 0 --uhf 0
          hostname                   : gpu10
          coordinate file            : xtb_input.xyz
          omp threads                :                    16


           -------------------------------------------------
          |                 G F N 2 - x T B                 |
           -------------------------------------------------

        Reference                      10.1021/acs.jctc.8b01176
      * Hamiltonian:
        H0-scaling (s, p, d)           1.850000    2.230000    2.230000
        zeta-weighting                 0.500000
      * Dispersion:
        s8                             2.700000
        a1                             0.520000
        a2                             5.000000
        s9                             5.000000
      * Repulsion:
        kExp                           1.500000    1.000000
        rExp                           1.000000
      * Coulomb:
        alpha                          2.000000
        third order                    shell-resolved
        anisotropic                    true
        a3                             3.000000
        a5                             4.000000
        cn-shift                       1.200000
        cn-exp                         4.000000
        max-rad                        5.000000


          ...................................................
          :                      SETUP                      :
          :.................................................:
          :  # basis functions                  48          :
          :  # atomic orbitals                  48          :
          :  # shells                           30          :
          :  # electrons                        54          :
          :  max. iterations                   250          :
          :  Hamiltonian                  GFN2-xTB          :
          :  restarted?                      false          :
          :  GBSA solvation                  false          :
          :  PC potential                    false          :
          :  electronic temp.          300.0000000     K    :
          :  accuracy                    1.0000000          :
          :  -> integral cutoff          0.2500000E+02      :
          :  -> integral neglect         0.1000000E-07      :
          :  -> SCF convergence          0.1000000E-05 Eh   :
          :  -> wf. convergence          0.1000000E-03 e    :
          :  Broyden damping             0.4000000          :
          :  net charge                          0          :
          :  unpaired electrons                  0          :
          ...................................................

 iter      E             dE          RMSdq      gap      omega  full diag
   1    -31.4061891 -0.314062E+02  0.399E+00    5.58       0.0  T
   2    -31.4692483 -0.630592E-01  0.208E+00    4.39       1.0  T
   3    -31.4721283 -0.288000E-02  0.117E+00    4.76       1.0  T
   4    -31.4763467 -0.421843E-02  0.176E-01    4.46       1.0  T
   5    -31.4765613 -0.214568E-03  0.723E-02    4.56       1.0  T
   6    -31.4765687 -0.744708E-05  0.295E-02    4.57       1.0  T
   7    -31.4765704 -0.169483E-05  0.851E-03    4.57       2.6  T
   8    -31.4765706 -0.195301E-06  0.282E-03    4.56       7.7  T
   9    -31.4765706 -0.207234E-07  0.146E-03    4.56      15.0  T
  10    -31.4765706 -0.392969E-08  0.305E-04    4.56      71.5  T
  11    -31.4765706 -0.278760E-09  0.109E-04    4.56     200.8  T

   *** convergence criteria satisfied after 11 iterations ***

         #    Occupation            Energy/Eh            Energy/eV
      -------------------------------------------------------------
         1        2.0000           -0.7479680             -20.3532
       ...           ...                  ...                  ...
        21        2.0000           -0.4733979             -12.8818
        22        2.0000           -0.4672091             -12.7134
        23        2.0000           -0.4523796             -12.3099
        24        2.0000           -0.4471551             -12.1677
        25        2.0000           -0.4440778             -12.0840
        26        2.0000           -0.4346812             -11.8283
        27        2.0000           -0.4202859             -11.4366 (HOMO)
        28                         -0.2525409              -6.8720 (LUMO)
        29                         -0.0293725              -0.7993
        30                          0.0427006               1.1619
        31                          0.0565580               1.5390
        32                          0.0865978               2.3564
       ...                                ...                  ...
        48                          0.5685487              15.4710
      -------------------------------------------------------------
                  HL-Gap            0.1677450 Eh            4.5646 eV
             Fermi-level           -0.3364134 Eh           -9.1543 eV

 SCC (total)                   0 d,  0 h,  0 min,  0.260 sec
 SCC setup                      ...        0 min,  0.011 sec (  4.112%)
 Dispersion                     ...        0 min,  0.020 sec (  7.618%)
 classical contributions        ...        0 min,  0.011 sec (  4.189%)
 integral evaluation            ...        0 min,  0.010 sec (  3.758%)
 iterations                     ...        0 min,  0.165 sec ( 63.324%)
 molecular gradient             ...        0 min,  0.044 sec ( 16.924%)
 printout                       ...        0 min,  0.000 sec (  0.063%)

         :::::::::::::::::::::::::::::::::::::::::::::::::::::
         ::                     SUMMARY                     ::
         :::::::::::::::::::::::::::::::::::::::::::::::::::::
         :: total energy             -31.173558825399 Eh    ::
         :: gradient norm              0.061206718777 Eh/a0 ::
         :: HOMO-LUMO gap              4.564574383173 eV    ::
         ::.................................................::
         :: SCC energy               -31.476497962863 Eh    ::
         :: -> isotropic ES            0.068066749577 Eh    ::
         :: -> anisotropic ES          0.003040166369 Eh    ::
         :: -> anisotropic XC          0.005282325319 Eh    ::
         :: -> dispersion             -0.012959516137 Eh    ::
         :: repulsion energy           0.302939137463 Eh    ::
         :: add. restraining           0.000000000000 Eh    ::
         :: total charge               0.000000000000 e     ::
         :::::::::::::::::::::::::::::::::::::::::::::::::::::

      ----------------------------------------------------------- 
     |                   =====================                   |
     |                        A N C O P T                        |
     |                   =====================                   |
     |               Approximate Normal Coordinate               |
     |                Rational Function Optimizer                |
      ----------------------------------------------------------- 
      ----------------------------------------------------------- 
     |                   =====================                   |
     |                        A N C O P T                        |
     |                   =====================                   |
     |               Approximate Normal Coordinate               |
     |                Rational Function Optimizer                |
      ----------------------------------------------------------- 

          ...................................................
          :                      SETUP                      :
          :.................................................:
          :   optimization level             tight          :
          :   max. optcycles                   500          :
          :   ANC micro-cycles                  20          :
          :   degrees of freedom                57          :
          :.................................................:
          :   RF solver                   davidson          :
          :   write xtbopt.log                true          :
          :   linear?                        false          :
          :   energy convergence         0.1000000E-05 Eh   :
          :   grad. convergence          0.8000000E-03 Eh/α :
          :   maxmium RF displ.          1.0000000          :
          :   Hlow (freq-cutoff)         0.1000000E-01      :
          :   Hmax (freq-cutoff)         5.0000000          :
          :   S6 in model hess.         20.0000000          :
          ...................................................

generating ANC from exact Hessian ...
Using Lindh-Hessian (1995)
 Shifting diagonal of input Hessian by    8.6406448215313441E-003
 Lowest  eigenvalues of input Hessian
    0.000000    0.000000    0.000000    0.000000    0.000000    0.000000
    0.010000    0.010498    0.012265    0.013466    0.015092    0.016839
    0.018098    0.020619    0.025332    0.026939    0.036695    0.040927
 Highest eigenvalues
    1.214837    1.265384    1.280296    1.435677    1.685473    2.239986


........................................................................
.............................. CYCLE    1 ..............................
........................................................................

 iter      E             dE          RMSdq      gap      omega  full diag
   1    -31.4765706 -0.314766E+02  0.372E-05    4.56       0.0  T
   2    -31.4765706 -0.216360E-11  0.230E-05    4.56     949.3  T
   3    -31.4765706 -0.451195E-12  0.874E-06    4.56    2497.1  T
     SCC iter.                  ...        0 min,  0.037 sec
     gradient                   ...        0 min,  0.038 sec
 * total energy  :   -31.1735588 Eh     change       -0.3830181E-10 Eh
   gradient norm :     0.0612071 Eh/α   predicted     0.0000000E+00 (-100.00%)
   displ. norm   :     0.1805928 α      lambda       -0.5172364E-02
   maximum displ.:     0.0946042 α      in ANC's #9, #5, #12, ...

........................................................................
.............................. CYCLE    2 ..............................
........................................................................

 iter      E             dE          RMSdq      gap      omega  full diag
   1    -31.4945218 -0.314945E+02  0.159E-01    4.83       0.0  T
   2    -31.4945795 -0.576795E-04  0.964E-02    4.78       1.0  T
   3    -31.4945812 -0.164294E-05  0.458E-02    4.80       1.0  T
   4    -31.4945918 -0.106872E-04  0.486E-03    4.78       4.5  T
   5    -31.4945919 -0.457119E-07  0.241E-03    4.79       9.1  T
   6    -31.4945919 -0.718376E-08  0.761E-04    4.79      28.7  T
   7    -31.4945919 -0.110313E-08  0.254E-04    4.79      86.0  T
     SCC iter.                  ...        0 min,  0.092 sec
     gradient                   ...        0 min,  0.043 sec
 * total energy  :   -31.1768470 Eh     change       -0.3288203E-02 Eh
   gradient norm :     0.0220408 Eh/α   predicted    -0.2670750E-02 ( -18.78%)
   displ. norm   :     0.1474624 α      lambda       -0.9635641E-03
   maximum displ.:     0.0764787 α      in ANC's #9, #5, #8, ...

........................................................................
.............................. CYCLE    3 ..............................
........................................................................

 iter      E             dE          RMSdq      gap      omega  full diag
   1    -31.5004457 -0.315004E+02  0.811E-02    4.87       0.0  T
   2    -31.5004764 -0.307014E-04  0.479E-02    4.85       1.0  T
   3    -31.5004790 -0.257413E-05  0.254E-02    4.86       1.0  T
   4    -31.5004800 -0.106465E-05  0.370E-03    4.85       5.9  T
   5    -31.5004801 -0.912991E-07  0.168E-03    4.85      13.0  T
   6    -31.5004801 -0.374740E-08  0.597E-04    4.85      36.6  T
   7    -31.5004801 -0.768761E-09  0.179E-04    4.85     121.6  T
     SCC iter.                  ...        0 min,  0.097 sec
     gradient                   ...        0 min,  0.042 sec
 * total energy  :   -31.1774419 Eh     change       -0.5948661E-03 Eh
   gradient norm :     0.0119957 Eh/α   predicted    -0.4933151E-03 ( -17.07%)
   displ. norm   :     0.1148290 α      lambda       -0.2774961E-03
   maximum displ.:     0.0616007 α      in ANC's #5, #9, #7, ...

........................................................................
.............................. CYCLE    4 ..............................
........................................................................

 iter      E             dE          RMSdq      gap      omega  full diag
   1    -31.5005176 -0.315005E+02  0.509E-02    4.85       0.0  T
   2    -31.5005347 -0.171096E-04  0.286E-02    4.85       1.0  T
   3    -31.5005352 -0.573274E-06  0.159E-02    4.85       1.4  T
   4    -31.5005354 -0.125599E-06  0.310E-03    4.85       7.1  T
   5    -31.5005355 -0.981526E-07  0.112E-03    4.85      19.5  T
   6    -31.5005355 -0.138726E-08  0.494E-04    4.85      44.1  T
   7    -31.5005355 -0.527024E-09  0.105E-04    4.85     208.0  T
     SCC iter.                  ...        0 min,  0.090 sec
     gradient                   ...        0 min,  0.033 sec
 * total energy  :   -31.1776407 Eh     change       -0.1987882E-03 Eh
   gradient norm :     0.0063559 Eh/α   predicted    -0.1405814E-03 ( -29.28%)
   displ. norm   :     0.1272019 α      lambda       -0.1925612E-03
   maximum displ.:     0.0672248 α      in ANC's #5, #7, #9, ...

........................................................................
.............................. CYCLE    5 ..............................
........................................................................

 iter      E             dE          RMSdq      gap      omega  full diag
   1    -31.4990979 -0.314991E+02  0.521E-02    4.82       0.0  T
   2    -31.4991087 -0.107991E-04  0.298E-02    4.83       1.0  T
   3    -31.4991090 -0.299469E-06  0.139E-02    4.83       1.6  T
   4    -31.4991091 -0.134375E-06  0.230E-03    4.83       9.5  T
   5    -31.4991091 -0.394214E-07  0.117E-03    4.83      18.6  T
   6    -31.4991091 -0.142672E-08  0.385E-04    4.83      56.6  T
   7    -31.4991091 -0.580116E-09  0.960E-05    4.83     227.3  T
     SCC iter.                  ...        0 min,  0.077 sec
     gradient                   ...        0 min,  0.028 sec
 * total energy  :   -31.1777550 Eh     change       -0.1143216E-03 Eh
   gradient norm :     0.0071132 Eh/α   predicted    -0.9784024E-04 ( -14.42%)
   displ. norm   :     0.0500897 α      lambda       -0.6721557E-04
   maximum displ.:     0.0250123 α      in ANC's #5, #3, #1, ...

........................................................................
.............................. CYCLE    6 ..............................
........................................................................

 iter      E             dE          RMSdq      gap      omega  full diag
   1    -31.4986689 -0.314987E+02  0.217E-02    4.82       0.0  T
   2    -31.4986692 -0.340357E-06  0.128E-02    4.82       1.7  T
   3    -31.4986692 -0.836863E-08  0.222E-03    4.82       9.8  T
   4    -31.4986693 -0.272800E-07  0.708E-04    4.82      30.8  T
   5    -31.4986693 -0.288968E-08  0.368E-04    4.82      59.3  T
     SCC iter.                  ...        0 min,  0.050 sec
     gradient                   ...        0 min,  0.026 sec
 * total energy  :   -31.1778062 Eh     change       -0.5123073E-04 Eh
   gradient norm :     0.0054917 Eh/α   predicted    -0.3370593E-04 ( -34.21%)
   displ. norm   :     0.0814154 α      lambda       -0.7954783E-04
   maximum displ.:     0.0324656 α      in ANC's #15, #3, #5, ...

........................................................................
.............................. CYCLE    7 ..............................
........................................................................

 iter      E             dE          RMSdq      gap      omega  full diag
   1    -31.4984603 -0.314985E+02  0.344E-02    4.82       0.0  T
   2    -31.4984611 -0.730286E-06  0.207E-02    4.82       1.1  T
   3    -31.4984611 -0.426646E-07  0.362E-03    4.81       6.0  T
   4    -31.4984612 -0.841449E-07  0.123E-03    4.81      17.8  T
   5    -31.4984612 -0.317759E-08  0.565E-04    4.81      38.7  T
   6    -31.4984612 -0.843293E-09  0.211E-04    4.81     103.3  T
     SCC iter.                  ...        0 min,  0.078 sec
     gradient                   ...        0 min,  0.024 sec
 * total energy  :   -31.1778625 Eh     change       -0.5628854E-04 Eh
   gradient norm :     0.0035622 Eh/α   predicted    -0.4003812E-04 ( -28.87%)
   displ. norm   :     0.0798970 α      lambda       -0.5497030E-04
   maximum displ.:     0.0357783 α      in ANC's #15, #3, #1, ...

........................................................................
.............................. CYCLE    8 ..............................
........................................................................

 iter      E             dE          RMSdq      gap      omega  full diag
   1    -31.4986001 -0.314986E+02  0.355E-02    4.82       0.0  T
   2    -31.4986009 -0.792356E-06  0.215E-02    4.82       1.0  T
   3    -31.4986010 -0.886170E-07  0.353E-03    4.82       6.2  T
   4    -31.4986010 -0.485308E-07  0.124E-03    4.82      17.5  T
   5    -31.4986010 -0.193496E-08  0.565E-04    4.82      38.6  T
   6    -31.4986010 -0.540251E-09  0.173E-04    4.82     125.9  T
     SCC iter.                  ...        0 min,  0.109 sec
     gradient                   ...        0 min,  0.028 sec
 * total energy  :   -31.1779032 Eh     change       -0.4065312E-04 Eh
   gradient norm :     0.0024910 Eh/α   predicted    -0.2766173E-04 ( -31.96%)
   displ. norm   :     0.0919409 α      lambda       -0.5303906E-04
   maximum displ.:     0.0424224 α      in ANC's #15, #3, #7, ...

........................................................................
.............................. CYCLE    9 ..............................
........................................................................

 iter      E             dE          RMSdq      gap      omega  full diag
   1    -31.4990781 -0.314991E+02  0.457E-02    4.83       0.0  T
   2    -31.4990789 -0.785353E-06  0.276E-02    4.82       1.0  T
   3    -31.4990790 -0.155230E-06  0.318E-03    4.82       6.9  T
   4    -31.4990791 -0.352060E-07  0.152E-03    4.82      14.4  T
   5    -31.4990791 -0.196140E-08  0.682E-04    4.82      32.0  T
   6    -31.4990791 -0.108399E-08  0.132E-04    4.82     165.8  T
     SCC iter.                  ...        0 min,  0.124 sec
     gradient                   ...        0 min,  0.038 sec
 * total energy  :   -31.1779412 Eh     change       -0.3806494E-04 Eh
   gradient norm :     0.0022798 Eh/α   predicted    -0.2674485E-04 ( -29.74%)
   displ. norm   :     0.1052898 α      lambda       -0.4240413E-04
   maximum displ.:     0.0464777 α      in ANC's #15, #7, #3, ...

........................................................................
.............................. CYCLE   10 ..............................
........................................................................

 iter      E             dE          RMSdq      gap      omega  full diag
   1    -31.4990499 -0.314990E+02  0.563E-02    4.82       0.0  T
   2    -31.4990504 -0.491551E-06  0.341E-02    4.82       1.0  T
   3    -31.4990507 -0.257477E-06  0.290E-03    4.82       7.5  T
   4    -31.4990507 -0.150484E-07  0.167E-03    4.82      13.1  T
   5    -31.4990507 -0.326690E-08  0.296E-04    4.82      73.6  T
   6    -31.4990507 -0.258503E-09  0.101E-04    4.82     216.4  T
     SCC iter.                  ...        0 min,  0.120 sec
     gradient                   ...        0 min,  0.036 sec
 * total energy  :   -31.1779680 Eh     change       -0.2675904E-04 Eh
   gradient norm :     0.0032917 Eh/α   predicted    -0.2144231E-04 ( -19.87%)
   displ. norm   :     0.1269499 α      lambda       -0.5913740E-04
   maximum displ.:     0.0816068 α      in ANC's #7, #3, #15, ...

........................................................................
.............................. CYCLE   11 ..............................
........................................................................

 iter      E             dE          RMSdq      gap      omega  full diag
   1    -31.5000871 -0.315001E+02  0.715E-02    4.83       0.0  T
   2    -31.5000884 -0.127397E-05  0.428E-02    4.83       1.0  T
   3    -31.5000887 -0.316371E-06  0.465E-03    4.84       4.7  T
   4    -31.5000889 -0.134086E-06  0.247E-03    4.84       8.8  T
   5    -31.5000889 -0.860784E-08  0.101E-03    4.84      21.5  T
   6    -31.5000889 -0.223595E-08  0.251E-04    4.84      87.1  T
   7    -31.5000889 -0.204999E-09  0.960E-05    4.84     227.3  T
     SCC iter.                  ...        0 min,  0.144 sec
     gradient                   ...        0 min,  0.032 sec
 * total energy  :   -31.1779823 Eh     change       -0.1427550E-04 Eh
   gradient norm :     0.0043506 Eh/α   predicted    -0.3004679E-04 ( 110.48%)
   displ. norm   :     0.0400215 α      lambda       -0.3170089E-04
   maximum displ.:     0.0195781 α      in ANC's #2, #4, #15, ...

........................................................................
.............................. CYCLE   12 ..............................
........................................................................

 iter      E             dE          RMSdq      gap      omega  full diag
   1    -31.4994959 -0.314995E+02  0.227E-02    4.83       0.0  T
   2    -31.4994962 -0.334409E-06  0.136E-02    4.83       1.6  T
   3    -31.4994963 -0.400267E-07  0.251E-03    4.83       8.7  T
   4    -31.4994963 -0.283548E-07  0.896E-04    4.83      24.4  T
   5    -31.4994963 -0.229376E-08  0.483E-04    4.83      45.2  T
     SCC iter.                  ...        0 min,  0.096 sec
     gradient                   ...        0 min,  0.039 sec
 * total energy  :   -31.1780008 Eh     change       -0.1850733E-04 Eh
   gradient norm :     0.0019583 Eh/α   predicted    -0.1587675E-04 ( -14.21%)
   displ. norm   :     0.0411674 α      lambda       -0.1107332E-04
   maximum displ.:     0.0227913 α      in ANC's #4, #3, #12, ...

........................................................................
.............................. CYCLE   13 ..............................
........................................................................

 iter      E             dE          RMSdq      gap      omega  full diag
   1    -31.4996744 -0.314997E+02  0.146E-02    4.84       0.0  T
   2    -31.4996746 -0.208535E-06  0.858E-03    4.84       2.5  T
   3    -31.4996746  0.176325E-07  0.256E-03    4.84       8.5  T
   4    -31.4996746 -0.485089E-07  0.470E-04    4.84      46.4  T
   5    -31.4996746 -0.708315E-09  0.221E-04    4.84      98.8  T
     SCC iter.                  ...        0 min,  0.103 sec
     gradient                   ...        0 min,  0.035 sec
 * total energy  :   -31.1780076 Eh     change       -0.6804233E-05 Eh
   gradient norm :     0.0011743 Eh/α   predicted    -0.5541477E-05 ( -18.56%)
   displ. norm   :     0.0548951 α      lambda       -0.5112059E-05
   maximum displ.:     0.0326034 α      in ANC's #7, #15, #2, ...

........................................................................
.............................. CYCLE   14 ..............................
........................................................................

 iter      E             dE          RMSdq      gap      omega  full diag
   1    -31.4992005 -0.314992E+02  0.352E-02    4.83       0.0  T
   2    -31.4992007 -0.230038E-06  0.209E-02    4.83       1.0  T
   3    -31.4992007 -0.158740E-07  0.274E-03    4.83       8.0  T
   4    -31.4992008 -0.823518E-07  0.116E-03    4.83      18.9  T
   5    -31.4992008 -0.108217E-08  0.267E-04    4.83      81.6  T
   6    -31.4992008 -0.109722E-09  0.101E-04    4.83     216.3  T
     SCC iter.                  ...        0 min,  0.114 sec
     gradient                   ...        0 min,  0.035 sec
 * total energy  :   -31.1780108 Eh     change       -0.3178971E-05 Eh
   gradient norm :     0.0012670 Eh/α   predicted    -0.2571830E-05 ( -19.10%)
   displ. norm   :     0.0105395 α      lambda       -0.1518453E-05
   maximum displ.:     0.0070169 α      in ANC's #3, #6, #1, ...

........................................................................
.............................. CYCLE   15 ..............................
........................................................................

 iter      E             dE          RMSdq      gap      omega  full diag
   1    -31.4994973 -0.314995E+02  0.413E-03    4.83       0.0  T
   2    -31.4994973 -0.694785E-07  0.245E-03    4.83       8.9  T
   3    -31.4994974 -0.202963E-08  0.109E-03    4.83      19.9  T
   4    -31.4994974 -0.120912E-08  0.169E-04    4.83     128.9  T
   5    -31.4994974 -0.208306E-09  0.101E-04    4.83     216.7  T
     SCC iter.                  ...        0 min,  0.104 sec
     gradient                   ...        0 min,  0.040 sec
 * total energy  :   -31.1780120 Eh     change       -0.1237968E-05 Eh
   gradient norm :     0.0002955 Eh/α   predicted    -0.7632192E-06 ( -38.35%)
   displ. norm   :     0.0109208 α      lambda       -0.5732424E-06
   maximum displ.:     0.0089652 α      in ANC's #3, #6, #5, ...

........................................................................
.............................. CYCLE   16 ..............................
........................................................................

 iter      E             dE          RMSdq      gap      omega  full diag
   1    -31.4995922 -0.314996E+02  0.313E-03    4.84       0.0  T
   2    -31.4995922 -0.130390E-07  0.186E-03    4.83      11.7  T
   3    -31.4995922  0.112450E-08  0.744E-04    4.83      29.3  T
   4    -31.4995922 -0.371465E-08  0.962E-05    4.83     226.9  T
     SCC iter.                  ...        0 min,  0.077 sec
     gradient                   ...        0 min,  0.034 sec
 * total energy  :   -31.1780126 Eh     change       -0.5721023E-06 Eh
   gradient norm :     0.0003030 Eh/α   predicted    -0.2918214E-06 ( -48.99%)
   displ. norm   :     0.0127082 α      lambda        0.1462287E-06
   maximum displ.:     0.0104850 α      in ANC's #3, #6, #5, ...

   *** GEOMETRY OPTIMIZATION CONVERGED AFTER 16 ITERATIONS ***

------------------------------------------------------------------------
 total energy gain   :        -0.0044538 Eh       -2.7948 kcal/mol
 total RMSD          :         0.1864357 a0        0.0987 Å
 total power (kW/mol):        -0.7308326 (step)   -4.5946 (real)
------------------------------------------------------------------------

 ANCopt (total)                0 d,  0 h,  0 min,  2.545 sec
 optimizer setup                ...        0 min,  0.001 sec (  0.030%)
 model hessian                  ...        0 min,  0.007 sec (  0.264%)
 ANC generation                 ...        0 min,  0.001 sec (  0.026%)
 coordinate transformation      ...        0 min,  0.000 sec (  0.007%)
 single point calculation       ...        0 min,  2.479 sec ( 97.415%)
 optimization log               ...        0 min,  0.001 sec (  0.058%)
 hessian update                 ...        0 min,  0.051 sec (  2.001%)
 rational function              ...        0 min,  0.003 sec (  0.114%)

================
 final structure:
================
21
 xtb: 6.7.1 (edcfbbe)
C           -2.18989850863753        1.16922690354325       -0.65250060239285
C           -1.87785783162074        0.33517883664951        0.58410659020452
C           -0.67329225467909       -0.57855129324577        0.37203576158088
C           -0.44061406844784       -1.52105907362377        1.54737731979291
O            0.48165209533475        0.27184774340026        0.20869517224720
C            1.47307892537435       -0.17511872832838       -0.53802440088045
O            1.50907219230220       -1.23683286754402       -1.11148323204682
C            2.62273304494673        0.81426049957528       -0.62884682971276
O            3.64269050476668        0.30339375869951       -1.43423158737779
H           -1.33590119853850        1.78837113684458       -0.91528077719139
H           -2.42486847323144        0.52645200009796       -1.49806287277414
H           -3.04153312479975        1.81796738234157       -0.46529751406910
H           -2.73726131736107       -0.28600190895781        0.83936370497238
H           -1.66564811752437        0.99281787382395        1.42841577861867
H           -0.79115904143075       -1.16209704541053       -0.54993201090082
H            0.43653836136353       -2.13666274611355        1.36254501414655
H           -1.30134574324608       -2.17088587755339        1.67542409350095
H           -0.28600279786053       -0.94958128548803        2.45956305430064
H            3.00048103528477        1.01318267285412        0.38267586633501
H            2.24767338157269        1.75839477445710       -1.04524220133521
H            3.35146293643197       -0.57430275602082       -1.73562422180444

 Bond Distances (Angstroems)
 ---------------------------
C1-C2=1.5239         C1-H10=1.0871        C1-H11=1.0878        C1-H12=1.0868        C2-C1=1.5239         C2-C3=1.5267         
C2-H13=1.0907        C2-H14=1.0910        C3-C2=1.5267         C3-C4=1.5244         C3-O5=1.4435         C3-H15=1.0975        
C4-C3=1.5244         C4-H16=1.0874        C4-H17=1.0861        C4-H18=1.0875        O5-C3=1.4435         O5-C6=1.3192         
C6-O5=1.3192         C6-O7=1.2072         C6-C8=1.5195         O7-C6=1.2072         C8-C6=1.5195         C8-O9=1.3964         
C8-H19=1.0979        C8-H20=1.0979        O9-C8=1.3964         O9-H21=0.9726        H10-C1=1.0871        H11-C1=1.0878        
H12-C1=1.0868        H13-C2=1.0907        H14-C2=1.0910        H15-C3=1.0975        H16-C4=1.0874        H17-C4=1.0861        
H18-C4=1.0875        H19-C8=1.0979        H20-C8=1.0979        H21-O9=0.9726        
 C  H  Rav=1.0907 sigma=0.0046  Rmin=1.0861  Rmax=1.0979    11
 C  C  Rav=1.5236 sigma=0.0026  Rmin=1.5195  Rmax=1.5267     4
 O  H  Rav=0.9726 sigma=0.0000  Rmin=0.9726  Rmax=0.9726     1
 O  C  Rav=1.3416 sigma=0.0894  Rmin=1.2072  Rmax=1.4435     4

 selected bond angles (degree)
 --------------------
H10-C1-C2=110.31               H11-C1-C2=110.59               H11-C1-H10=108.56              H12-C1-C2=110.33               
H12-C1-H10=108.50              H12-C1-H11=108.50              C3-C2-C1=112.11                H13-C2-C1=109.89               
H13-C2-C3=108.26               H14-C2-C1=109.75               H14-C2-C3=108.35               H14-C2-H13=108.39              
C4-C3-C2=112.54                O5-C3-C2=107.12                O5-C3-C4=109.23                H15-C3-C2=110.50               
H15-C3-C4=109.59               H15-C3-O5=107.70               H16-C4-C3=110.00               H17-C4-C3=109.87               
H17-C4-H16=108.70              H18-C4-C3=110.09               H18-C4-H16=108.99              H18-C4-H17=109.16              
C6-O5-C3=117.76                O7-C6-O5=126.10                C8-C6-O5=112.45                C8-C6-O7=121.45                
O9-C8-C6=110.42                H19-C8-C6=108.86               H19-C8-O9=110.26               H20-C8-C6=108.91               
H20-C8-O9=110.20               H20-C8-H19=108.13              H21-O9-C8=106.87               

 selected dihedral angles (degree)
 ---------------------------------
C3-C2-C1-H10=300.67           C3-C2-C1-H11= 60.77           C3-C2-C1-H12=180.81           H13-C2-C1-H10=180.22          
H13-C2-C1-H11=300.32          H13-C2-C1-H12= 60.37          H14-C2-C1-H10= 61.12          H14-C2-C1-H11=181.22          
H14-C2-C1-H12=301.27          C4-C3-C2-C1=185.99            C4-C3-C2-H13=307.37           C4-C3-C2-H14= 64.72           
O5-C3-C2-C1= 65.92            O5-C3-C2-H13=187.31           O5-C3-C2-H14=304.66           H15-C3-C2-C1=308.86           
H15-C3-C2-H13= 70.25          H15-C3-C2-H14=187.60          H16-C4-C3-C2=181.17           H16-C4-C3-O5=300.01           
H16-C4-C3-H15= 57.79          H17-C4-C3-C2= 61.55           H17-C4-C3-O5=180.39           H17-C4-C3-H15=298.16          
H18-C4-C3-C2=301.29           H18-C4-C3-O5= 60.13           H18-C4-C3-H15=177.91          C6-O5-C3-C2=209.34            
C6-O5-C3-C4= 87.18            C6-O5-C3-H15=328.22           O7-C6-O5-C3=  0.36            C8-C6-O5-C3=179.94            
O9-C8-C6-O5=180.39            O9-C8-C6-O7=  0.00            H19-C8-C6-O5= 59.21           H19-C8-C6-O7=238.81           
H20-C8-C6-O5=301.53           H20-C8-C6-O7=121.13           H21-O9-C8-C6=359.86           H21-O9-C8-H19=120.19          
H21-O9-C8-H20=239.49          
           -------------------------------------------------
          |                Final Singlepoint                |
           -------------------------------------------------

          ...................................................
          :                      SETUP                      :
          :.................................................:
          :  # basis functions                  48          :
          :  # atomic orbitals                  48          :
          :  # shells                           30          :
          :  # electrons                        54          :
          :  max. iterations                   250          :
          :  Hamiltonian                  GFN2-xTB          :
          :  restarted?                      false          :
          :  GBSA solvation                  false          :
          :  PC potential                    false          :
          :  electronic temp.          300.0000000     K    :
          :  accuracy                    1.0000000          :
          :  -> integral cutoff          0.2500000E+02      :
          :  -> integral neglect         0.1000000E-07      :
          :  -> SCF convergence          0.1000000E-05 Eh   :
          :  -> wf. convergence          0.1000000E-03 e    :
          :  Broyden damping             0.4000000          :
          :  net charge                          0          :
          :  unpaired electrons                  0          :
          ...................................................

 iter      E             dE          RMSdq      gap      omega  full diag
   1    -31.4995922 -0.314996E+02  0.484E-05    4.83       0.0  T
   2    -31.4995922 -0.288836E-11  0.296E-05    4.83     737.7  T
   3    -31.4995922 -0.444089E-12  0.106E-05    4.83    2060.7  T

   *** convergence criteria satisfied after 3 iterations ***

         #    Occupation            Energy/Eh            Energy/eV
      -------------------------------------------------------------
         1        2.0000           -0.7558043             -20.5665
       ...           ...                  ...                  ...
        21        2.0000           -0.4752194             -12.9314
        22        2.0000           -0.4701113             -12.7924
        23        2.0000           -0.4542750             -12.3615
        24        2.0000           -0.4494840             -12.2311
        25        2.0000           -0.4465954             -12.1525
        26        2.0000           -0.4307097             -11.7202
        27        2.0000           -0.4179428             -11.3728 (HOMO)
        28                         -0.2402831              -6.5384 (LUMO)
        29                         -0.0245622              -0.6684
        30                          0.0553667               1.5066
        31                          0.0708238               1.9272
        32                          0.0996640               2.7120
       ...                                ...                  ...
        48                          0.6335873              17.2408
      -------------------------------------------------------------
                  HL-Gap            0.1776597 Eh            4.8344 eV
             Fermi-level           -0.3291129 Eh           -8.9556 eV

 SCC (total)                   0 d,  0 h,  0 min,  0.121 sec
 SCC setup                      ...        0 min,  0.004 sec (  3.113%)
 Dispersion                     ...        0 min,  0.007 sec (  5.553%)
 classical contributions        ...        0 min,  0.003 sec (  2.742%)
 integral evaluation            ...        0 min,  0.012 sec (  9.995%)
 iterations                     ...        0 min,  0.059 sec ( 48.573%)
 molecular gradient             ...        0 min,  0.036 sec ( 29.851%)
 printout                       ...        0 min,  0.000 sec (  0.146%)

         :::::::::::::::::::::::::::::::::::::::::::::::::::::
         ::                     SUMMARY                     ::
         :::::::::::::::::::::::::::::::::::::::::::::::::::::
         :: total energy             -31.178012576566 Eh    ::
         :: gradient norm              0.000302725023 Eh/a0 ::
         :: HOMO-LUMO gap              4.834365568801 eV    ::
         ::.................................................::
         :: SCC energy               -31.499515455535 Eh    ::
         :: -> isotropic ES            0.068218521412 Eh    ::
         :: -> anisotropic ES          0.001983390632 Eh    ::
         :: -> anisotropic XC          0.003922131044 Eh    ::
         :: -> dispersion             -0.013065878695 Eh    ::
         :: repulsion energy           0.321502878969 Eh    ::
         :: add. restraining           0.000000000000 Eh    ::
         :: total charge              -0.000000000000 e     ::
         :::::::::::::::::::::::::::::::::::::::::::::::::::::

           -------------------------------------------------
          |                Property Printout                |
           -------------------------------------------------

    * Orbital Energies and Occupations

         #    Occupation            Energy/Eh            Energy/eV
      -------------------------------------------------------------
         1        2.0000           -0.7558043             -20.5665
       ...           ...                  ...                  ...
        15        2.0000           -0.5268209             -14.3355
        16        2.0000           -0.5169217             -14.0662
        17        2.0000           -0.5120098             -13.9325
        18        2.0000           -0.5043492             -13.7240
        19        2.0000           -0.4931530             -13.4194
        20        2.0000           -0.4834225             -13.1546
        21        2.0000           -0.4752194             -12.9314
        22        2.0000           -0.4701113             -12.7924
        23        2.0000           -0.4542750             -12.3615
        24        2.0000           -0.4494840             -12.2311
        25        2.0000           -0.4465954             -12.1525
        26        2.0000           -0.4307097             -11.7202
        27        2.0000           -0.4179428             -11.3728 (HOMO)
        28                         -0.2402831              -6.5384 (LUMO)
        29                         -0.0245622              -0.6684
        30                          0.0553667               1.5066
        31                          0.0708238               1.9272
        32                          0.0996640               2.7120
        33                          0.1128179               3.0699
        34                          0.1247687               3.3951
        35                          0.1332417               3.6257
        36                          0.1418552               3.8601
        37                          0.1655134               4.5038
        38                          0.1678471               4.5674
       ...                                ...                  ...
        48                          0.6335873              17.2408
      -------------------------------------------------------------
                  HL-Gap            0.1776597 Eh            4.8344 eV
             Fermi-level           -0.3291129 Eh           -8.9556 eV

     #   Z          covCN         q      C6AA      α(0)
     1   6 C        3.752    -0.105    22.576     6.776
     2   6 C        3.802    -0.066    21.757     6.641
     3   6 C        3.748     0.114    18.776     6.180
     4   6 C        3.752    -0.117    22.803     6.810
     5   8 O        1.703    -0.262    18.344     5.783
     6   6 C        2.712     0.347    21.103     7.520
     7   8 O        0.856    -0.419    22.060     6.297
     8   6 C        3.676     0.051    19.943     6.398
     9   8 O        1.656    -0.432    21.485     6.257
    10   1 H        0.925     0.044     2.393     2.419
    11   1 H        0.925     0.040     2.446     2.446
    12   1 H        0.925     0.044     2.399     2.422
    13   1 H        0.924     0.047     2.357     2.401
    14   1 H        0.924     0.054     2.275     2.359
    15   1 H        0.924     0.054     2.267     2.355
    16   1 H        0.925     0.057     2.231     2.336
    17   1 H        0.925     0.052     2.296     2.369
    18   1 H        0.925     0.053     2.286     2.364
    19   1 H        0.923     0.065     2.145     2.291
    20   1 H        0.923     0.064     2.151     2.294
    21   1 H        0.804     0.315     0.677     1.292

 Mol. C6AA /au·bohr⁶  :       3424.758763
 Mol. C8AA /au·bohr⁸  :      72699.299374
 Mol. α(0) /au        :         86.009588


Wiberg/Mayer (AO) data.
largest (>0.10) Wiberg bond orders for each atom

 ---------------------------------------------------------------------------
     #   Z sym  total        # sym  WBO       # sym  WBO       # sym  WBO
 ---------------------------------------------------------------------------
     1   6 C    3.995 --     2 C    1.020    11 H    0.987    10 H    0.987
                            12 H    0.986
     2   6 C    3.994 --     1 C    1.020     3 C    0.994    14 H    0.975
                            13 H    0.974
     3   6 C    3.915 --     4 C    1.002     2 C    0.994    15 H    0.960
                             5 O    0.906
     4   6 C    3.993 --     3 C    1.002    18 H    0.985    16 H    0.984
                            17 H    0.983
     5   8 O    2.326 --     6 C    1.174     3 C    0.906     7 O    0.175
     6   6 C    3.920 --     7 O    1.722     5 O    1.174     8 C    0.957
     7   8 O    2.040 --     6 C    1.722     5 O    0.175
     8   6 C    3.969 --     9 O    1.025     6 C    0.957    20 H    0.947
                            19 H    0.946
     9   8 O    1.955 --     8 C    1.025    21 H    0.866
    10   1 H    0.998 --     1 C    0.987
    11   1 H    0.998 --     1 C    0.987
    12   1 H    0.998 --     1 C    0.986
    13   1 H    0.997 --     2 C    0.974
    14   1 H    0.997 --     2 C    0.975
    15   1 H    0.997 --     3 C    0.960
    16   1 H    0.996 --     4 C    0.984
    17   1 H    0.997 --     4 C    0.983
    18   1 H    0.997 --     4 C    0.985
    19   1 H    0.996 --     8 C    0.946
    20   1 H    0.996 --     8 C    0.947
    21   1 H    0.900 --     9 O    0.866
 ---------------------------------------------------------------------------

Topologies differ in total number of bonds
Writing topology from bond orders to xtbtopo.mol

molecular dipole:
                 x           y           z       tot (Debye)
 q only:       -1.082       0.249       0.707
   full:       -1.224       0.215       0.778       3.727
molecular quadrupole (traceless):
                xx          xy          yy          xz          yz          zz
 q only:       -2.989       0.618       1.609       3.057      -2.014       1.380
  q+dip:       -6.045       0.534       3.047       5.856      -1.516       2.998
   full:       -5.757       0.205       2.735       5.612      -2.056       3.022

           -------------------------------------------------
          |                Geometry Summary                 |
           -------------------------------------------------

      molecular mass/u    :      132.1579192
   center of mass at/Å    :        0.5486296      -0.0713903      -0.2059647
  moments of inertia/u·Å² :        0.1795568E+03   0.5755862E+03   0.6649861E+03
rotational constants/cm⁻¹ :        0.9388466E-01   0.2928776E-01   0.2535035E-01

 * 19 selected distances

     #   Z          #   Z                                           value/Å
     1   6 C        2   6 C                                       1.5238777
     2   6 C        3   6 C                                       1.5267139 (max)
     3   6 C        4   6 C                                       1.5244305
     3   6 C        5   8 O                                       1.4435219
     5   8 O        6   6 C                                       1.3192030
     6   6 C        7   8 O                                       1.2072231
     8   6 C        9   8 O                                       1.3964036
     1   6 C       10   1 H                                       1.0870624
     1   6 C       11   1 H                                       1.0878172
     1   6 C       12   1 H                                       1.0868261
     2   6 C       13   1 H                                       1.0906862
     2   6 C       14   1 H                                       1.0910455
     3   6 C       15   1 H                                       1.0974712
     4   6 C       16   1 H                                       1.0874408
     4   6 C       17   1 H                                       1.0860617
     4   6 C       18   1 H                                       1.0874624
     8   6 C       19   1 H                                       1.0979262
     8   6 C       20   1 H                                       1.0979274
     9   8 O       21   1 H                                       0.9726265 (min)

 * 4 distinct bonds (by element types)

   Z      Z             #   av. dist./Å        max./Å        min./Å
   1 H    6 C          11     1.0907025     1.0979274     1.0860617
   6 C    6 C           3     1.5250074     1.5267139     1.5238777
   1 H    8 O           1     0.9726265     0.9726265     0.9726265
   6 C    8 O           4     1.3415879     1.4435219     1.2072231


optimized geometry written to: xtbopt.xyz


           -------------------------------------------------
          | TOTAL ENERGY              -31.178012576566 Eh   |
          | GRADIENT NORM               0.000302725023 Eh/α |
          | HOMO-LUMO GAP               4.834365568801 eV   |
           -------------------------------------------------

------------------------------------------------------------------------
 * finished run on 2026/07/08 at 21:13:06.528     
------------------------------------------------------------------------
 total:
 * wall-time:     0 d,  0 h,  0 min,  3.028 sec
 *  cpu-time:     0 d,  0 h,  0 min, 47.855 sec
 * ratio c/w:    15.803 speedup
 SCF:
 * wall-time:     0 d,  0 h,  0 min,  0.260 sec
 *  cpu-time:     0 d,  0 h,  0 min,  4.094 sec
 * ratio c/w:    15.748 speedup
 ANC optimizer:
 * wall-time:     0 d,  0 h,  0 min,  2.671 sec
 *  cpu-time:     0 d,  0 h,  0 min, 42.212 sec
 * ratio c/w:    15.805 speedup

