      -----------------------------------------------------------      
     |                   =====================                   |     
     |                           x T B                           |     
     |                   =====================                   |     
     |                         S. Grimme                         |     
     |          Mulliken Center for Theoretical Chemistry        |     
     |                    University of Bonn                     |     
      -----------------------------------------------------------      

   * xtb version 6.7.1 (edcfbbe) compiled by 'conda@5dfe00f5fb80' on 2026-06-10

   xtb is free software: you can redistribute it and/or modify it under
   the terms of the GNU Lesser General Public License as published by
   the Free Software Foundation, either version 3 of the License, or
   (at your option) any later version.
   
   xtb is distributed in the hope that it will be useful,
   but WITHOUT ANY WARRANTY; without even the implied warranty of
   MERCHANTABILITY or FITNESS FOR A PARTICULAR PURPOSE.  See the
   GNU Lesser General Public License for more details.
   
   Cite this work as:
   * C. Bannwarth, E. Caldeweyher, S. Ehlert, A. Hansen, P. Pracht,
     J. Seibert, S. Spicher, S. Grimme, WIREs Comput. Mol. Sci., 2020, 11,
     e01493. DOI: 10.1002/wcms.1493
   
   for GFN2-xTB:
   * C. Bannwarth, S. Ehlert and S. Grimme., J. Chem. Theory Comput., 2019,
     15, 1652-1671. DOI: 10.1021/acs.jctc.8b01176
   for GFN1-xTB:
   * S. Grimme, C. Bannwarth, P. Shushkov, J. Chem. Theory Comput., 2017,
     13, 1989-2009. DOI: 10.1021/acs.jctc.7b00118
   for GFN0-xTB:
   * P. Pracht, E. Caldeweyher, S. Ehlert, S. Grimme, ChemRxiv, 2019, preprint.
     DOI: 10.26434/chemrxiv.8326202.v1
   for GFN-FF:
   * S. Spicher and S. Grimme, Angew. Chem. Int. Ed., 2020, 59, 15665-15673.
     DOI: 10.1002/anie.202004239
   
   for ALPB and GBSA implicit solvation:
   * S. Ehlert, M. Stahn, S. Spicher, S. Grimme, J. Chem. Theory Comput.,
     2021, 17, 4250-4261. DOI: 10.1021/acs.jctc.1c00471
   
   for ddCOSMO and CPCM-X implicit solvation:
   * M. Stahn, S. Ehlert, S. Grimme, J. Phys. Chem. A,
     2023, XX, XXXX-XXXX. DOI: 10.1021/acs.jpca.3c04382
   
   for DFT-D4:
   * E. Caldeweyher, C. Bannwarth and S. Grimme, J. Chem. Phys., 2017,
     147, 034112. DOI: 10.1063/1.4993215
   * E. Caldeweyher, S. Ehlert, A. Hansen, H. Neugebauer, S. Spicher,
     C. Bannwarth and S. Grimme, J. Chem. Phys., 2019, 150, 154122.
     DOI: 10.1063/1.5090222
   * E. Caldeweyher, J.-M. Mewes, S. Ehlert and S. Grimme, Phys. Chem. Chem. Phys.
     2020, 22, 8499-8512. DOI: 10.1039/D0CP00502A
   
   for sTDA-xTB:
   * S. Grimme and C. Bannwarth, J. Chem. Phys., 2016, 145, 054103.
     DOI: 10.1063/1.4959605
   
   in the mass-spec context:
   * V. Asgeirsson, C. Bauer and S. Grimme, Chem. Sci., 2017, 8, 4879.
     DOI: 10.1039/c7sc00601b
   * J. Koopman and S. Grimme, ACS Omega 2019, 4, 12, 15120-15133.
     DOI: 10.1021/acsomega.9b02011
   
   for metadynamics refer to:
   * S. Grimme, J. Chem. Theory Comput., 2019, 155, 2847-2862
     DOI: 10.1021/acs.jctc.9b00143
   
   for SPH calculations refer to:
   * S. Spicher and S. Grimme, J. Chem. Theory Comput., 2021, 17, 1701-1714
     DOI: 10.1021/acs.jctc.0c01306
   
   for ONIOM refer to:
   * C. Plett, A. Katbashev, S. Ehlert, S. Grimme, M. Bursch,
     Phys. Chem. Chem. Phys., 2023, 25, 17860-17868. DOI: 10.1039/D3CP02178E
   
   for DIPRO refer to:
   * J. Kohn, N. Gildemeister, S. Grimme, D. Fazzi, A. Hansen,
     J. Chem. Phys., 2023, just accepted.
   
   for PTB refer to:
   * S. Grimme, M. Mueller, A. Hansen, J. Chem. Phys., 2023, 158, 124111.
     DOI: 10.1063/5.0137838
   
   with help from (in alphabetical order)
   P. Atkinson, C. Bannwarth, F. Bohle, G. Brandenburg, E. Caldeweyher
   M. Checinski, S. Dohm, S. Ehlert, S. Ehrlich, I. Gerasimov, C. Hölzer
   A. Katbashev, J. Kohn, J. Koopman, C. Lavigne, S. Lehtola, F. März, M. Müller,
   F. Musil, H. Neugebauer, J. Pisarek, C. Plett, P. Pracht, F. Pultar,
   J. Seibert, P. Shushkov, S. Spicher, M. Stahn, M. Steiner, T. Strunk,
   J. Stückrath, T. Rose, and J. Unsleber
   
 * started run on 2026/07/09 at 10:07:14.440     
   ID    Z sym.   atoms
    1    6 C      1-3, 6-11
    2    8 O      4, 5
    3    1 H      12-25

           -------------------------------------------------
          |                Calculation Setup                |
           -------------------------------------------------

          program call               : /home/ws/xd2484/miniforge3/envs/p3z_dft/bin/xtb xtb_input.xyz --gfn 2 --opt tight --cycles 500 --chrg 0 --uhf 0
          hostname                   : gpu10
          coordinate file            : xtb_input.xyz
          omp threads                :                    16


           -------------------------------------------------
          |                 G F N 2 - x T B                 |
           -------------------------------------------------

        Reference                      10.1021/acs.jctc.8b01176
      * Hamiltonian:
        H0-scaling (s, p, d)           1.850000    2.230000    2.230000
        zeta-weighting                 0.500000
      * Dispersion:
        s8                             2.700000
        a1                             0.520000
        a2                             5.000000
        s9                             5.000000
      * Repulsion:
        kExp                           1.500000    1.000000
        rExp                           1.000000
      * Coulomb:
        alpha                          2.000000
        third order                    shell-resolved
        anisotropic                    true
        a3                             3.000000
        a5                             4.000000
        cn-shift                       1.200000
        cn-exp                         4.000000
        max-rad                        5.000000


          ...................................................
          :                      SETUP                      :
          :.................................................:
          :  # basis functions                  58          :
          :  # atomic orbitals                  58          :
          :  # shells                           36          :
          :  # electrons                        62          :
          :  max. iterations                   250          :
          :  Hamiltonian                  GFN2-xTB          :
          :  restarted?                      false          :
          :  GBSA solvation                  false          :
          :  PC potential                    false          :
          :  electronic temp.          300.0000000     K    :
          :  accuracy                    1.0000000          :
          :  -> integral cutoff          0.2500000E+02      :
          :  -> integral neglect         0.1000000E-07      :
          :  -> SCF convergence          0.1000000E-05 Eh   :
          :  -> wf. convergence          0.1000000E-03 e    :
          :  Broyden damping             0.4000000          :
          :  net charge                          0          :
          :  unpaired electrons                  0          :
          ...................................................

 iter      E             dE          RMSdq      gap      omega  full diag
   1    -34.8911123 -0.348911E+02  0.395E+00    4.25       0.0  T
   2    -34.9649429 -0.738306E-01  0.210E+00    3.39       1.0  T
   3    -34.9663761 -0.143323E-02  0.115E+00    3.73       1.0  T
   4    -34.9685638 -0.218772E-02  0.337E-01    3.52       1.0  T
   5    -34.9703504 -0.178653E-02  0.151E-01    3.60       1.0  T
   6    -34.9707619 -0.411524E-03  0.524E-02    3.60       1.0  T
   7    -34.9707703 -0.838314E-05  0.140E-02    3.60       1.4  T
   8    -34.9707706 -0.283269E-06  0.519E-03    3.60       3.9  T
   9    -34.9707707 -0.121671E-06  0.162E-03    3.60      12.3  T
  10    -34.9707707 -0.748078E-08  0.765E-04    3.60      26.1  T
  11    -34.9707707 -0.171307E-08  0.144E-04    3.60     139.4  T

   *** convergence criteria satisfied after 11 iterations ***

         #    Occupation            Energy/Eh            Energy/eV
      -------------------------------------------------------------
         1        2.0000           -0.7330176             -19.9464
       ...           ...                  ...                  ...
        25        2.0000           -0.4460060             -12.1364
        26        2.0000           -0.4450307             -12.1099
        27        2.0000           -0.4356317             -11.8541
        28        2.0000           -0.4336273             -11.7996
        29        2.0000           -0.4239934             -11.5374
        30        2.0000           -0.4184388             -11.3863
        31        2.0000           -0.4096073             -11.1460 (HOMO)
        32                         -0.2774188              -7.5490 (LUMO)
        33                         -0.1688710              -4.5952
        34                         -0.0064447              -0.1754
        35                          0.0727797               1.9804
        36                          0.0833060               2.2669
       ...                                ...                  ...
        58                          0.6714464              18.2710
      -------------------------------------------------------------
                  HL-Gap            0.1321885 Eh            3.5970 eV
             Fermi-level           -0.3435131 Eh           -9.3475 eV

 SCC (total)                   0 d,  0 h,  0 min,  0.268 sec
 SCC setup                      ...        0 min,  0.004 sec (  1.342%)
 Dispersion                     ...        0 min,  0.009 sec (  3.313%)
 classical contributions        ...        0 min,  0.004 sec (  1.618%)
 integral evaluation            ...        0 min,  0.014 sec (  5.203%)
 iterations                     ...        0 min,  0.196 sec ( 73.169%)
 molecular gradient             ...        0 min,  0.041 sec ( 15.275%)
 printout                       ...        0 min,  0.000 sec (  0.068%)

         :::::::::::::::::::::::::::::::::::::::::::::::::::::
         ::                     SUMMARY                     ::
         :::::::::::::::::::::::::::::::::::::::::::::::::::::
         :: total energy             -34.544725555393 Eh    ::
         :: gradient norm              0.048305583105 Eh/a0 ::
         :: HOMO-LUMO gap              3.597032220848 eV    ::
         ::.................................................::
         :: SCC energy               -34.970773317190 Eh    ::
         :: -> isotropic ES            0.046724552794 Eh    ::
         :: -> anisotropic ES          0.002674051057 Eh    ::
         :: -> anisotropic XC          0.013713457746 Eh    ::
         :: -> dispersion             -0.018594971277 Eh    ::
         :: repulsion energy           0.426047761797 Eh    ::
         :: add. restraining           0.000000000000 Eh    ::
         :: total charge               0.000000000000 e     ::
         :::::::::::::::::::::::::::::::::::::::::::::::::::::

      ----------------------------------------------------------- 
     |                   =====================                   |
     |                        A N C O P T                        |
     |                   =====================                   |
     |               Approximate Normal Coordinate               |
     |                Rational Function Optimizer                |
      ----------------------------------------------------------- 
      ----------------------------------------------------------- 
     |                   =====================                   |
     |                        A N C O P T                        |
     |                   =====================                   |
     |               Approximate Normal Coordinate               |
     |                Rational Function Optimizer                |
      ----------------------------------------------------------- 

          ...................................................
          :                      SETUP                      :
          :.................................................:
          :   optimization level             tight          :
          :   max. optcycles                   500          :
          :   ANC micro-cycles                  20          :
          :   degrees of freedom                69          :
          :.................................................:
          :   RF solver                   davidson          :
          :   write xtbopt.log                true          :
          :   linear?                        false          :
          :   energy convergence         0.1000000E-05 Eh   :
          :   grad. convergence          0.8000000E-03 Eh/α :
          :   maxmium RF displ.          1.0000000          :
          :   Hlow (freq-cutoff)         0.1000000E-01      :
          :   Hmax (freq-cutoff)         5.0000000          :
          :   S6 in model hess.         20.0000000          :
          ...................................................

generating ANC from exact Hessian ...
Using Lindh-Hessian (1995)
 Shifting diagonal of input Hessian by    9.0202623121047390E-003
 Lowest  eigenvalues of input Hessian
    0.000000    0.000000    0.000000    0.000000    0.000000    0.000000
    0.010000    0.011069    0.011139    0.015665    0.017647    0.019697
    0.021939    0.023547    0.024977    0.028007    0.033096    0.034460
 Highest eigenvalues
    1.280456    1.291336    1.402360    1.674459    1.946140    2.335161


........................................................................
.............................. CYCLE    1 ..............................
........................................................................

 iter      E             dE          RMSdq      gap      omega  full diag
   1    -34.9707707 -0.349708E+02  0.666E-05    3.60       0.0  T
   2    -34.9707707 -0.727596E-11  0.397E-05    3.60     503.5  T
   3    -34.9707707  0.157030E-11  0.204E-05    3.60     980.8  T
     SCC iter.                  ...        0 min,  0.040 sec
     gradient                   ...        0 min,  0.035 sec
 * total energy  :   -34.5447256 Eh     change       -0.8363799E-10 Eh
   gradient norm :     0.0483060 Eh/α   predicted     0.0000000E+00 (-100.00%)
   displ. norm   :     0.1506469 α      lambda       -0.4094836E-02
   maximum displ.:     0.0494896 α      in ANC's #48, #26, #9, ...

........................................................................
.............................. CYCLE    2 ..............................
........................................................................

 iter      E             dE          RMSdq      gap      omega  full diag
   1    -34.9885014 -0.349885E+02  0.148E-01    3.68       0.0  T
   2    -34.9885235 -0.221727E-04  0.873E-02    3.68       1.0  T
   3    -34.9885008  0.227825E-04  0.424E-02    3.69       1.0  T
   4    -34.9885283 -0.275772E-04  0.117E-02    3.69       1.7  T
   5    -34.9885309 -0.254992E-05  0.301E-03    3.69       6.6  T
   6    -34.9885309 -0.198057E-07  0.162E-03    3.69      12.3  T
   7    -34.9885309 -0.416372E-08  0.276E-04    3.69      72.5  T
   8    -34.9885309 -0.103832E-09  0.662E-05    3.69     302.3  T
     SCC iter.                  ...        0 min,  0.111 sec
     gradient                   ...        0 min,  0.041 sec
 * total energy  :   -34.5472883 Eh     change       -0.2562730E-02 Eh
   gradient norm :     0.0143018 Eh/α   predicted    -0.2093919E-02 ( -18.29%)
   displ. norm   :     0.1141194 α      lambda       -0.6382167E-03
   maximum displ.:     0.0492949 α      in ANC's #9, #6, #10, ...

........................................................................
.............................. CYCLE    3 ..............................
........................................................................

 iter      E             dE          RMSdq      gap      omega  full diag
   1    -34.9940370 -0.349940E+02  0.620E-02    3.72       0.0  T
   2    -34.9940464 -0.942761E-05  0.352E-02    3.71       1.0  T
   3    -34.9940449  0.149828E-05  0.186E-02    3.71       1.1  T
   4    -34.9940471 -0.220972E-05  0.729E-03    3.71       2.7  T
   5    -34.9940482 -0.104797E-05  0.159E-03    3.71      12.6  T
   6    -34.9940482 -0.169670E-07  0.844E-04    3.71      23.7  T
   7    -34.9940482 -0.132886E-08  0.202E-04    3.71      99.2  T
     SCC iter.                  ...        0 min,  0.099 sec
     gradient                   ...        0 min,  0.040 sec
 * total energy  :   -34.5476751 Eh     change       -0.3868320E-03 Eh
   gradient norm :     0.0056943 Eh/α   predicted    -0.3232660E-03 ( -16.43%)
   displ. norm   :     0.0889802 α      lambda       -0.1442009E-03
   maximum displ.:     0.0420199 α      in ANC's #9, #6, #10, ...

........................................................................
.............................. CYCLE    4 ..............................
........................................................................

 iter      E             dE          RMSdq      gap      omega  full diag
   1    -34.9942598 -0.349943E+02  0.288E-02    3.71       0.0  T
   2    -34.9942639 -0.407822E-05  0.165E-02    3.71       1.2  T
   3    -34.9942640 -0.745603E-07  0.783E-03    3.71       2.6  T
   4    -34.9942640  0.165431E-08  0.203E-03    3.71       9.9  T
   5    -34.9942640 -0.806027E-07  0.776E-04    3.71      25.8  T
   6    -34.9942641 -0.732461E-08  0.334E-04    3.71      59.9  T
     SCC iter.                  ...        0 min,  0.086 sec
     gradient                   ...        0 min,  0.044 sec
 * total energy  :   -34.5477706 Eh     change       -0.9543931E-04 Eh
   gradient norm :     0.0029415 Eh/α   predicted    -0.7267215E-04 ( -23.86%)
   displ. norm   :     0.1008619 α      lambda       -0.9194609E-04
   maximum displ.:     0.0470530 α      in ANC's #9, #6, #2, ...

........................................................................
.............................. CYCLE    5 ..............................
........................................................................

 iter      E             dE          RMSdq      gap      omega  full diag
   1    -34.9935459 -0.349935E+02  0.307E-02    3.71       0.0  T
   2    -34.9935476 -0.171799E-05  0.181E-02    3.70       1.1  T
   3    -34.9935476  0.502057E-07  0.570E-03    3.70       3.5  T
   4    -34.9935476 -0.213051E-07  0.221E-03    3.70       9.0  T
   5    -34.9935477 -0.100976E-06  0.501E-04    3.70      39.9  T
   6    -34.9935477 -0.132530E-08  0.222E-04    3.70      90.2  T
     SCC iter.                  ...        0 min,  0.078 sec
     gradient                   ...        0 min,  0.041 sec
 * total energy  :   -34.5478145 Eh     change       -0.4395361E-04 Eh
   gradient norm :     0.0033932 Eh/α   predicted    -0.4644146E-04 (   5.66%)
   displ. norm   :     0.0494334 α      lambda       -0.3638219E-04
   maximum displ.:     0.0273795 α      in ANC's #2, #6, #9, ...

........................................................................
.............................. CYCLE    6 ..............................
........................................................................

 iter      E             dE          RMSdq      gap      omega  full diag
   1    -34.9932479 -0.349932E+02  0.196E-02    3.70       0.0  T
   2    -34.9932480 -0.116552E-06  0.118E-02    3.70       1.7  T
   3    -34.9932477  0.315755E-06  0.404E-03    3.70       5.0  T
   4    -34.9932481 -0.351877E-06  0.927E-04    3.70      21.6  T
   5    -34.9932481 -0.134871E-07  0.286E-04    3.70      70.0  T
     SCC iter.                  ...        0 min,  0.072 sec
     gradient                   ...        0 min,  0.039 sec
 * total energy  :   -34.5478344 Eh     change       -0.1993646E-04 Eh
   gradient norm :     0.0022818 Eh/α   predicted    -0.1823592E-04 (  -8.53%)
   displ. norm   :     0.0273144 α      lambda       -0.1176667E-04
   maximum displ.:     0.0200687 α      in ANC's #2, #1, #3, ...

........................................................................
.............................. CYCLE    7 ..............................
........................................................................

 iter      E             dE          RMSdq      gap      omega  full diag
   1    -34.9934190 -0.349934E+02  0.882E-03    3.71       0.0  T
   2    -34.9934194 -0.350893E-06  0.507E-03    3.71       3.9  T
   3    -34.9934194  0.206336E-08  0.245E-03    3.71       8.2  T
   4    -34.9934194  0.637966E-08  0.115E-03    3.71      17.4  T
   5    -34.9934194 -0.285845E-07  0.204E-04    3.71      98.2  T
   6    -34.9934194 -0.350461E-09  0.114E-04    3.71     175.1  T
     SCC iter.                  ...        0 min,  0.072 sec
     gradient                   ...        0 min,  0.037 sec
 * total energy  :   -34.5478431 Eh     change       -0.8611837E-05 Eh
   gradient norm :     0.0008009 Eh/α   predicted    -0.5888366E-05 ( -31.62%)
   displ. norm   :     0.0536035 α      lambda       -0.7984981E-05
   maximum displ.:     0.0397387 α      in ANC's #2, #1, #3, ...

........................................................................
.............................. CYCLE    8 ..............................
........................................................................

 iter      E             dE          RMSdq      gap      omega  full diag
   1    -34.9936889 -0.349937E+02  0.145E-02    3.71       0.0  T
   2    -34.9936893 -0.422575E-06  0.858E-03    3.71       2.3  T
   3    -34.9936893  0.348721E-07  0.286E-03    3.71       7.0  T
   4    -34.9936893 -0.200836E-07  0.136E-03    3.71      14.7  T
   5    -34.9936894 -0.400604E-07  0.239E-04    3.71      83.8  T
   6    -34.9936894 -0.282121E-09  0.143E-04    3.71     139.7  T
     SCC iter.                  ...        0 min,  0.083 sec
     gradient                   ...        0 min,  0.034 sec
 * total energy  :   -34.5478499 Eh     change       -0.6847801E-05 Eh
   gradient norm :     0.0014530 Eh/α   predicted    -0.4000000E-05 ( -41.59%)
   displ. norm   :     0.0334431 α      lambda       -0.3666867E-05
   maximum displ.:     0.0249443 α      in ANC's #2, #1, #3, ...

........................................................................
.............................. CYCLE    9 ..............................
........................................................................

 iter      E             dE          RMSdq      gap      omega  full diag
   1    -34.9936619 -0.349937E+02  0.820E-03    3.71       0.0  T
   2    -34.9936619 -0.457483E-07  0.478E-03    3.71       4.2  T
   3    -34.9936619  0.405835E-08  0.952E-04    3.71      21.0  T
   4    -34.9936619 -0.468101E-08  0.400E-04    3.71      50.0  T
     SCC iter.                  ...        0 min,  0.052 sec
     gradient                   ...        0 min,  0.027 sec
 * total energy  :   -34.5478544 Eh     change       -0.4523222E-05 Eh
   gradient norm :     0.0010471 Eh/α   predicted    -0.1838909E-05 ( -59.35%)
   displ. norm   :     0.0521313 α      lambda       -0.5298396E-05
   maximum displ.:     0.0366268 α      in ANC's #2, #1, #3, ...

........................................................................
.............................. CYCLE   10 ..............................
........................................................................

 iter      E             dE          RMSdq      gap      omega  full diag
   1    -34.9935707 -0.349936E+02  0.124E-02    3.71       0.0  T
   2    -34.9935710 -0.230635E-06  0.718E-03    3.71       2.8  T
   3    -34.9935709  0.116162E-07  0.214E-03    3.71       9.3  T
   4    -34.9935710 -0.105251E-07  0.829E-04    3.71      24.1  T
   5    -34.9935710 -0.130451E-07  0.211E-04    3.71      94.8  T
     SCC iter.                  ...        0 min,  0.060 sec
     gradient                   ...        0 min,  0.029 sec
 * total energy  :   -34.5478598 Eh     change       -0.5405321E-05 Eh
   gradient norm :     0.0003312 Eh/α   predicted    -0.2653004E-05 ( -50.92%)
   displ. norm   :     0.0468422 α      lambda       -0.2719965E-05
   maximum displ.:     0.0327005 α      in ANC's #2, #1, #4, ...

........................................................................
.............................. CYCLE   11 ..............................
........................................................................

 iter      E             dE          RMSdq      gap      omega  full diag
   1    -34.9934997 -0.349935E+02  0.103E-02    3.71       0.0  T
   2    -34.9934997 -0.280469E-07  0.606E-03    3.71       3.3  T
   3    -34.9934997  0.162407E-07  0.111E-03    3.71      18.0  T
   4    -34.9934997 -0.172309E-07  0.456E-04    3.71      43.9  T
   5    -34.9934997 -0.393955E-08  0.134E-04    3.71     148.9  T
     SCC iter.                  ...        0 min,  0.061 sec
     gradient                   ...        0 min,  0.034 sec
 * total energy  :   -34.5478628 Eh     change       -0.2917986E-05 Eh
   gradient norm :     0.0005685 Eh/α   predicted    -0.1362770E-05 ( -53.30%)
   displ. norm   :     0.0358123 α      lambda       -0.1440100E-05
   maximum displ.:     0.0252360 α      in ANC's #2, #1, #4, ...

........................................................................
.............................. CYCLE   12 ..............................
........................................................................

 iter      E             dE          RMSdq      gap      omega  full diag
   1    -34.9935117 -0.349935E+02  0.849E-03    3.71       0.0  T
   2    -34.9935117 -0.788218E-08  0.500E-03    3.71       4.0  T
   3    -34.9935117  0.213058E-08  0.469E-04    3.71      42.6  T
   4    -34.9935117 -0.358062E-08  0.233E-04    3.71      86.0  T
     SCC iter.                  ...        0 min,  0.062 sec
     gradient                   ...        0 min,  0.043 sec
 * total energy  :   -34.5478643 Eh     change       -0.1584810E-05 Eh
   gradient norm :     0.0003857 Eh/α   predicted    -0.7234214E-06 ( -54.35%)
   displ. norm   :     0.0286021 α      lambda       -0.9271815E-06
   maximum displ.:     0.0203132 α      in ANC's #2, #1, #4, ...

........................................................................
.............................. CYCLE   13 ..............................
........................................................................

 iter      E             dE          RMSdq      gap      omega  full diag
   1    -34.9935759 -0.349936E+02  0.101E-02    3.71       0.0  T
   2    -34.9935759 -0.184967E-07  0.596E-03    3.71       3.4  T
   3    -34.9935759 -0.209539E-09  0.418E-04    3.71      47.9  T
   4    -34.9935759 -0.197915E-08  0.135E-04    3.71     148.1  T
     SCC iter.                  ...        0 min,  0.050 sec
     gradient                   ...        0 min,  0.037 sec
 * total energy  :   -34.5478652 Eh     change       -0.9111050E-06 Eh
   gradient norm :     0.0001505 Eh/α   predicted    -0.4644062E-06 ( -49.03%)
   displ. norm   :     0.0260879 α      lambda        0.2653867E-06
   maximum displ.:     0.0185006 α      in ANC's #2, #1, #4, ...

   *** GEOMETRY OPTIMIZATION CONVERGED AFTER 13 ITERATIONS ***

------------------------------------------------------------------------
 total energy gain   :        -0.0031397 Eh       -1.9702 kcal/mol
 total RMSD          :         0.1186015 a0        0.0628 Å
 total power (kW/mol):        -0.6340971 (step)   -4.4181 (real)
------------------------------------------------------------------------

 ANCopt (total)                0 d,  0 h,  0 min,  1.866 sec
 optimizer setup                ...        0 min,  0.001 sec (  0.042%)
 model hessian                  ...        0 min,  0.017 sec (  0.933%)
 ANC generation                 ...        0 min,  0.001 sec (  0.058%)
 coordinate transformation      ...        0 min,  0.000 sec (  0.009%)
 single point calculation       ...        0 min,  1.789 sec ( 95.864%)
 optimization log               ...        0 min,  0.002 sec (  0.085%)
 hessian update                 ...        0 min,  0.053 sec (  2.841%)
 rational function              ...        0 min,  0.001 sec (  0.061%)

================
 final structure:
================
25
 xtb: 6.7.1 (edcfbbe)
C            4.65092461616186       -0.78193540348875        0.15393526858646
C            3.53664958392432       -0.20007134709601        0.57098667403754
C            2.26418542256711       -0.36189686887406       -0.16884412405049
O            2.13043634699038       -0.99213516225362       -1.18941339059216
O            1.27640303517533        0.29649411000174        0.44571362095365
C           -0.02659110471304        0.23996566159895       -0.14992688545003
C           -0.75843705290382       -1.02656832648157        0.29255599079505
C           -2.17168504103748       -1.04335847736521       -0.28089167033845
C           -2.94095628691628        0.20147342456870        0.15099106611143
C           -2.20412592019387        1.46210819939880       -0.29167128651929
C           -0.79083112250344        1.48621513274384        0.28254871256118
H            5.58704645119182       -0.67900705366770        0.67529633980063
H            4.64241377048916       -1.38548084030501       -0.73931821023216
H            3.48419357497578        0.41390432526357        1.45714381706817
H            0.09853034795877        0.22330178820819       -1.24083280691192
H           -0.20003462364489       -1.90082995338693       -0.04699821953762
H           -0.79593181226325       -1.04574213451445        1.38436512755104
H           -2.11727267908492       -1.07728931610521       -1.37112644712971
H           -2.69169289323684       -1.94143824820843        0.05711630813945
H           -3.04479143653219        0.20512049310515        1.23828442323560
H           -3.94311469231936        0.18684776168757       -0.28146730995858
H           -2.15178596759672        1.48686890404997       -1.38244667554203
H           -2.74745503321056        2.34931594163603        0.03851648931047
H           -0.83002372178362        1.50779208735916        1.37330591808484
H           -0.25605376149130        2.37634530212734       -0.05321773114102

 Bond Distances (Angstroems)
 ---------------------------
C1-C2=1.3244         C1-H12=1.0764        C1-H13=1.0781        C2-C1=1.3244         C2-C3=1.4808         C2-H14=1.0793        
C3-C2=1.4808         C3-O4=1.2069         C3-O5=1.3367         O4-C3=1.2069         O5-C3=1.3367         O5-C6=1.4338         
C6-O5=1.4338         C6-C7=1.5282         C6-C11=1.5245        C6-H15=1.0982        C7-C6=1.5282         C7-C8=1.5253         
C7-H16=1.0915        C7-H17=1.0926        C8-C7=1.5253         C8-C9=1.5257         C8-H18=1.0921        C8-H19=1.0914        
C9-C8=1.5257         C9-C10=1.5258        C9-H20=1.0922        C9-H21=1.0916        C10-C9=1.5258        C10-C11=1.5257       
C10-H22=1.0923       C10-H23=1.0915       C11-C6=1.5245        C11-C10=1.5257       C11-H24=1.0917       C11-H25=1.0914       
H12-C1=1.0764        H13-C1=1.0781        H14-C2=1.0793        H15-C6=1.0982        H16-C7=1.0915        H17-C7=1.0926        
H18-C8=1.0921        H19-C8=1.0914        H20-C9=1.0922        H21-C9=1.0916        H22-C10=1.0923       H23-C10=1.0915       
H24-C11=1.0917       H25-C11=1.0914       
 C  H  Rav=1.0893 sigma=0.0062  Rmin=1.0764  Rmax=1.0982    14
 C  C  Rav=1.4951 sigma=0.0662  Rmin=1.3244  Rmax=1.5282     8
 O  C  Rav=1.3258 sigma=0.0929  Rmin=1.2069  Rmax=1.4338     3

 selected bond angles (degree)
 --------------------
H12-C1-C2=122.49               H13-C1-C2=120.01               H13-C1-H12=117.50              C3-C2-C1=121.17                
H14-C2-C1=123.32               H14-C2-C3=115.51               O4-C3-C2=125.08                O5-C3-C2=110.58                
O5-C3-O4=124.34                C6-O5-C3=117.46                C7-C6-O5=110.34                C11-C6-O5=107.79               
C11-C6-C7=110.81               H15-C6-O5=108.04               H15-C6-C7=109.24               H15-C6-C11=110.57              
C8-C7-C6=110.12                H16-C7-C6=109.19               H16-C7-C8=110.38               H17-C7-C6=108.68               
H17-C7-C8=110.10               H17-C7-H16=108.32              C9-C8-C7=110.60                H18-C8-C7=109.24               
H18-C8-C9=109.45               H19-C8-C7=109.52               H19-C8-C9=110.09               H19-C8-H18=107.90              
C10-C9-C8=110.39               H20-C9-C8=109.42               H20-C9-C10=109.39              H21-C9-C8=109.87               
H21-C9-C10=109.85              H21-C9-H20=107.89              C11-C10-C9=110.56              H22-C10-C9=109.36              
H22-C10-C11=109.34             H23-C10-C9=110.09              H23-C10-C11=109.54             H23-C10-H22=107.91             

 selected dihedral angles (degree)
 ---------------------------------
C3-C2-C1-H12=180.03           C3-C2-C1-H13=  0.06           H14-C2-C1-H12=359.92          H14-C2-C1-H13=179.94          
O4-C3-C2-C1=358.72            O4-C3-C2-H14=178.82           O5-C3-C2-C1=179.12            O5-C3-C2-H14=359.22           
C6-O5-C3-C2=179.91            C6-O5-C3-O4=  0.31            C7-C6-O5-C3= 84.38            C11-C6-O5-C3=205.50           
H15-C6-O5-C3=325.01           C8-C7-C6-O5=176.85            C8-C7-C6-C11= 57.54           C8-C7-C6-H15=295.49           
H16-C7-C6-O5=298.19           H16-C7-C6-C11=178.89          H16-C7-C6-H15= 56.83          H17-C7-C6-O5= 56.17           
H17-C7-C6-C11=296.86          H17-C7-C6-H15=174.80          C9-C8-C7-C6=302.62            C9-C8-C7-H16=181.98           
C9-C8-C7-H17= 62.44           H18-C8-C7-C6= 63.14           H18-C8-C7-H16=302.51          H18-C8-C7-H17=182.97          
H19-C8-C7-C6=181.12           H19-C8-C7-H16= 60.48          H19-C8-C7-H17=300.94          C10-C9-C8-C7= 57.61           
C10-C9-C8-H18=297.21          C10-C9-C8-H19=178.77          H20-C9-C8-C7=297.17           H20-C9-C8-H18=176.77          
H20-C9-C8-H19= 58.33          H21-C9-C8-C7=178.90           H21-C9-C8-H18= 58.50          H21-C9-C8-H19=300.06          
C11-C10-C9-C8=302.38          C11-C10-C9-H20= 62.83         C11-C10-C9-H21=181.08         H22-C10-C9-C8= 62.82          
H22-C10-C9-H20=183.28         H22-C10-C9-H21=301.52         H23-C10-C9-C8=181.22          H23-C10-C9-H20=301.67         
H23-C10-C9-H21= 59.91         
           -------------------------------------------------
          |                Final Singlepoint                |
           -------------------------------------------------

          ...................................................
          :                      SETUP                      :
          :.................................................:
          :  # basis functions                  58          :
          :  # atomic orbitals                  58          :
          :  # shells                           36          :
          :  # electrons                        62          :
          :  max. iterations                   250          :
          :  Hamiltonian                  GFN2-xTB          :
          :  restarted?                      false          :
          :  GBSA solvation                  false          :
          :  PC potential                    false          :
          :  electronic temp.          300.0000000     K    :
          :  accuracy                    1.0000000          :
          :  -> integral cutoff          0.2500000E+02      :
          :  -> integral neglect         0.1000000E-07      :
          :  -> SCF convergence          0.1000000E-05 Eh   :
          :  -> wf. convergence          0.1000000E-03 e    :
          :  Broyden damping             0.4000000          :
          :  net charge                          0          :
          :  unpaired electrons                  0          :
          ...................................................

 iter      E             dE          RMSdq      gap      omega  full diag
   1    -34.9935759 -0.349936E+02  0.831E-05    3.71       0.0  T
   2    -34.9935759 -0.831335E-11  0.589E-05    3.71     339.7  T
   3    -34.9935759 -0.179057E-10  0.394E-05    3.71     507.4  T

   *** convergence criteria satisfied after 3 iterations ***

         #    Occupation            Energy/Eh            Energy/eV
      -------------------------------------------------------------
         1        2.0000           -0.7357977             -20.0221
       ...           ...                  ...                  ...
        25        2.0000           -0.4465647             -12.1516
        26        2.0000           -0.4441439             -12.0858
        27        2.0000           -0.4366186             -11.8810
        28        2.0000           -0.4346952             -11.8287
        29        2.0000           -0.4266094             -11.6086
        30        2.0000           -0.4175150             -11.3612
        31        2.0000           -0.4084493             -11.1145 (HOMO)
        32                         -0.2720273              -7.4022 (LUMO)
        33                         -0.1620603              -4.4099
        34                         -0.0055124              -0.1500
        35                          0.0808626               2.2004
        36                          0.0878678               2.3910
       ...                                ...                  ...
        58                          0.7108472              19.3431
      -------------------------------------------------------------
                  HL-Gap            0.1364221 Eh            3.7122 eV
             Fermi-level           -0.3402383 Eh           -9.2584 eV

 SCC (total)                   0 d,  0 h,  0 min,  0.115 sec
 SCC setup                      ...        0 min,  0.005 sec (  3.921%)
 Dispersion                     ...        0 min,  0.009 sec (  7.456%)
 classical contributions        ...        0 min,  0.004 sec (  3.838%)
 integral evaluation            ...        0 min,  0.014 sec ( 12.005%)
 iterations                     ...        0 min,  0.044 sec ( 37.979%)
 molecular gradient             ...        0 min,  0.040 sec ( 34.667%)
 printout                       ...        0 min,  0.000 sec (  0.110%)

         :::::::::::::::::::::::::::::::::::::::::::::::::::::
         ::                     SUMMARY                     ::
         :::::::::::::::::::::::::::::::::::::::::::::::::::::
         :: total energy             -34.547865248511 Eh    ::
         :: gradient norm              0.000151042166 Eh/a0 ::
         :: HOMO-LUMO gap              3.712232962771 eV    ::
         ::.................................................::
         :: SCC energy               -34.993582098238 Eh    ::
         :: -> isotropic ES            0.047370920449 Eh    ::
         :: -> anisotropic ES          0.001804147257 Eh    ::
         :: -> anisotropic XC          0.012812022866 Eh    ::
         :: -> dispersion             -0.018685781728 Eh    ::
         :: repulsion energy           0.445716849727 Eh    ::
         :: add. restraining           0.000000000000 Eh    ::
         :: total charge              -0.000000000000 e     ::
         :::::::::::::::::::::::::::::::::::::::::::::::::::::

           -------------------------------------------------
          |                Property Printout                |
           -------------------------------------------------

    * Orbital Energies and Occupations

         #    Occupation            Energy/Eh            Energy/eV
      -------------------------------------------------------------
         1        2.0000           -0.7357977             -20.0221
       ...           ...                  ...                  ...
        19        2.0000           -0.4955418             -13.4844
        20        2.0000           -0.4853013             -13.2057
        21        2.0000           -0.4816032             -13.1051
        22        2.0000           -0.4738158             -12.8932
        23        2.0000           -0.4599089             -12.5148
        24        2.0000           -0.4556617             -12.3992
        25        2.0000           -0.4465647             -12.1516
        26        2.0000           -0.4441439             -12.0858
        27        2.0000           -0.4366186             -11.8810
        28        2.0000           -0.4346952             -11.8287
        29        2.0000           -0.4266094             -11.6086
        30        2.0000           -0.4175150             -11.3612
        31        2.0000           -0.4084493             -11.1145 (HOMO)
        32                         -0.2720273              -7.4022 (LUMO)
        33                         -0.1620603              -4.4099
        34                         -0.0055124              -0.1500
        35                          0.0808626               2.2004
        36                          0.0878678               2.3910
        37                          0.0936817               2.5492
        38                          0.1029246               2.8007
        39                          0.1063452               2.8938
        40                          0.1242628               3.3814
        41                          0.1277615               3.4766
        42                          0.1385305               3.7696
       ...                                ...                  ...
        58                          0.7108472              19.3431
      -------------------------------------------------------------
                  HL-Gap            0.1364221 Eh            3.7122 eV
             Fermi-level           -0.3402383 Eh           -9.2584 eV

     #   Z          covCN         q      C6AA      α(0)
     1   6 C        2.841    -0.060    29.489     8.899
     2   6 C        2.888    -0.059    29.460     8.899
     3   6 C        2.721     0.357    20.940     7.491
     4   8 O        0.856    -0.418    22.045     6.295
     5   8 O        1.705    -0.274    18.549     5.815
     6   6 C        3.753     0.116    18.740     6.173
     7   6 C        3.805    -0.063    21.703     6.632
     8   6 C        3.806    -0.059    21.639     6.622
     9   6 C        3.806    -0.061    21.662     6.626
    10   6 C        3.806    -0.059    21.638     6.622
    11   6 C        3.806    -0.065    21.744     6.638
    12   1 H        0.926     0.061     2.182     2.310
    13   1 H        0.926     0.078     2.001     2.212
    14   1 H        0.926     0.063     2.167     2.302
    15   1 H        0.923     0.047     2.362     2.403
    16   1 H        0.924     0.045     2.384     2.414
    17   1 H        0.924     0.042     2.426     2.436
    18   1 H        0.924     0.038     2.476     2.461
    19   1 H        0.924     0.037     2.488     2.467
    20   1 H        0.924     0.037     2.486     2.466
    21   1 H        0.924     0.035     2.522     2.483
    22   1 H        0.924     0.036     2.498     2.472
    23   1 H        0.924     0.037     2.488     2.467
    24   1 H        0.924     0.049     2.330     2.387
    25   1 H        0.924     0.041     2.438     2.442

 Mol. C6AA /au·bohr⁶  :       5392.241558
 Mol. C8AA /au·bohr⁸  :     119792.695876
 Mol. α(0) /au        :        110.433278


Wiberg/Mayer (AO) data.
largest (>0.10) Wiberg bond orders for each atom

 ---------------------------------------------------------------------------
     #   Z sym  total        # sym  WBO       # sym  WBO       # sym  WBO
 ---------------------------------------------------------------------------
     1   6 C    3.980 --     2 C    1.934    12 H    0.976    13 H    0.970
     2   6 C    3.988 --     1 C    1.934     3 C    1.008    14 H    0.965
     3   6 C    3.920 --     4 O    1.719     5 O    1.131     2 C    1.008
     4   8 O    2.029 --     3 C    1.719     5 O    0.175
     5   8 O    2.309 --     3 C    1.131     6 C    0.922     4 O    0.175
     6   6 C    3.923 --    11 C    0.994     7 C    0.988    15 H    0.959
                             5 O    0.922
     7   6 C    3.994 --     8 C    1.007     6 C    0.988    17 H    0.976
                            16 H    0.975
     8   6 C    3.997 --     9 C    1.009     7 C    1.007    18 H    0.977
                            19 H    0.977
     9   6 C    3.998 --     8 C    1.009    10 C    1.009    20 H    0.977
                            21 H    0.977
    10   6 C    3.996 --     9 C    1.009    11 C    1.007    22 H    0.977
                            23 H    0.977
    11   6 C    3.995 --    10 C    1.007     6 C    0.994    25 H    0.976
                            24 H    0.975
    12   1 H    0.995 --     1 C    0.976
    13   1 H    0.994 --     1 C    0.970
    14   1 H    0.996 --     2 C    0.965
    15   1 H    0.998 --     6 C    0.959
    16   1 H    0.998 --     7 C    0.975
    17   1 H    0.998 --     7 C    0.976
    18   1 H    0.999 --     8 C    0.977
    19   1 H    0.998 --     8 C    0.977
    20   1 H    0.999 --     9 C    0.977
    21   1 H    0.999 --     9 C    0.977
    22   1 H    0.999 --    10 C    0.977
    23   1 H    0.998 --    10 C    0.977
    24   1 H    0.998 --    11 C    0.975
    25   1 H    0.998 --    11 C    0.976
 ---------------------------------------------------------------------------

Topologies differ in total number of bonds
Writing topology from bond orders to xtbtopo.mol

molecular dipole:
                 x           y           z       tot (Debye)
 q only:       -0.307       0.365       0.602
   full:       -0.240       0.423       0.674       2.113
molecular quadrupole (traceless):
                xx          xy          yy          xz          yz          zz
 q only:        8.174       0.357      -2.979       4.658      -2.118      -5.195
  q+dip:        6.773       0.830      -3.608       4.983      -2.168      -3.166
   full:        6.959       1.241      -2.708       5.088      -3.296      -4.251

           -------------------------------------------------
          |                Geometry Summary                 |
           -------------------------------------------------

      molecular mass/u    :      154.2066034
   center of mass at/Å    :        0.4424476      -0.0693452      -0.0263226
  moments of inertia/u·Å² :        0.1627681E+03   0.9512010E+03   0.1028537E+04
rotational constants/cm⁻¹ :        0.1035684E+00   0.1772247E-01   0.1638991E-01

 * 24 selected distances

     #   Z          #   Z                                           value/Å
     1   6 C        2   6 C                                       1.3244270
     3   6 C        4   8 O                                       1.2069180
     3   6 C        5   8 O                                       1.3367402
     5   8 O        6   6 C                                       1.4337982
     6   6 C        7   6 C                                       1.5282337 (max)
     7   6 C        8   6 C                                       1.5252523
     8   6 C        9   6 C                                       1.5257483
     9   6 C       10   6 C                                       1.5258012
     6   6 C       11   6 C                                       1.5245446
    10   6 C       11   6 C                                       1.5256842
     1   6 C       12   1 H                                       1.0764460 (min)
     1   6 C       13   1 H                                       1.0780731
     2   6 C       14   1 H                                       1.0793482
     6   6 C       15   1 H                                       1.0981844
     7   6 C       16   1 H                                       1.0915328
     7   6 C       17   1 H                                       1.0926211
     8   6 C       18   1 H                                       1.0921191
     8   6 C       19   1 H                                       1.0914234
     9   6 C       20   1 H                                       1.0922464
     9   6 C       21   1 H                                       1.0915841
    10   6 C       22   1 H                                       1.0923112
    10   6 C       23   1 H                                       1.0914982
    11   6 C       24   1 H                                       1.0916745
    11   6 C       25   1 H                                       1.0913560

 * 3 distinct bonds (by element types)

   Z      Z             #   av. dist./Å        max./Å        min./Å
   1 H    6 C          14     1.0893156     1.0981844     1.0764460
   6 C    6 C           7     1.4970988     1.5282337     1.3244270
   6 C    8 O           3     1.3258188     1.4337982     1.2069180


optimized geometry written to: xtbopt.xyz


           -------------------------------------------------
          | TOTAL ENERGY              -34.547865248511 Eh   |
          | GRADIENT NORM               0.000151042166 Eh/α |
          | HOMO-LUMO GAP               3.712232962771 eV   |
           -------------------------------------------------

------------------------------------------------------------------------
 * finished run on 2026/07/09 at 10:07:16.763     
------------------------------------------------------------------------
 total:
 * wall-time:     0 d,  0 h,  0 min,  2.323 sec
 *  cpu-time:     0 d,  0 h,  0 min, 37.003 sec
 * ratio c/w:    15.927 speedup
 SCF:
 * wall-time:     0 d,  0 h,  0 min,  0.268 sec
 *  cpu-time:     0 d,  0 h,  0 min,  4.255 sec
 * ratio c/w:    15.878 speedup
 ANC optimizer:
 * wall-time:     0 d,  0 h,  0 min,  1.988 sec
 *  cpu-time:     0 d,  0 h,  0 min, 31.759 sec
 * ratio c/w:    15.979 speedup

