      -----------------------------------------------------------      
     |                   =====================                   |     
     |                           x T B                           |     
     |                   =====================                   |     
     |                         S. Grimme                         |     
     |          Mulliken Center for Theoretical Chemistry        |     
     |                    University of Bonn                     |     
      -----------------------------------------------------------      

   * xtb version 6.7.1 (edcfbbe) compiled by 'conda@5dfe00f5fb80' on 2026-06-10

   xtb is free software: you can redistribute it and/or modify it under
   the terms of the GNU Lesser General Public License as published by
   the Free Software Foundation, either version 3 of the License, or
   (at your option) any later version.
   
   xtb is distributed in the hope that it will be useful,
   but WITHOUT ANY WARRANTY; without even the implied warranty of
   MERCHANTABILITY or FITNESS FOR A PARTICULAR PURPOSE.  See the
   GNU Lesser General Public License for more details.
   
   Cite this work as:
   * C. Bannwarth, E. Caldeweyher, S. Ehlert, A. Hansen, P. Pracht,
     J. Seibert, S. Spicher, S. Grimme, WIREs Comput. Mol. Sci., 2020, 11,
     e01493. DOI: 10.1002/wcms.1493
   
   for GFN2-xTB:
   * C. Bannwarth, S. Ehlert and S. Grimme., J. Chem. Theory Comput., 2019,
     15, 1652-1671. DOI: 10.1021/acs.jctc.8b01176
   for GFN1-xTB:
   * S. Grimme, C. Bannwarth, P. Shushkov, J. Chem. Theory Comput., 2017,
     13, 1989-2009. DOI: 10.1021/acs.jctc.7b00118
   for GFN0-xTB:
   * P. Pracht, E. Caldeweyher, S. Ehlert, S. Grimme, ChemRxiv, 2019, preprint.
     DOI: 10.26434/chemrxiv.8326202.v1
   for GFN-FF:
   * S. Spicher and S. Grimme, Angew. Chem. Int. Ed., 2020, 59, 15665-15673.
     DOI: 10.1002/anie.202004239
   
   for ALPB and GBSA implicit solvation:
   * S. Ehlert, M. Stahn, S. Spicher, S. Grimme, J. Chem. Theory Comput.,
     2021, 17, 4250-4261. DOI: 10.1021/acs.jctc.1c00471
   
   for ddCOSMO and CPCM-X implicit solvation:
   * M. Stahn, S. Ehlert, S. Grimme, J. Phys. Chem. A,
     2023, XX, XXXX-XXXX. DOI: 10.1021/acs.jpca.3c04382
   
   for DFT-D4:
   * E. Caldeweyher, C. Bannwarth and S. Grimme, J. Chem. Phys., 2017,
     147, 034112. DOI: 10.1063/1.4993215
   * E. Caldeweyher, S. Ehlert, A. Hansen, H. Neugebauer, S. Spicher,
     C. Bannwarth and S. Grimme, J. Chem. Phys., 2019, 150, 154122.
     DOI: 10.1063/1.5090222
   * E. Caldeweyher, J.-M. Mewes, S. Ehlert and S. Grimme, Phys. Chem. Chem. Phys.
     2020, 22, 8499-8512. DOI: 10.1039/D0CP00502A
   
   for sTDA-xTB:
   * S. Grimme and C. Bannwarth, J. Chem. Phys., 2016, 145, 054103.
     DOI: 10.1063/1.4959605
   
   in the mass-spec context:
   * V. Asgeirsson, C. Bauer and S. Grimme, Chem. Sci., 2017, 8, 4879.
     DOI: 10.1039/c7sc00601b
   * J. Koopman and S. Grimme, ACS Omega 2019, 4, 12, 15120-15133.
     DOI: 10.1021/acsomega.9b02011
   
   for metadynamics refer to:
   * S. Grimme, J. Chem. Theory Comput., 2019, 155, 2847-2862
     DOI: 10.1021/acs.jctc.9b00143
   
   for SPH calculations refer to:
   * S. Spicher and S. Grimme, J. Chem. Theory Comput., 2021, 17, 1701-1714
     DOI: 10.1021/acs.jctc.0c01306
   
   for ONIOM refer to:
   * C. Plett, A. Katbashev, S. Ehlert, S. Grimme, M. Bursch,
     Phys. Chem. Chem. Phys., 2023, 25, 17860-17868. DOI: 10.1039/D3CP02178E
   
   for DIPRO refer to:
   * J. Kohn, N. Gildemeister, S. Grimme, D. Fazzi, A. Hansen,
     J. Chem. Phys., 2023, just accepted.
   
   for PTB refer to:
   * S. Grimme, M. Mueller, A. Hansen, J. Chem. Phys., 2023, 158, 124111.
     DOI: 10.1063/5.0137838
   
   with help from (in alphabetical order)
   P. Atkinson, C. Bannwarth, F. Bohle, G. Brandenburg, E. Caldeweyher
   M. Checinski, S. Dohm, S. Ehlert, S. Ehrlich, I. Gerasimov, C. Hölzer
   A. Katbashev, J. Kohn, J. Koopman, C. Lavigne, S. Lehtola, F. März, M. Müller,
   F. Musil, H. Neugebauer, J. Pisarek, C. Plett, P. Pracht, F. Pultar,
   J. Seibert, P. Shushkov, S. Spicher, M. Stahn, M. Steiner, T. Strunk,
   J. Stückrath, T. Rose, and J. Unsleber
   
 * started run on 2026/07/08 at 23:44:38.832     
   ID    Z sym.   atoms
    1    6 C      1, 2, 4-9
    2    8 O      3, 10
    3    1 H      11-18

           -------------------------------------------------
          |                Calculation Setup                |
           -------------------------------------------------

          program call               : /home/ws/xd2484/miniforge3/envs/p3z_dft/bin/xtb xtb_input.xyz --gfn 2 --opt tight --cycles 500 --chrg 0 --uhf 0
          hostname                   : gpu10
          coordinate file            : xtb_input.xyz
          omp threads                :                    16


           -------------------------------------------------
          |                 G F N 2 - x T B                 |
           -------------------------------------------------

        Reference                      10.1021/acs.jctc.8b01176
      * Hamiltonian:
        H0-scaling (s, p, d)           1.850000    2.230000    2.230000
        zeta-weighting                 0.500000
      * Dispersion:
        s8                             2.700000
        a1                             0.520000
        a2                             5.000000
        s9                             5.000000
      * Repulsion:
        kExp                           1.500000    1.000000
        rExp                           1.000000
      * Coulomb:
        alpha                          2.000000
        third order                    shell-resolved
        anisotropic                    true
        a3                             3.000000
        a5                             4.000000
        cn-shift                       1.200000
        cn-exp                         4.000000
        max-rad                        5.000000


          ...................................................
          :                      SETUP                      :
          :.................................................:
          :  # basis functions                  48          :
          :  # atomic orbitals                  48          :
          :  # shells                           28          :
          :  # electrons                        52          :
          :  max. iterations                   250          :
          :  Hamiltonian                  GFN2-xTB          :
          :  restarted?                      false          :
          :  GBSA solvation                  false          :
          :  PC potential                    false          :
          :  electronic temp.          300.0000000     K    :
          :  accuracy                    1.0000000          :
          :  -> integral cutoff          0.2500000E+02      :
          :  -> integral neglect         0.1000000E-07      :
          :  -> SCF convergence          0.1000000E-05 Eh   :
          :  -> wf. convergence          0.1000000E-03 e    :
          :  Broyden damping             0.4000000          :
          :  net charge                          0          :
          :  unpaired electrons                  0          :
          ...................................................

 iter      E             dE          RMSdq      gap      omega  full diag
   1    -29.6815322 -0.296815E+02  0.501E+00    3.25       0.0  T
   2    -29.7164044 -0.348722E-01  0.276E+00    2.76       1.0  T
   3    -29.7130631  0.334130E-02  0.157E+00    3.02       1.0  T
   4    -29.7241319 -0.110688E-01  0.256E-01    2.78       1.0  T
   5    -29.7246275 -0.495606E-03  0.115E-01    2.84       1.0  T
   6    -29.7247627 -0.135238E-03  0.451E-02    2.84       1.0  T
   7    -29.7247670 -0.429950E-05  0.191E-02    2.83       1.2  T
   8    -29.7247681 -0.107407E-05  0.668E-03    2.83       3.5  T
   9    -29.7247684 -0.315943E-06  0.293E-03    2.83       8.1  T
  10    -29.7247685 -0.508593E-07  0.117E-03    2.83      20.1  T
  11    -29.7247685 -0.247367E-08  0.615E-04    2.83      38.3  T
  12    -29.7247685 -0.292884E-08  0.136E-04    2.83     173.1  T

   *** convergence criteria satisfied after 12 iterations ***

         #    Occupation            Energy/Eh            Energy/eV
      -------------------------------------------------------------
         1        2.0000           -0.7169706             -19.5098
       ...           ...                  ...                  ...
        20        2.0000           -0.4750645             -12.9272
        21        2.0000           -0.4678460             -12.7307
        22        2.0000           -0.4570771             -12.4377
        23        2.0000           -0.4424561             -12.0398
        24        2.0000           -0.4204924             -11.4422
        25        2.0000           -0.4003903             -10.8952
        26        2.0000           -0.3935056             -10.7078 (HOMO)
        27                         -0.2893737              -7.8743 (LUMO)
        28                         -0.2314252              -6.2974
        29                         -0.2068476              -5.6286
        30                         -0.0987610              -2.6874
        31                          0.0521273               1.4185
       ...                                ...                  ...
        48                          0.6224386              16.9374
      -------------------------------------------------------------
                  HL-Gap            0.1041319 Eh            2.8336 eV
             Fermi-level           -0.3414396 Eh           -9.2910 eV

 SCC (total)                   0 d,  0 h,  0 min,  0.225 sec
 SCC setup                      ...        0 min,  0.003 sec (  1.180%)
 Dispersion                     ...        0 min,  0.008 sec (  3.449%)
 classical contributions        ...        0 min,  0.004 sec (  1.643%)
 integral evaluation            ...        0 min,  0.012 sec (  5.176%)
 iterations                     ...        0 min,  0.161 sec ( 71.646%)
 molecular gradient             ...        0 min,  0.038 sec ( 16.833%)
 printout                       ...        0 min,  0.000 sec (  0.060%)

         :::::::::::::::::::::::::::::::::::::::::::::::::::::
         ::                     SUMMARY                     ::
         :::::::::::::::::::::::::::::::::::::::::::::::::::::
         :: total energy             -29.327922683209 Eh    ::
         :: gradient norm              0.058379093735 Eh/a0 ::
         :: HOMO-LUMO gap              2.833573884459 eV    ::
         ::.................................................::
         :: SCC energy               -29.724725183893 Eh    ::
         :: -> isotropic ES            0.047223278713 Eh    ::
         :: -> anisotropic ES         -0.000250811129 Eh    ::
         :: -> anisotropic XC          0.010566220752 Eh    ::
         :: -> dispersion             -0.014635723338 Eh    ::
         :: repulsion energy           0.396802500684 Eh    ::
         :: add. restraining           0.000000000000 Eh    ::
         :: total charge              -0.000000000000 e     ::
         :::::::::::::::::::::::::::::::::::::::::::::::::::::

      ----------------------------------------------------------- 
     |                   =====================                   |
     |                        A N C O P T                        |
     |                   =====================                   |
     |               Approximate Normal Coordinate               |
     |                Rational Function Optimizer                |
      ----------------------------------------------------------- 
      ----------------------------------------------------------- 
     |                   =====================                   |
     |                        A N C O P T                        |
     |                   =====================                   |
     |               Approximate Normal Coordinate               |
     |                Rational Function Optimizer                |
      ----------------------------------------------------------- 

          ...................................................
          :                      SETUP                      :
          :.................................................:
          :   optimization level             tight          :
          :   max. optcycles                   500          :
          :   ANC micro-cycles                  20          :
          :   degrees of freedom                48          :
          :.................................................:
          :   RF solver                   davidson          :
          :   write xtbopt.log                true          :
          :   linear?                        false          :
          :   energy convergence         0.1000000E-05 Eh   :
          :   grad. convergence          0.8000000E-03 Eh/α :
          :   maxmium RF displ.          1.0000000          :
          :   Hlow (freq-cutoff)         0.1000000E-01      :
          :   Hmax (freq-cutoff)         5.0000000          :
          :   S6 in model hess.         20.0000000          :
          ...................................................

generating ANC from exact Hessian ...
Using Lindh-Hessian (1995)
 Shifting diagonal of input Hessian by    7.6065629114188066E-003
 Lowest  eigenvalues of input Hessian
    0.000000    0.000000    0.000000    0.000000    0.000000    0.000000
    0.010000    0.013008    0.016832    0.017422    0.019588    0.027826
    0.029580    0.042542    0.053795    0.055576    0.058264    0.064569
 Highest eigenvalues
    1.575224    1.687346    1.846649    1.961944    1.993196    2.106832


........................................................................
.............................. CYCLE    1 ..............................
........................................................................

 iter      E             dE          RMSdq      gap      omega  full diag
   1    -29.7247685 -0.297248E+02  0.690E-05    2.83       0.0  T
   2    -29.7247685 -0.243610E-10  0.418E-05    2.83     564.3  T
   3    -29.7247685 -0.143352E-10  0.247E-05    2.83     955.4  T
     SCC iter.                  ...        0 min,  0.035 sec
     gradient                   ...        0 min,  0.033 sec
 * total energy  :   -29.3279227 Eh     change       -0.9108447E-10 Eh
   gradient norm :     0.0583789 Eh/α   predicted     0.0000000E+00 (-100.00%)
   displ. norm   :     0.1540363 α      lambda       -0.3733797E-02
   maximum displ.:     0.1029017 α      in ANC's #3, #26, #11, ...

........................................................................
.............................. CYCLE    2 ..............................
........................................................................

 iter      E             dE          RMSdq      gap      omega  full diag
   1    -29.7439393 -0.297439E+02  0.165E-01    2.85       0.0  T
   2    -29.7440395 -0.100245E-03  0.911E-02    2.88       1.0  T
   3    -29.7440630 -0.234462E-04  0.552E-02    2.87       1.0  T
   4    -29.7440732 -0.101900E-04  0.119E-02    2.88       2.0  T
   5    -29.7440741 -0.880000E-06  0.350E-03    2.88       6.7  T
   6    -29.7440742 -0.162600E-06  0.147E-03    2.88      16.0  T
   7    -29.7440742 -0.903324E-08  0.757E-04    2.88      31.1  T
   8    -29.7440742 -0.211436E-08  0.323E-04    2.88      72.9  T
     SCC iter.                  ...        0 min,  0.096 sec
     gradient                   ...        0 min,  0.024 sec
 * total energy  :   -29.3304683 Eh     change       -0.2545574E-02 Eh
   gradient norm :     0.0278162 Eh/α   predicted    -0.1911192E-02 ( -24.92%)
   displ. norm   :     0.1106931 α      lambda       -0.1021961E-02
   maximum displ.:     0.0892042 α      in ANC's #3, #11, #8, ...

........................................................................
.............................. CYCLE    3 ..............................
........................................................................

 iter      E             dE          RMSdq      gap      omega  full diag
   1    -29.7511272 -0.297511E+02  0.122E-01    2.85       0.0  T
   2    -29.7512017 -0.744874E-04  0.646E-02    2.89       1.0  T
   3    -29.7512249 -0.232052E-04  0.385E-02    2.88       1.0  T
   4    -29.7512297 -0.476652E-05  0.102E-02    2.89       2.3  T
   5    -29.7512300 -0.313303E-06  0.305E-03    2.89       7.7  T
   6    -29.7512302 -0.140565E-06  0.986E-04    2.89      23.9  T
   7    -29.7512302 -0.337049E-08  0.518E-04    2.89      45.5  T
     SCC iter.                  ...        0 min,  0.068 sec
     gradient                   ...        0 min,  0.030 sec
 * total energy  :   -29.3310232 Eh     change       -0.5549727E-03 Eh
   gradient norm :     0.0062911 Eh/α   predicted    -0.5172434E-03 (  -6.80%)
   displ. norm   :     0.0199775 α      lambda       -0.5320033E-04
   maximum displ.:     0.0140298 α      in ANC's #3, #18, #8, ...

........................................................................
.............................. CYCLE    4 ..............................
........................................................................

 iter      E             dE          RMSdq      gap      omega  full diag
   1    -29.7499985 -0.297500E+02  0.252E-02    2.87       0.0  T
   2    -29.7500005 -0.200209E-05  0.129E-02    2.88       1.8  T
   3    -29.7500008 -0.360675E-06  0.844E-03    2.88       2.8  T
   4    -29.7500012 -0.400242E-06  0.164E-03    2.88      14.3  T
   5    -29.7500013 -0.790889E-08  0.531E-04    2.88      44.4  T
   6    -29.7500013 -0.376619E-08  0.196E-04    2.88     120.1  T
     SCC iter.                  ...        0 min,  0.069 sec
     gradient                   ...        0 min,  0.028 sec
 * total energy  :   -29.3310588 Eh     change       -0.3553828E-04 Eh
   gradient norm :     0.0024602 Eh/α   predicted    -0.2661039E-04 ( -25.12%)
   displ. norm   :     0.0099360 α      lambda       -0.1358371E-04
   maximum displ.:     0.0075387 α      in ANC's #18, #26, #8, ...

........................................................................
.............................. CYCLE    5 ..............................
........................................................................

 iter      E             dE          RMSdq      gap      omega  full diag
   1    -29.7489939 -0.297490E+02  0.136E-02    2.87       0.0  T
   2    -29.7489943 -0.357109E-06  0.713E-03    2.88       3.3  T
   3    -29.7489942  0.408752E-07  0.447E-03    2.88       5.3  T
   4    -29.7489944 -0.169205E-06  0.677E-04    2.88      34.8  T
   5    -29.7489944 -0.275427E-08  0.228E-04    2.88     103.6  T
     SCC iter.                  ...        0 min,  0.057 sec
     gradient                   ...        0 min,  0.035 sec
 * total energy  :   -29.3310664 Eh     change       -0.7606757E-05 Eh
   gradient norm :     0.0007275 Eh/α   predicted    -0.6794162E-05 ( -10.68%)
   displ. norm   :     0.0072883 α      lambda       -0.1120093E-05
   maximum displ.:     0.0060504 α      in ANC's #3, #19, #8, ...

........................................................................
.............................. CYCLE    6 ..............................
........................................................................

 iter      E             dE          RMSdq      gap      omega  full diag
   1    -29.7488386 -0.297488E+02  0.402E-03    2.87       0.0  T
   2    -29.7488386 -0.232186E-07  0.226E-03    2.87      10.4  T
   3    -29.7488386  0.770131E-08  0.131E-03    2.87      17.9  T
   4    -29.7488387 -0.168036E-07  0.213E-04    2.87     110.5  T
   5    -29.7488387 -0.369017E-09  0.991E-05    2.87     237.8  T
     SCC iter.                  ...        0 min,  0.063 sec
     gradient                   ...        0 min,  0.034 sec
 * total energy  :   -29.3310674 Eh     change       -0.1017934E-05 Eh
   gradient norm :     0.0003293 Eh/α   predicted    -0.5616438E-06 ( -44.83%)
   displ. norm   :     0.0046102 α      lambda       -0.3550157E-06
   maximum displ.:     0.0036523 α      in ANC's #3, #12, #8, ...

........................................................................
.............................. CYCLE    7 ..............................
........................................................................

 iter      E             dE          RMSdq      gap      omega  full diag
   1    -29.7489232 -0.297489E+02  0.238E-03    2.87       0.0  T
   2    -29.7489232 -0.425585E-08  0.146E-03    2.87      16.1  T
   3    -29.7489232  0.171161E-08  0.461E-04    2.87      51.1  T
   4    -29.7489232 -0.270147E-08  0.132E-04    2.87     178.3  T
     SCC iter.                  ...        0 min,  0.066 sec
     gradient                   ...        0 min,  0.026 sec
 * total energy  :   -29.3310677 Eh     change       -0.2777032E-06 Eh
   gradient norm :     0.0000992 Eh/α   predicted    -0.1762217E-06 ( -36.54%)
   displ. norm   :     0.0006590 α      lambda       -0.1863867E-07
   maximum displ.:     0.0004345 α      in ANC's #12, #8, #11, ...

   *** GEOMETRY OPTIMIZATION CONVERGED AFTER 7 ITERATIONS ***

------------------------------------------------------------------------
 total energy gain   :        -0.0031450 Eh       -1.9735 kcal/mol
 total RMSD          :         0.0623233 a0        0.0330 Å
 total power (kW/mol):        -1.1795946 (step)   -9.4520 (real)
------------------------------------------------------------------------

 ANCopt (total)                0 d,  0 h,  0 min,  0.874 sec
 optimizer setup                ...        0 min,  0.001 sec (  0.062%)
 model hessian                  ...        0 min,  0.003 sec (  0.374%)
 ANC generation                 ...        0 min,  0.001 sec (  0.059%)
 coordinate transformation      ...        0 min,  0.000 sec (  0.010%)
 single point calculation       ...        0 min,  0.847 sec ( 96.985%)
 optimization log               ...        0 min,  0.001 sec (  0.073%)
 hessian update                 ...        0 min,  0.019 sec (  2.168%)
 rational function              ...        0 min,  0.001 sec (  0.138%)

================
 final structure:
================
18
 xtb: 6.7.1 (edcfbbe)
C           -2.56015207770669       -0.80077191940782       -0.22822556279443
C           -1.64791565692761        0.39610770842551       -0.15745495910800
O           -2.11915651286626        1.52719542396213       -0.21426250604912
C           -0.20707507770514        0.16583364994814       -0.02112914256172
C            0.34153964125401       -1.12238531487939        0.04467394583650
C            1.69671445275108       -1.31673245478254        0.17263744139764
C            2.55111336435911       -0.21958776366706        0.23919780083284
C            2.04540767178261        1.05717883735443        0.17750773979425
C            0.66921218445945        1.27476924388861        0.04732508144642
O            0.24199323755284        2.53623774327559       -0.00690706785736
H           -2.30565224170864       -1.41956842089972       -1.08578717526524
H           -3.58600809298570       -0.45433909112549       -0.32739850769034
H           -2.46903619835111       -1.39918350032404        0.67548488852115
H           -0.30871583953821       -1.98105372607659       -0.00570910990368
H            2.09770288724475       -2.31741868329614        0.22141775543600
H            3.61538679702325       -0.37133450342292        0.33968241687657
H            2.68797000462599        1.92204490964183        0.22710535180242
H           -0.74332854326471        2.52300786138645       -0.09815839071192

 Bond Distances (Angstroems)
 ---------------------------
C1-C2=1.5066         C1-H11=1.0877        C1-H12=1.0873        C1-H13=1.0877        C2-C1=1.5066         C2-O3=1.2266         
C2-C4=1.4655         O3-C2=1.2266         C4-C2=1.4655         C4-C5=1.4017         C4-C9=1.4150         C5-C4=1.4017         
C5-C6=1.3750         C5-H14=1.0783        C6-C5=1.3750         C6-C7=1.3922         C6-H15=1.0791        C7-C6=1.3922         
C7-C8=1.3747         C7-H16=1.0797        C8-C7=1.3747         C8-C9=1.3994         C8-H17=1.0786        C9-C4=1.4150         
C9-C8=1.3994         C9-O10=1.3330        O10-C9=1.3330        O10-H18=0.9896       H11-C1=1.0877        H12-C1=1.0873        
H13-C1=1.0877        H14-C5=1.0783        H15-C6=1.0791        H16-C7=1.0797        H17-C8=1.0786        H18-O10=0.9896       
 C  H  Rav=1.0826 sigma=0.0043  Rmin=1.0783  Rmax=1.0877     7
 C  C  Rav=1.4162 sigma=0.0434  Rmin=1.3747  Rmax=1.5066     8
 O  H  Rav=0.9896 sigma=0.0000  Rmin=0.9896  Rmax=0.9896     1
 O  C  Rav=1.2798 sigma=0.0532  Rmin=1.2266  Rmax=1.3330     2

 selected bond angles (degree)
 --------------------
H11-C1-C2=110.32               H12-C1-C2=108.81               H12-C1-H11=109.28              H13-C1-C2=110.32               
H13-C1-H11=108.81              H13-C1-H12=109.28              O3-C2-C1=119.85                C4-C2-C1=118.35                
C4-C2-O3=121.80                C5-C4-C2=122.25                C9-C4-C2=119.35                C9-C4-C5=118.40                
C6-C5-C4=121.33                H14-C5-C4=119.58               H14-C5-C6=119.09               C7-C6-C5=119.86                
H15-C6-C5=120.10               H15-C6-C7=120.04               C8-C7-C6=120.27                H16-C7-C6=119.91               
H16-C7-C8=119.82               C9-C8-C7=120.69                H17-C8-C7=121.57               H17-C8-C9=117.74               
C8-C9-C4=119.45                O10-C9-C4=122.77               O10-C9-C8=117.78               H18-O10-C9=108.07              

 selected dihedral angles (degree)
 ---------------------------------
O3-C2-C1-H11=119.87           O3-C2-C1-H12=  0.00           O3-C2-C1-H13=240.13           C4-C2-C1-H11=299.87           
C4-C2-C1-H12=180.00           C4-C2-C1-H13= 60.13           C5-C4-C2-C1=  0.00            C5-C4-C2-O3=180.00            
C9-C4-C2-C1=180.00            C9-C4-C2-O3=  0.00            C6-C5-C4-C2=180.00            C6-C5-C4-C9=  0.00            
H14-C5-C4-C2=  0.00           H14-C5-C4-C9=180.00           C7-C6-C5-C4=  0.00            C7-C6-C5-H14=180.00           
H15-C6-C5-C4=180.00           H15-C6-C5-H14=  0.00          C8-C7-C6-C5=  0.00            C8-C7-C6-H15=180.00           
H16-C7-C6-C5=180.00           H16-C7-C6-H15=  0.00          C9-C8-C7-C6=  0.00            C9-C8-C7-H16=180.00           
H17-C8-C7-C6=180.00           H17-C8-C7-H16=  0.00          C8-C9-C4-C2=180.00            C8-C9-C4-C5=  0.00            
O10-C9-C4-C2=  0.00           O10-C9-C4-C5=180.00           C4-C9-C8-C7=  0.00            C4-C9-C8-H17=180.00           
O10-C9-C8-C7=180.00           O10-C9-C8-H17=  0.00          H18-O10-C9-C4=  0.00          H18-O10-C9-C8=180.00          
           -------------------------------------------------
          |                Final Singlepoint                |
           -------------------------------------------------

          ...................................................
          :                      SETUP                      :
          :.................................................:
          :  # basis functions                  48          :
          :  # atomic orbitals                  48          :
          :  # shells                           28          :
          :  # electrons                        52          :
          :  max. iterations                   250          :
          :  Hamiltonian                  GFN2-xTB          :
          :  restarted?                      false          :
          :  GBSA solvation                  false          :
          :  PC potential                    false          :
          :  electronic temp.          300.0000000     K    :
          :  accuracy                    1.0000000          :
          :  -> integral cutoff          0.2500000E+02      :
          :  -> integral neglect         0.1000000E-07      :
          :  -> SCF convergence          0.1000000E-05 Eh   :
          :  -> wf. convergence          0.1000000E-03 e    :
          :  Broyden damping             0.4000000          :
          :  net charge                          0          :
          :  unpaired electrons                  0          :
          ...................................................

 iter      E             dE          RMSdq      gap      omega  full diag
   1    -29.7489232 -0.297489E+02  0.677E-05    2.87       0.0  T
   2    -29.7489232 -0.101643E-10  0.446E-05    2.87     528.3  T
   3    -29.7489232 -0.478551E-11  0.299E-05    2.87     788.2  T

   *** convergence criteria satisfied after 3 iterations ***

         #    Occupation            Energy/Eh            Energy/eV
      -------------------------------------------------------------
         1        2.0000           -0.7180170             -19.5382
       ...           ...                  ...                  ...
        20        2.0000           -0.4749114             -12.9230
        21        2.0000           -0.4719262             -12.8418
        22        2.0000           -0.4571234             -12.4390
        23        2.0000           -0.4413560             -12.0099
        24        2.0000           -0.4214518             -11.4683
        25        2.0000           -0.3985670             -10.8456
        26        2.0000           -0.3934047             -10.7051 (HOMO)
        27                         -0.2878065              -7.8316 (LUMO)
        28                         -0.2274122              -6.1882
        29                         -0.2015640              -5.4848
        30                         -0.0937291              -2.5505
        31                          0.0757142               2.0603
       ...                                ...                  ...
        48                          0.6569311              17.8760
      -------------------------------------------------------------
                  HL-Gap            0.1055982 Eh            2.8735 eV
             Fermi-level           -0.3406056 Eh           -9.2684 eV

 SCC (total)                   0 d,  0 h,  0 min,  0.116 sec
 SCC setup                      ...        0 min,  0.003 sec (  2.338%)
 Dispersion                     ...        0 min,  0.007 sec (  5.781%)
 classical contributions        ...        0 min,  0.002 sec (  1.608%)
 integral evaluation            ...        0 min,  0.011 sec (  9.870%)
 iterations                     ...        0 min,  0.059 sec ( 50.950%)
 molecular gradient             ...        0 min,  0.034 sec ( 29.331%)
 printout                       ...        0 min,  0.000 sec (  0.099%)

         :::::::::::::::::::::::::::::::::::::::::::::::::::::
         ::                     SUMMARY                     ::
         :::::::::::::::::::::::::::::::::::::::::::::::::::::
         :: total energy             -29.331067670375 Eh    ::
         :: gradient norm              0.000099600371 Eh/a0 ::
         :: HOMO-LUMO gap              2.873472289913 eV    ::
         ::.................................................::
         :: SCC energy               -29.748879427078 Eh    ::
         :: -> isotropic ES            0.046226038095 Eh    ::
         :: -> anisotropic ES          0.000047321613 Eh    ::
         :: -> anisotropic XC          0.009460458650 Eh    ::
         :: -> dispersion             -0.014751417221 Eh    ::
         :: repulsion energy           0.417811756702 Eh    ::
         :: add. restraining           0.000000000000 Eh    ::
         :: total charge              -0.000000000000 e     ::
         :::::::::::::::::::::::::::::::::::::::::::::::::::::

           -------------------------------------------------
          |                Property Printout                |
           -------------------------------------------------

    * Orbital Energies and Occupations

         #    Occupation            Energy/Eh            Energy/eV
      -------------------------------------------------------------
         1        2.0000           -0.7180170             -19.5382
       ...           ...                  ...                  ...
        14        2.0000           -0.5260467             -14.3145
        15        2.0000           -0.5175374             -14.0829
        16        2.0000           -0.5096622             -13.8686
        17        2.0000           -0.4986950             -13.5702
        18        2.0000           -0.4844300             -13.1820
        19        2.0000           -0.4841503             -13.1744
        20        2.0000           -0.4749114             -12.9230
        21        2.0000           -0.4719262             -12.8418
        22        2.0000           -0.4571234             -12.4390
        23        2.0000           -0.4413560             -12.0099
        24        2.0000           -0.4214518             -11.4683
        25        2.0000           -0.3985670             -10.8456
        26        2.0000           -0.3934047             -10.7051 (HOMO)
        27                         -0.2878065              -7.8316 (LUMO)
        28                         -0.2274122              -6.1882
        29                         -0.2015640              -5.4848
        30                         -0.0937291              -2.5505
        31                          0.0757142               2.0603
        32                          0.0942386               2.5644
        33                          0.1223128               3.3283
        34                          0.1316399               3.5821
        35                          0.1613390               4.3903
        36                          0.1730685               4.7094
        37                          0.1750435               4.7632
       ...                                ...                  ...
        48                          0.6569311              17.8760
      -------------------------------------------------------------
                  HL-Gap            0.1055982 Eh            2.8735 eV
             Fermi-level           -0.3406056 Eh           -9.2684 eV

     #   Z          covCN         q      C6AA      α(0)
     1   6 C        3.754    -0.134    23.142     6.860
     2   6 C        2.819     0.233    23.128     7.880
     3   8 O        0.858    -0.406    21.801     6.260
     4   6 C        2.966    -0.061    29.515     8.911
     5   6 C        2.920    -0.031    28.774     8.796
     6   6 C        2.916    -0.042    29.040     8.837
     7   6 C        2.919    -0.021    28.519     8.757
     8   6 C        2.916    -0.055    29.363     8.886
     9   6 C        2.847     0.168    24.388     8.094
    10   8 O        1.658    -0.382    20.510     6.114
    11   1 H        0.925     0.065     2.144     2.290
    12   1 H        0.925     0.068     2.104     2.268
    13   1 H        0.925     0.065     2.144     2.290
    14   1 H        0.926     0.044     2.397     2.421
    15   1 H        0.926     0.039     2.468     2.457
    16   1 H        0.926     0.045     2.390     2.417
    17   1 H        0.926     0.058     2.228     2.334
    18   1 H        0.802     0.349     0.590     1.207

 Mol. C6AA /au·bohr⁶  :       3826.943363
 Mol. C8AA /au·bohr⁸  :      91912.861289
 Mol. α(0) /au        :         97.078287


Wiberg/Mayer (AO) data.
largest (>0.10) Wiberg bond orders for each atom

 ---------------------------------------------------------------------------
     #   Z sym  total        # sym  WBO       # sym  WBO       # sym  WBO
 ---------------------------------------------------------------------------
     1   6 C    3.994 --     2 C    1.009    12 H    0.983    13 H    0.961
                            11 H    0.961
     2   6 C    3.926 --     3 O    1.726     4 C    1.092     1 C    1.009
     3   8 O    2.072 --     2 C    1.726
     4   6 C    3.982 --     5 C    1.347     9 C    1.284     2 C    1.092
     5   6 C    3.991 --     6 C    1.494     4 C    1.347    14 H    0.966
                             8 C    0.107
     6   6 C    3.992 --     5 C    1.494     7 C    1.378    15 H    0.971
     7   6 C    3.991 --     8 C    1.492     6 C    1.378    16 H    0.970
     8   6 C    3.988 --     7 C    1.492     9 C    1.329    17 H    0.967
                             5 C    0.107
     9   6 C    3.947 --     8 C    1.329     4 C    1.284    10 O    1.167
    10   8 O    2.191 --     9 C    1.167    18 H    0.792
    11   1 H    0.996 --     1 C    0.961
    12   1 H    0.995 --     1 C    0.983
    13   1 H    0.996 --     1 C    0.961
    14   1 H    0.998 --     5 C    0.966
    15   1 H    0.998 --     6 C    0.971
    16   1 H    0.998 --     7 C    0.970
    17   1 H    0.996 --     8 C    0.967
    18   1 H    0.878 --    10 O    0.792
 ---------------------------------------------------------------------------

Topologies differ in total number of bonds
Writing topology from bond orders to xtbtopo.mol

molecular dipole:
                 x           y           z       tot (Debye)
 q only:        0.332      -1.068       0.043
   full:        0.228      -1.333       0.037       3.439
molecular quadrupole (traceless):
                xx          xy          yy          xz          yz          zz
 q only:        1.983       4.094      -1.980       0.137       0.403      -0.002
  q+dip:        4.283       4.744      -2.623       0.500       0.451      -1.660
   full:        2.624       4.564      -3.899       0.072       0.483       1.276

           -------------------------------------------------
          |                Geometry Summary                 |
           -------------------------------------------------

      molecular mass/u    :      136.1482230
   center of mass at/Å    :        0.0267645       0.4017222      -0.0021670
  moments of inertia/u·Å² :        0.2202647E+03   0.4122747E+03   0.6293853E+03
rotational constants/cm⁻¹ :        0.7653352E-01   0.4088932E-01   0.2678428E-01

 * 16 selected distances

     #   Z          #   Z                                           value/Å
     2   6 C        3   8 O                                       1.2266437
     4   6 C        5   6 C                                       1.4017192
     5   6 C        6   6 C                                       1.3750071
     6   6 C        7   6 C                                       1.3921762
     7   6 C        8   6 C                                       1.3746553
     4   6 C        9   6 C                                       1.4150279 (max)
     8   6 C        9   6 C                                       1.3993597
     9   6 C       10   8 O                                       1.3329517
     1   6 C       11   1 H                                       1.0877001
     1   6 C       12   1 H                                       1.0873048
     1   6 C       13   1 H                                       1.0877000
     5   6 C       14   1 H                                       1.0782775
     6   6 C       15   1 H                                       1.0791406
     7   6 C       16   1 H                                       1.0797233
     8   6 C       17   1 H                                       1.0785823
    10   8 O       18   1 H                                       0.9896267 (min)

 * 4 distinct bonds (by element types)

   Z      Z             #   av. dist./Å        max./Å        min./Å
   1 H    6 C           7     1.0826326     1.0877001     1.0782775
   6 C    6 C           6     1.3929909     1.4150279     1.3746553
   1 H    8 O           1     0.9896267     0.9896267     0.9896267
   6 C    8 O           2     1.2797977     1.3329517     1.2266437


optimized geometry written to: xtbopt.xyz


           -------------------------------------------------
          | TOTAL ENERGY              -29.331067670375 Eh   |
          | GRADIENT NORM               0.000099600371 Eh/α |
          | HOMO-LUMO GAP               2.873472289913 eV   |
           -------------------------------------------------

------------------------------------------------------------------------
 * finished run on 2026/07/08 at 23:44:40.104     
------------------------------------------------------------------------
 total:
 * wall-time:     0 d,  0 h,  0 min,  1.272 sec
 *  cpu-time:     0 d,  0 h,  0 min, 20.159 sec
 * ratio c/w:    15.850 speedup
 SCF:
 * wall-time:     0 d,  0 h,  0 min,  0.225 sec
 *  cpu-time:     0 d,  0 h,  0 min,  3.596 sec
 * ratio c/w:    15.999 speedup
 ANC optimizer:
 * wall-time:     0 d,  0 h,  0 min,  0.994 sec
 *  cpu-time:     0 d,  0 h,  0 min, 15.765 sec
 * ratio c/w:    15.866 speedup

