16
 energy: -25.050718625968 gnorm: 0.000207111439 xtb: 6.7.1 (edcfbbe)
O            0.92793933653903       -2.42154610724841        0.51364713723052
C            0.50224481591590       -1.41468309091954        0.01706994992358
C           -0.96331114228374       -1.05416761639536       -0.03798713960421
C           -1.18395096329072        0.30134058321526        0.63541359917952
C           -0.33695535191209        1.38791130329196       -0.02905270257240
C            1.12110262369627        0.99816216980010        0.02589728788379
O            1.97797627267453        1.67241032612152        0.52862403229098
C            1.40285764844579       -0.35764390353180       -0.59246396843597
H           -1.27740329158891       -1.00222957563810       -1.08309426132456
H           -1.54260104288968       -1.83084296640612        0.46256860732286
H           -2.23896616533926        0.57215635772834        0.57512909988473
H           -0.91548295547792        0.22861877372897        1.69153462735479
H           -0.47180096542757        2.34406569246804        0.47784263769186
H           -0.63543163988091        1.50073390061441       -1.07393703738329
H            2.45083269650121       -0.62695079401007       -0.45104096412864
H            1.18295012431706       -0.29733505282012       -1.66015090531357
