29
 energy: -36.609344213459 gnorm: 0.000252742639 xtb: 6.7.1 (edcfbbe)
C            4.67361404825401        0.91993262948787        0.84618477963132
C            3.25357491922456        1.12350006190273        0.33242278886549
C            2.49168551751013       -0.19634246066611        0.23714935261938
C            1.06952978143995        0.00250263999072       -0.27887326806592
C            0.30851853958502       -1.32378727750174       -0.36880373372848
C           -1.05768795147973       -1.09675195558335       -0.97386391184609
O           -1.25493549989830       -0.65194390352975       -2.07408059867635
O           -2.02057066277059       -1.45247752558829       -0.11816142700249
C           -3.37935261022506       -1.25134290394442       -0.50813658494217
C           -4.01441037463769       -0.12745233913519        0.30758770703489
C           -3.38101407208917        1.22510494915836        0.00549680043810
H            5.22959879042034        0.26355144412472        0.18030567196314
H            5.19859734844697        1.87015516003599        0.90814505167840
H            4.66044971126356        0.46987291122558        1.83658595846556
H            2.71923644689827        1.80155305484731        1.00178972585900
H            3.28723734120402        1.59137209141053       -0.65383806055565
H            2.45674386128121       -0.66421450688727        1.22402191004910
H            3.02782664025661       -0.87346370107129       -0.43164511656192
H            1.09504551408799        0.45876883472576       -1.27031757877690
H            0.53367671562722        0.68236881866070        0.38799955023784
H            0.19417259317999       -1.77542042101605        0.61643548045463
H            0.85735178895508       -2.00900762051293       -1.01807955659875
H           -3.89562675711657       -2.19811222771799       -0.32569930722545
H           -3.40561547361165       -1.01486013248385       -1.57689073675558
H           -5.07936023423683       -0.10155714212801        0.07086141228704
H           -3.90481836741513       -0.35857342959050        1.36888125694806
H           -2.32517612600371        1.21864074075703        0.26707021317009
H           -3.87086392960752        2.00946916379867        0.57722014812476
H           -3.46742749854402        1.45851504722990       -1.05316799671950
