      -----------------------------------------------------------      
     |                   =====================                   |     
     |                           x T B                           |     
     |                   =====================                   |     
     |                         S. Grimme                         |     
     |          Mulliken Center for Theoretical Chemistry        |     
     |                    University of Bonn                     |     
      -----------------------------------------------------------      

   * xtb version 6.7.1 (edcfbbe) compiled by 'conda@5dfe00f5fb80' on 2026-06-10

   xtb is free software: you can redistribute it and/or modify it under
   the terms of the GNU Lesser General Public License as published by
   the Free Software Foundation, either version 3 of the License, or
   (at your option) any later version.
   
   xtb is distributed in the hope that it will be useful,
   but WITHOUT ANY WARRANTY; without even the implied warranty of
   MERCHANTABILITY or FITNESS FOR A PARTICULAR PURPOSE.  See the
   GNU Lesser General Public License for more details.
   
   Cite this work as:
   * C. Bannwarth, E. Caldeweyher, S. Ehlert, A. Hansen, P. Pracht,
     J. Seibert, S. Spicher, S. Grimme, WIREs Comput. Mol. Sci., 2020, 11,
     e01493. DOI: 10.1002/wcms.1493
   
   for GFN2-xTB:
   * C. Bannwarth, S. Ehlert and S. Grimme., J. Chem. Theory Comput., 2019,
     15, 1652-1671. DOI: 10.1021/acs.jctc.8b01176
   for GFN1-xTB:
   * S. Grimme, C. Bannwarth, P. Shushkov, J. Chem. Theory Comput., 2017,
     13, 1989-2009. DOI: 10.1021/acs.jctc.7b00118
   for GFN0-xTB:
   * P. Pracht, E. Caldeweyher, S. Ehlert, S. Grimme, ChemRxiv, 2019, preprint.
     DOI: 10.26434/chemrxiv.8326202.v1
   for GFN-FF:
   * S. Spicher and S. Grimme, Angew. Chem. Int. Ed., 2020, 59, 15665-15673.
     DOI: 10.1002/anie.202004239
   
   for ALPB and GBSA implicit solvation:
   * S. Ehlert, M. Stahn, S. Spicher, S. Grimme, J. Chem. Theory Comput.,
     2021, 17, 4250-4261. DOI: 10.1021/acs.jctc.1c00471
   
   for ddCOSMO and CPCM-X implicit solvation:
   * M. Stahn, S. Ehlert, S. Grimme, J. Phys. Chem. A,
     2023, XX, XXXX-XXXX. DOI: 10.1021/acs.jpca.3c04382
   
   for DFT-D4:
   * E. Caldeweyher, C. Bannwarth and S. Grimme, J. Chem. Phys., 2017,
     147, 034112. DOI: 10.1063/1.4993215
   * E. Caldeweyher, S. Ehlert, A. Hansen, H. Neugebauer, S. Spicher,
     C. Bannwarth and S. Grimme, J. Chem. Phys., 2019, 150, 154122.
     DOI: 10.1063/1.5090222
   * E. Caldeweyher, J.-M. Mewes, S. Ehlert and S. Grimme, Phys. Chem. Chem. Phys.
     2020, 22, 8499-8512. DOI: 10.1039/D0CP00502A
   
   for sTDA-xTB:
   * S. Grimme and C. Bannwarth, J. Chem. Phys., 2016, 145, 054103.
     DOI: 10.1063/1.4959605
   
   in the mass-spec context:
   * V. Asgeirsson, C. Bauer and S. Grimme, Chem. Sci., 2017, 8, 4879.
     DOI: 10.1039/c7sc00601b
   * J. Koopman and S. Grimme, ACS Omega 2019, 4, 12, 15120-15133.
     DOI: 10.1021/acsomega.9b02011
   
   for metadynamics refer to:
   * S. Grimme, J. Chem. Theory Comput., 2019, 155, 2847-2862
     DOI: 10.1021/acs.jctc.9b00143
   
   for SPH calculations refer to:
   * S. Spicher and S. Grimme, J. Chem. Theory Comput., 2021, 17, 1701-1714
     DOI: 10.1021/acs.jctc.0c01306
   
   for ONIOM refer to:
   * C. Plett, A. Katbashev, S. Ehlert, S. Grimme, M. Bursch,
     Phys. Chem. Chem. Phys., 2023, 25, 17860-17868. DOI: 10.1039/D3CP02178E
   
   for DIPRO refer to:
   * J. Kohn, N. Gildemeister, S. Grimme, D. Fazzi, A. Hansen,
     J. Chem. Phys., 2023, just accepted.
   
   for PTB refer to:
   * S. Grimme, M. Mueller, A. Hansen, J. Chem. Phys., 2023, 158, 124111.
     DOI: 10.1063/5.0137838
   
   with help from (in alphabetical order)
   P. Atkinson, C. Bannwarth, F. Bohle, G. Brandenburg, E. Caldeweyher
   M. Checinski, S. Dohm, S. Ehlert, S. Ehrlich, I. Gerasimov, C. Hölzer
   A. Katbashev, J. Kohn, J. Koopman, C. Lavigne, S. Lehtola, F. März, M. Müller,
   F. Musil, H. Neugebauer, J. Pisarek, C. Plett, P. Pracht, F. Pultar,
   J. Seibert, P. Shushkov, S. Spicher, M. Stahn, M. Steiner, T. Strunk,
   J. Stückrath, T. Rose, and J. Unsleber
   
 * started run on 2026/07/08 at 02:48:13.509     
   ID    Z sym.   atoms
    1    6 C      1-4, 7-14
    2    8 O      5
    3    7 N      6
    4    1 H      15-29

           -------------------------------------------------
          |                Calculation Setup                |
           -------------------------------------------------

          program call               : /home/ws/xd2484/miniforge3/envs/p3z_dft/bin/xtb xtb_input.xyz --gfn 2 --opt tight --cycles 500 --chrg 0 --uhf 0
          hostname                   : gpu10
          coordinate file            : xtb_input.xyz
          omp threads                :                    16


           -------------------------------------------------
          |                 G F N 2 - x T B                 |
           -------------------------------------------------

        Reference                      10.1021/acs.jctc.8b01176
      * Hamiltonian:
        H0-scaling (s, p, d)           1.850000    2.230000    2.230000
        zeta-weighting                 0.500000
      * Dispersion:
        s8                             2.700000
        a1                             0.520000
        a2                             5.000000
        s9                             5.000000
      * Repulsion:
        kExp                           1.500000    1.000000
        rExp                           1.000000
      * Coulomb:
        alpha                          2.000000
        third order                    shell-resolved
        anisotropic                    true
        a3                             3.000000
        a5                             4.000000
        cn-shift                       1.200000
        cn-exp                         4.000000
        max-rad                        5.000000


          ...................................................
          :                      SETUP                      :
          :.................................................:
          :  # basis functions                  71          :
          :  # atomic orbitals                  71          :
          :  # shells                           43          :
          :  # electrons                        74          :
          :  max. iterations                   250          :
          :  Hamiltonian                  GFN2-xTB          :
          :  restarted?                      false          :
          :  GBSA solvation                  false          :
          :  PC potential                    false          :
          :  electronic temp.          300.0000000     K    :
          :  accuracy                    1.0000000          :
          :  -> integral cutoff          0.2500000E+02      :
          :  -> integral neglect         0.1000000E-07      :
          :  -> SCF convergence          0.1000000E-05 Eh   :
          :  -> wf. convergence          0.1000000E-03 e    :
          :  Broyden damping             0.4000000          :
          :  net charge                          0          :
          :  unpaired electrons                  0          :
          ...................................................

 iter      E             dE          RMSdq      gap      omega  full diag
   1    -40.8488915 -0.408489E+02  0.391E+00    3.02       0.0  T
   2    -40.9125665 -0.636750E-01  0.222E+00    3.22       1.0  T
   3    -40.9101783  0.238827E-02  0.122E+00    3.25       1.0  T
   4    -40.9161659 -0.598767E-02  0.468E-01    3.13       1.0  T
   5    -40.9204962 -0.433030E-02  0.132E-01    3.23       1.0  T
   6    -40.9208063 -0.310064E-03  0.549E-02    3.21       1.0  T
   7    -40.9208470 -0.406992E-04  0.252E-02    3.21       1.0  T
   8    -40.9208489 -0.189411E-05  0.981E-03    3.21       1.9  T
   9    -40.9208500 -0.115083E-05  0.339E-03    3.21       5.5  T
  10    -40.9208501 -0.722884E-07  0.116E-03    3.21      16.0  T
  11    -40.9208501 -0.232588E-08  0.532E-04    3.21      34.9  T
  12    -40.9208501 -0.246297E-08  0.135E-04    3.21     137.5  T

   *** convergence criteria satisfied after 12 iterations ***

         #    Occupation            Energy/Eh            Energy/eV
      -------------------------------------------------------------
         1        2.0000           -0.6842255             -18.6187
       ...           ...                  ...                  ...
        31        2.0000           -0.4385674             -11.9340
        32        2.0000           -0.4348976             -11.8342
        33        2.0000           -0.4247100             -11.5569
        34        2.0000           -0.4107580             -11.1773
        35        2.0000           -0.4051958             -11.0259
        36        2.0000           -0.3862941             -10.5116
        37        2.0000           -0.3763627             -10.2414 (HOMO)
        38                         -0.2582504              -7.0274 (LUMO)
        39                         -0.2344022              -6.3784
        40                         -0.2254964              -6.1361
        41                         -0.1583848              -4.3099
        42                         -0.1051811              -2.8621
       ...                                ...                  ...
        71                          0.6486046              17.6494
      -------------------------------------------------------------
                  HL-Gap            0.1181123 Eh            3.2140 eV
             Fermi-level           -0.3173065 Eh           -8.6344 eV

 SCC (total)                   0 d,  0 h,  0 min,  0.215 sec
 SCC setup                      ...        0 min,  0.003 sec (  1.463%)
 Dispersion                     ...        0 min,  0.008 sec (  3.555%)
 classical contributions        ...        0 min,  0.003 sec (  1.598%)
 integral evaluation            ...        0 min,  0.011 sec (  5.055%)
 iterations                     ...        0 min,  0.153 sec ( 71.044%)
 molecular gradient             ...        0 min,  0.037 sec ( 17.185%)
 printout                       ...        0 min,  0.000 sec (  0.085%)

         :::::::::::::::::::::::::::::::::::::::::::::::::::::
         ::                     SUMMARY                     ::
         :::::::::::::::::::::::::::::::::::::::::::::::::::::
         :: total energy             -40.313742782722 Eh    ::
         :: gradient norm              0.041935980926 Eh/a0 ::
         :: HOMO-LUMO gap              3.214000004310 eV    ::
         ::.................................................::
         :: SCC energy               -40.920625273019 Eh    ::
         :: -> isotropic ES            0.038645700043 Eh    ::
         :: -> anisotropic ES          0.005544386729 Eh    ::
         :: -> anisotropic XC          0.022783288857 Eh    ::
         :: -> dispersion             -0.026104804034 Eh    ::
         :: repulsion energy           0.606882490297 Eh    ::
         :: add. restraining           0.000000000000 Eh    ::
         :: total charge              -0.000000000000 e     ::
         :::::::::::::::::::::::::::::::::::::::::::::::::::::

      ----------------------------------------------------------- 
     |                   =====================                   |
     |                        A N C O P T                        |
     |                   =====================                   |
     |               Approximate Normal Coordinate               |
     |                Rational Function Optimizer                |
      ----------------------------------------------------------- 
      ----------------------------------------------------------- 
     |                   =====================                   |
     |                        A N C O P T                        |
     |                   =====================                   |
     |               Approximate Normal Coordinate               |
     |                Rational Function Optimizer                |
      ----------------------------------------------------------- 

          ...................................................
          :                      SETUP                      :
          :.................................................:
          :   optimization level             tight          :
          :   max. optcycles                   500          :
          :   ANC micro-cycles                  20          :
          :   degrees of freedom                81          :
          :.................................................:
          :   RF solver                   davidson          :
          :   write xtbopt.log                true          :
          :   linear?                        false          :
          :   energy convergence         0.1000000E-05 Eh   :
          :   grad. convergence          0.8000000E-03 Eh/α :
          :   maxmium RF displ.          1.0000000          :
          :   Hlow (freq-cutoff)         0.1000000E-01      :
          :   Hmax (freq-cutoff)         5.0000000          :
          :   S6 in model hess.         20.0000000          :
          ...................................................

generating ANC from exact Hessian ...
Using Lindh-Hessian (1995)
 Shifting diagonal of input Hessian by    9.1895604257146608E-003
 Lowest  eigenvalues of input Hessian
    0.000000    0.000000    0.000000    0.000000    0.000000    0.000000
    0.010000    0.010272    0.010881    0.011055    0.011636    0.014352
    0.015931    0.016660    0.018829    0.019733    0.022978    0.023599
 Highest eigenvalues
    1.664275    1.842650    1.909046    1.953447    1.975085    2.217995


........................................................................
.............................. CYCLE    1 ..............................
........................................................................

 iter      E             dE          RMSdq      gap      omega  full diag
   1    -40.9208501 -0.409209E+02  0.605E-05    3.21       0.0  T
   2    -40.9208501 -0.121432E-10  0.351E-05    3.21     529.6  T
   3    -40.9208501 -0.185452E-11  0.239E-05    3.21     778.4  T
     SCC iter.                  ...        0 min,  0.040 sec
     gradient                   ...        0 min,  0.038 sec
 * total energy  :   -40.3137428 Eh     change       -0.2135465E-09 Eh
   gradient norm :     0.0419360 Eh/α   predicted     0.0000000E+00 (-100.00%)
   displ. norm   :     0.2942206 α      lambda       -0.6758164E-02
   maximum displ.:     0.0979982 α      in ANC's #7, #14, #15, ...

........................................................................
.............................. CYCLE    2 ..............................
........................................................................

 iter      E             dE          RMSdq      gap      omega  full diag
   1    -40.9556743 -0.409557E+02  0.168E-01    3.27       0.0  T
   2    -40.9557428 -0.685060E-04  0.108E-01    3.29       1.0  T
   3    -40.9557105  0.323287E-04  0.571E-02    3.28       1.0  T
   4    -40.9557620 -0.515425E-04  0.192E-02    3.29       1.0  T
   5    -40.9557704 -0.834450E-05  0.421E-03    3.28       4.4  T
   6    -40.9557705 -0.159128E-06  0.227E-03    3.29       8.2  T
   7    -40.9557706 -0.293079E-07  0.955E-04    3.29      19.5  T
   8    -40.9557706 -0.845674E-08  0.328E-04    3.29      56.6  T
     SCC iter.                  ...        0 min,  0.142 sec
     gradient                   ...        0 min,  0.036 sec
 * total energy  :   -40.3182514 Eh     change       -0.4508654E-02 Eh
   gradient norm :     0.0149215 Eh/α   predicted    -0.3671741E-02 ( -18.56%)
   displ. norm   :     0.2487493 α      lambda       -0.1623515E-02
   maximum displ.:     0.1048540 α      in ANC's #7, #14, #3, ...

........................................................................
.............................. CYCLE    3 ..............................
........................................................................

 iter      E             dE          RMSdq      gap      omega  full diag
   1    -40.9695555 -0.409696E+02  0.118E-01    3.28       0.0  T
   2    -40.9696102 -0.547506E-04  0.753E-02    3.31       1.0  T
   3    -40.9696076  0.261741E-05  0.390E-02    3.29       1.0  T
   4    -40.9696173 -0.974855E-05  0.169E-02    3.30       1.1  T
   5    -40.9696246 -0.724374E-05  0.289E-03    3.30       6.4  T
   6    -40.9696247 -0.129585E-06  0.130E-03    3.30      14.3  T
   7    -40.9696247 -0.463889E-08  0.492E-04    3.30      37.7  T
   8    -40.9696247 -0.249269E-08  0.160E-04    3.30     115.7  T
     SCC iter.                  ...        0 min,  0.096 sec
     gradient                   ...        0 min,  0.041 sec
 * total energy  :   -40.3192141 Eh     change       -0.9626972E-03 Eh
   gradient norm :     0.0057317 Eh/α   predicted    -0.8621729E-03 ( -10.44%)
   displ. norm   :     0.1606683 α      lambda       -0.2922105E-03
   maximum displ.:     0.0787581 α      in ANC's #3, #7, #1, ...

........................................................................
.............................. CYCLE    4 ..............................
........................................................................

 iter      E             dE          RMSdq      gap      omega  full diag
   1    -40.9702445 -0.409702E+02  0.719E-02    3.29       0.0  T
   2    -40.9702506 -0.610420E-05  0.423E-02    3.30       1.0  T
   3    -40.9702492  0.137739E-05  0.119E-02    3.30       1.6  T
   4    -40.9702508 -0.158219E-05  0.402E-03    3.30       4.6  T
   5    -40.9702513 -0.529314E-06  0.985E-04    3.30      18.9  T
   6    -40.9702513 -0.291365E-08  0.599E-04    3.30      31.0  T
     SCC iter.                  ...        0 min,  0.086 sec
     gradient                   ...        0 min,  0.036 sec
 * total energy  :   -40.3194385 Eh     change       -0.2243714E-03 Eh
   gradient norm :     0.0030684 Eh/α   predicted    -0.1498779E-03 ( -33.20%)
   displ. norm   :     0.2717019 α      lambda       -0.3327014E-03
   maximum displ.:     0.1550694 α      in ANC's #3, #1, #5, ...

........................................................................
.............................. CYCLE    5 ..............................
........................................................................

 iter      E             dE          RMSdq      gap      omega  full diag
   1    -40.9686104 -0.409686E+02  0.117E-01    3.30       0.0  T
   2    -40.9686171 -0.669763E-05  0.681E-02    3.31       1.0  T
   3    -40.9686163  0.744986E-06  0.111E-02    3.30       1.7  T
   4    -40.9686176 -0.129511E-05  0.310E-03    3.30       6.0  T
   5    -40.9686178 -0.171373E-06  0.125E-03    3.30      14.8  T
   6    -40.9686178 -0.362601E-08  0.649E-04    3.30      28.6  T
   7    -40.9686178 -0.471653E-08  0.288E-04    3.30      64.4  T
     SCC iter.                  ...        0 min,  0.086 sec
     gradient                   ...        0 min,  0.032 sec
 * total energy  :   -40.3196809 Eh     change       -0.2424187E-03 Eh
   gradient norm :     0.0060697 Eh/α   predicted    -0.1786333E-03 ( -26.31%)
   displ. norm   :     0.2726928 α      lambda       -0.2439709E-03
   maximum displ.:     0.1619560 α      in ANC's #3, #5, #2, ...

........................................................................
.............................. CYCLE    6 ..............................
........................................................................

 iter      E             dE          RMSdq      gap      omega  full diag
   1    -40.9670436 -0.409670E+02  0.110E-01    3.32       0.0  T
   2    -40.9670460 -0.240951E-05  0.642E-02    3.32       1.0  T
   3    -40.9670426  0.341704E-05  0.132E-02    3.32       1.4  T
   4    -40.9670467 -0.408535E-05  0.239E-03    3.32       7.8  T
   5    -40.9670468 -0.763352E-07  0.132E-03    3.32      14.1  T
   6    -40.9670468 -0.185623E-07  0.677E-04    3.32      27.4  T
   7    -40.9670468 -0.299406E-08  0.206E-04    3.32      90.1  T
     SCC iter.                  ...        0 min,  0.080 sec
     gradient                   ...        0 min,  0.031 sec
 * total energy  :   -40.3198771 Eh     change       -0.1962232E-03 Eh
   gradient norm :     0.0075908 Eh/α   predicted    -0.1310614E-03 ( -33.21%)
   displ. norm   :     0.3409111 α      lambda       -0.2918007E-03
   maximum displ.:     0.2009632 α      in ANC's #3, #2, #5, ...

........................................................................
.............................. CYCLE    7 ..............................
........................................................................

 iter      E             dE          RMSdq      gap      omega  full diag
   1    -40.9659652 -0.409660E+02  0.129E-01    3.35       0.0  T
   2    -40.9659692 -0.397151E-05  0.757E-02    3.35       1.0  T
   3    -40.9659641  0.505639E-05  0.163E-02    3.35       1.1  T
   4    -40.9659703 -0.613739E-05  0.230E-03    3.35       8.1  T
   5    -40.9659703 -0.577252E-07  0.110E-03    3.35      16.9  T
   6    -40.9659703 -0.269871E-09  0.715E-04    3.35      26.0  T
   7    -40.9659704 -0.703219E-08  0.220E-04    3.35      84.3  T
     SCC iter.                  ...        0 min,  0.099 sec
     gradient                   ...        0 min,  0.036 sec
 * total energy  :   -40.3201087 Eh     change       -0.2315551E-03 Eh
   gradient norm :     0.0070999 Eh/α   predicted    -0.1628658E-03 ( -29.66%)
   displ. norm   :     0.3705524 α      lambda       -0.2811996E-03
   maximum displ.:     0.2239884 α      in ANC's #3, #2, #5, ...

........................................................................
.............................. CYCLE    8 ..............................
........................................................................

 iter      E             dE          RMSdq      gap      omega  full diag
   1    -40.9664488 -0.409664E+02  0.136E-01    3.40       0.0  T
   2    -40.9664532 -0.434123E-05  0.799E-02    3.39       1.0  T
   3    -40.9664473  0.585536E-05  0.177E-02    3.40       1.0  T
   4    -40.9664544 -0.710721E-05  0.246E-03    3.40       7.5  T
   5    -40.9664545 -0.641697E-07  0.112E-03    3.40      16.6  T
   6    -40.9664545 -0.821061E-09  0.703E-04    3.40      26.4  T
   7    -40.9664545 -0.500479E-08  0.254E-04    3.40      73.1  T
     SCC iter.                  ...        0 min,  0.070 sec
     gradient                   ...        0 min,  0.028 sec
 * total energy  :   -40.3203116 Eh     change       -0.2029162E-03 Eh
   gradient norm :     0.0043315 Eh/α   predicted    -0.1599058E-03 ( -21.20%)
   displ. norm   :     0.2999660 α      lambda       -0.1654062E-03
   maximum displ.:     0.1874253 α      in ANC's #3, #2, #5, ...

........................................................................
.............................. CYCLE    9 ..............................
........................................................................

 iter      E             dE          RMSdq      gap      omega  full diag
   1    -40.9677505 -0.409678E+02  0.109E-01    3.43       0.0  T
   2    -40.9677542 -0.367865E-05  0.640E-02    3.43       1.0  T
   3    -40.9677509  0.327450E-05  0.139E-02    3.43       1.3  T
   4    -40.9677547 -0.379473E-05  0.332E-03    3.43       5.6  T
   5    -40.9677550 -0.218047E-06  0.127E-03    3.43      14.7  T
   6    -40.9677550 -0.171386E-07  0.651E-04    3.43      28.5  T
   7    -40.9677550 -0.308558E-08  0.253E-04    3.43      73.4  T
     SCC iter.                  ...        0 min,  0.072 sec
     gradient                   ...        0 min,  0.027 sec
 * total energy  :   -40.3204240 Eh     change       -0.1123412E-03 Eh
   gradient norm :     0.0034423 Eh/α   predicted    -0.9014681E-04 ( -19.76%)
   displ. norm   :     0.2020597 α      lambda       -0.8825580E-04
   maximum displ.:     0.1360559 α      in ANC's #3, #2, #5, ...

........................................................................
.............................. CYCLE   10 ..............................
........................................................................

 iter      E             dE          RMSdq      gap      omega  full diag
   1    -40.9704361 -0.409704E+02  0.739E-02    3.46       0.0  T
   2    -40.9704376 -0.150897E-05  0.434E-02    3.45       1.0  T
   3    -40.9704366  0.995874E-06  0.758E-03    3.46       2.5  T
   4    -40.9704379 -0.126653E-05  0.163E-03    3.46      11.4  T
   5    -40.9704379 -0.424809E-07  0.667E-04    3.46      27.8  T
   6    -40.9704379 -0.165713E-08  0.387E-04    3.46      47.9  T
     SCC iter.                  ...        0 min,  0.061 sec
     gradient                   ...        0 min,  0.028 sec
 * total energy  :   -40.3204748 Eh     change       -0.5081088E-04 Eh
   gradient norm :     0.0027973 Eh/α   predicted    -0.4593406E-04 (  -9.60%)
   displ. norm   :     0.1769553 α      lambda       -0.4204394E-04
   maximum displ.:     0.1169811 α      in ANC's #3, #2, #5, ...

........................................................................
.............................. CYCLE   11 ..............................
........................................................................

 iter      E             dE          RMSdq      gap      omega  full diag
   1    -40.9697186 -0.409697E+02  0.664E-02    3.46       0.0  T
   2    -40.9697204 -0.176559E-05  0.390E-02    3.46       1.0  T
   3    -40.9697197  0.670868E-06  0.672E-03    3.46       2.8  T
   4    -40.9697205 -0.815525E-06  0.214E-03    3.46       8.7  T
   5    -40.9697206 -0.103141E-06  0.756E-04    3.46      24.6  T
   6    -40.9697206 -0.395334E-08  0.429E-04    3.46      43.3  T
     SCC iter.                  ...        0 min,  0.064 sec
     gradient                   ...        0 min,  0.034 sec
 * total energy  :   -40.3204987 Eh     change       -0.2394807E-04 Eh
   gradient norm :     0.0018693 Eh/α   predicted    -0.2168176E-04 (  -9.46%)
   displ. norm   :     0.0958435 α      lambda       -0.2172916E-04
   maximum displ.:     0.0641462 α      in ANC's #3, #2, #4, ...

........................................................................
.............................. CYCLE   12 ..............................
........................................................................

 iter      E             dE          RMSdq      gap      omega  full diag
   1    -40.9711086 -0.409711E+02  0.394E-02    3.47       0.0  T
   2    -40.9711089 -0.265776E-06  0.232E-02    3.47       1.0  T
   3    -40.9711085  0.341241E-06  0.384E-03    3.47       4.8  T
   4    -40.9711089 -0.405668E-06  0.903E-04    3.47      20.6  T
   5    -40.9711090 -0.157347E-07  0.363E-04    3.47      51.1  T
     SCC iter.                  ...        0 min,  0.063 sec
     gradient                   ...        0 min,  0.038 sec
 * total energy  :   -40.3205154 Eh     change       -0.1666421E-04 Eh
   gradient norm :     0.0020250 Eh/α   predicted    -0.1091040E-04 ( -34.53%)
   displ. norm   :     0.0599008 α      lambda       -0.1727792E-04
   maximum displ.:     0.0392166 α      in ANC's #3, #2, #5, ...

........................................................................
.............................. CYCLE   13 ..............................
........................................................................

 iter      E             dE          RMSdq      gap      omega  full diag
   1    -40.9707608 -0.409708E+02  0.240E-02    3.47       0.0  T
   2    -40.9707609 -0.934333E-07  0.141E-02    3.47       1.3  T
   3    -40.9707607  0.222891E-06  0.287E-03    3.47       6.5  T
   4    -40.9707609 -0.253233E-06  0.557E-04    3.47      33.3  T
   5    -40.9707609 -0.678053E-08  0.299E-04    3.47      62.0  T
     SCC iter.                  ...        0 min,  0.071 sec
     gradient                   ...        0 min,  0.043 sec
 * total energy  :   -40.3205276 Eh     change       -0.1217968E-04 Eh
   gradient norm :     0.0014543 Eh/α   predicted    -0.8671528E-05 ( -28.80%)
   displ. norm   :     0.0920278 α      lambda       -0.1361058E-04
   maximum displ.:     0.0495111 α      in ANC's #3, #1, #11, ...

........................................................................
.............................. CYCLE   14 ..............................
........................................................................

 iter      E             dE          RMSdq      gap      omega  full diag
   1    -40.9699599 -0.409700E+02  0.356E-02    3.47       0.0  T
   2    -40.9699603 -0.332472E-06  0.209E-02    3.47       1.0  T
   3    -40.9699597  0.611700E-06  0.489E-03    3.47       3.8  T
   4    -40.9699604 -0.690352E-06  0.107E-03    3.47      17.4  T
   5    -40.9699604 -0.276988E-07  0.389E-04    3.47      47.7  T
   6    -40.9699604 -0.135537E-08  0.194E-04    3.47      95.7  T
     SCC iter.                  ...        0 min,  0.088 sec
     gradient                   ...        0 min,  0.035 sec
 * total energy  :   -40.3205398 Eh     change       -0.1221299E-04 Eh
   gradient norm :     0.0014937 Eh/α   predicted    -0.6833265E-05 ( -44.05%)
   displ. norm   :     0.0639602 α      lambda       -0.8419071E-05
   maximum displ.:     0.0453421 α      in ANC's #1, #3, #11, ...

........................................................................
.............................. CYCLE   15 ..............................
........................................................................

 iter      E             dE          RMSdq      gap      omega  full diag
   1    -40.9699513 -0.409700E+02  0.244E-02    3.47       0.0  T
   2    -40.9699515 -0.134179E-06  0.144E-02    3.47       1.3  T
   3    -40.9699514  0.242969E-07  0.146E-03    3.47      12.7  T
   4    -40.9699515 -0.379818E-07  0.570E-04    3.47      32.6  T
   5    -40.9699515 -0.591060E-08  0.238E-04    3.47      77.9  T
     SCC iter.                  ...        0 min,  0.069 sec
     gradient                   ...        0 min,  0.042 sec
 * total energy  :   -40.3205485 Eh     change       -0.8712095E-05 Eh
   gradient norm :     0.0011307 Eh/α   predicted    -0.4217437E-05 ( -51.59%)
   displ. norm   :     0.0625640 α      lambda       -0.8051911E-05
   maximum displ.:     0.0457884 α      in ANC's #1, #3, #6, ...

........................................................................
.............................. CYCLE   16 ..............................
........................................................................

 iter      E             dE          RMSdq      gap      omega  full diag
   1    -40.9701424 -0.409701E+02  0.240E-02    3.47       0.0  T
   2    -40.9701425 -0.114141E-06  0.141E-02    3.47       1.3  T
   3    -40.9701422  0.237121E-06  0.327E-03    3.48       5.7  T
   4    -40.9701425 -0.266548E-06  0.857E-04    3.47      21.7  T
   5    -40.9701425 -0.129792E-07  0.270E-04    3.47      68.7  T
     SCC iter.                  ...        0 min,  0.075 sec
     gradient                   ...        0 min,  0.043 sec
 * total energy  :   -40.3205559 Eh     change       -0.7376117E-05 Eh
   gradient norm :     0.0010682 Eh/α   predicted    -0.4036591E-05 ( -45.27%)
   displ. norm   :     0.0435818 α      lambda       -0.3795082E-05
   maximum displ.:     0.0327184 α      in ANC's #1, #6, #3, ...

........................................................................
.............................. CYCLE   17 ..............................
........................................................................

 iter      E             dE          RMSdq      gap      omega  full diag
   1    -40.9703131 -0.409703E+02  0.158E-02    3.47       0.0  T
   2    -40.9703131 -0.402575E-07  0.931E-03    3.47       2.0  T
   3    -40.9703129  0.248398E-06  0.342E-03    3.47       5.4  T
   4    -40.9703131 -0.279563E-06  0.388E-04    3.47      47.9  T
   5    -40.9703131 -0.220837E-08  0.177E-04    3.47     104.7  T
     SCC iter.                  ...        0 min,  0.075 sec
     gradient                   ...        0 min,  0.042 sec
 * total energy  :   -40.3205598 Eh     change       -0.3927586E-05 Eh
   gradient norm :     0.0006003 Eh/α   predicted    -0.1899830E-05 ( -51.63%)
   displ. norm   :     0.0435818 α      lambda        0.0000000E+00
   maximum displ.:     0.0327184 α      in ANC's #1, #6, #3, ...

........................................................................
.............................. CYCLE   18 ..............................
........................................................................

 iter      E             dE          RMSdq      gap      omega  full diag
   1    -40.9704465 -0.409704E+02  0.158E-02    3.47       0.0  T
   2    -40.9704466 -0.408454E-07  0.931E-03    3.47       2.0  T
   3    -40.9704463  0.262115E-06  0.352E-03    3.48       5.3  T
   4    -40.9704466 -0.295079E-06  0.384E-04    3.47      48.3  T
   5    -40.9704466 -0.218913E-08  0.177E-04    3.47     104.7  T
     SCC iter.                  ...        0 min,  0.046 sec
     gradient                   ...        0 min,  0.035 sec
 * total energy  :   -40.3205602 Eh     change       -0.3954638E-06 Eh
   gradient norm :     0.0009467 Eh/α   predicted    -0.6584334E-09 ( -99.83%)
   displ. norm   :     0.0156235 α      lambda       -0.2665563E-05
   maximum displ.:     0.0106155 α      in ANC's #5, #11, #2, ...

........................................................................
.............................. CYCLE   19 ..............................
........................................................................

 iter      E             dE          RMSdq      gap      omega  full diag
   1    -40.9702342 -0.409702E+02  0.894E-03    3.47       0.0  T
   2    -40.9702342 -0.285763E-07  0.527E-03    3.47       3.5  T
   3    -40.9702342  0.722692E-07  0.181E-03    3.47      10.3  T
   4    -40.9702342 -0.807800E-07  0.369E-04    3.47      50.4  T
   5    -40.9702342 -0.296230E-08  0.103E-04    3.47     180.7  T
     SCC iter.                  ...        0 min,  0.049 sec
     gradient                   ...        0 min,  0.035 sec
 * total energy  :   -40.3205625 Eh     change       -0.2280685E-05 Eh
   gradient norm :     0.0006916 Eh/α   predicted    -0.1334446E-05 ( -41.49%)
   displ. norm   :     0.0198831 α      lambda       -0.2079181E-05
   maximum displ.:     0.0121700 α      in ANC's #5, #2, #11, ...

........................................................................
.............................. CYCLE   20 ..............................
........................................................................

 iter      E             dE          RMSdq      gap      omega  full diag
   1    -40.9701778 -0.409702E+02  0.101E-02    3.47       0.0  T
   2    -40.9701778 -0.185164E-07  0.605E-03    3.47       3.1  T
   3    -40.9701776  0.221935E-06  0.301E-03    3.47       6.2  T
   4    -40.9701778 -0.250941E-06  0.287E-04    3.47      64.6  T
   5    -40.9701778 -0.109539E-08  0.106E-04    3.47     175.3  T
     SCC iter.                  ...        0 min,  0.070 sec
     gradient                   ...        0 min,  0.042 sec
 * total energy  :   -40.3205646 Eh     change       -0.2166588E-05 Eh
   gradient norm :     0.0005430 Eh/α   predicted    -0.1043620E-05 ( -51.83%)
   displ. norm   :     0.0443586 α      lambda       -0.2284587E-05
   maximum displ.:     0.0297152 α      in ANC's #5, #1, #2, ...
 * RMSD in coord.:     0.4593868 α      energy gain  -0.6821851E-02 Eh

generating ANC from exact Hessian ...
Using Lindh-Hessian (1995)
 Shifting diagonal of input Hessian by    9.0678348384245627E-003
 Lowest  eigenvalues of input Hessian
    0.000000    0.000000    0.000000    0.000000    0.000000    0.000000
    0.010000    0.010164    0.011026    0.011225    0.011710    0.014512
    0.016356    0.017711    0.019740    0.021004    0.024614    0.025064
 Highest eigenvalues
    1.770638    1.906108    1.997206    2.039646    2.068727    2.336527


........................................................................
.............................. CYCLE   21 ..............................
........................................................................

 iter      E             dE          RMSdq      gap      omega  full diag
   1    -40.9700800 -0.409701E+02  0.208E-02    3.47       0.0  T
   2    -40.9700800 -0.297959E-07  0.122E-02    3.47       1.5  T
   3    -40.9700794  0.599498E-06  0.509E-03    3.47       3.6  T
   4    -40.9700801 -0.665060E-06  0.259E-04    3.47      71.7  T
   5    -40.9700801 -0.493365E-09  0.131E-04    3.47     142.1  T
     SCC iter.                  ...        0 min,  0.104 sec
     gradient                   ...        0 min,  0.030 sec
 * total energy  :   -40.3205672 Eh     change       -0.2592136E-05 Eh
   gradient norm :     0.0006650 Eh/α   predicted     0.0000000E+00 (-100.00%)
   displ. norm   :     0.0119009 α      lambda       -0.1563274E-05
   maximum displ.:     0.0074261 α      in ANC's #1, #5, #4, ...

........................................................................
.............................. CYCLE   22 ..............................
........................................................................

 iter      E             dE          RMSdq      gap      omega  full diag
   1    -40.9703695 -0.409704E+02  0.626E-03    3.47       0.0  T
   2    -40.9703695 -0.170535E-07  0.374E-03    3.47       5.0  T
   3    -40.9703695  0.608344E-07  0.152E-03    3.47      12.2  T
   4    -40.9703695 -0.684786E-07  0.298E-04    3.47      62.2  T
   5    -40.9703695 -0.176750E-08  0.729E-05    3.47     254.6  T
     SCC iter.                  ...        0 min,  0.067 sec
     gradient                   ...        0 min,  0.034 sec
 * total energy  :   -40.3205685 Eh     change       -0.1323562E-05 Eh
   gradient norm :     0.0002771 Eh/α   predicted    -0.7891835E-06 ( -40.37%)
   displ. norm   :     0.0144143 α      lambda       -0.8539005E-06
   maximum displ.:     0.0091661 α      in ANC's #1, #5, #4, ...

........................................................................
.............................. CYCLE   23 ..............................
........................................................................

 iter      E             dE          RMSdq      gap      omega  full diag
   1    -40.9704490 -0.409704E+02  0.650E-03    3.47       0.0  T
   2    -40.9704490 -0.119515E-07  0.381E-03    3.47       4.9  T
   3    -40.9704490  0.137632E-07  0.792E-04    3.47      23.4  T
   4    -40.9704490 -0.162499E-07  0.172E-04    3.47     108.0  T
     SCC iter.                  ...        0 min,  0.057 sec
     gradient                   ...        0 min,  0.036 sec
 * total energy  :   -40.3205695 Eh     change       -0.9592335E-06 Eh
   gradient norm :     0.0003054 Eh/α   predicted    -0.4277490E-06 ( -55.41%)
   displ. norm   :     0.0248215 α      lambda       -0.1014583E-05
   maximum displ.:     0.0159898 α      in ANC's #1, #5, #4, ...

   *** GEOMETRY OPTIMIZATION CONVERGED AFTER 23 ITERATIONS ***

------------------------------------------------------------------------
 total energy gain   :        -0.0068267 Eh       -4.2838 kcal/mol
 total RMSD          :         0.4593647 a0        0.2431 Å
 total power (kW/mol):        -0.7792855 (step)   -5.4089 (real)
------------------------------------------------------------------------

 ANCopt (total)                0 d,  0 h,  0 min,  3.314 sec
 optimizer setup                ...        0 min,  0.001 sec (  0.016%)
 model hessian                  ...        0 min,  0.023 sec (  0.702%)
 ANC generation                 ...        0 min,  0.003 sec (  0.077%)
 coordinate transformation      ...        0 min,  0.000 sec (  0.009%)
 single point calculation       ...        0 min,  3.197 sec ( 96.471%)
 optimization log               ...        0 min,  0.004 sec (  0.108%)
 hessian update                 ...        0 min,  0.080 sec (  2.423%)
 rational function              ...        0 min,  0.003 sec (  0.076%)

================
 final structure:
================
29
 xtb: 6.7.1 (edcfbbe)
C            3.87896156638906        1.69551545664037        0.03168552051700
C            3.13408799602592        0.41122027187038       -0.03063013934315
C            1.85234194463313        0.28668926878312       -0.35870018752054
C            1.21541507206135       -1.04521818642110       -0.42247443343665
O            1.85947051251340       -2.07656162652403       -0.50997289212247
N           -0.15431776947318       -1.05093930908453       -0.45627425432574
C           -0.83695952954586       -2.31942048961424       -0.65115829498527
C           -1.38784054141901       -2.86690632436442        0.66169785976483
C           -0.94087567345570        0.05684833931995       -0.08286199556764
C           -0.68235322575208        0.73267155463782        1.10806153441793
C           -1.46155629246398        1.81168930229590        1.48087514826625
C           -2.51516573295679        2.22133429970346        0.68060574662643
C           -2.78201271061974        1.54733159105413       -0.49917985739430
C           -2.00156480119431        0.47207669750060       -0.88249637603316
H            4.27010802864768        1.85291306750311        1.03668186771383
H            4.73054753726523        1.66306351456142       -0.64711588448676
H            3.24165637187095        2.53456786796463       -0.23683714629755
H            3.69009425443903       -0.48391416606554        0.21770760065194
H            1.25066373926380        1.14537809159468       -0.61890326737021
H           -1.64728227272767       -2.18579977488913       -1.37229402581205
H           -0.09872891473320       -3.01050465031048       -1.06335129159202
H           -0.57694515439265       -3.01937308019625        1.36967055769233
H           -2.10571956126078       -2.17225464637649        1.09468883699775
H           -1.88206713865684       -3.81896275490526        0.48780592116597
H            0.13277546222859        0.40276566790308        1.73527195354947
H           -1.25071555912804        2.32876006435271        2.40524931601037
H           -3.12612109457524        3.06090762127130        0.97568712217896
H           -3.60001946271717        1.86389180206363       -1.12935430554141
H           -2.20587705026824       -0.03776947026654       -1.81193386691856

 Bond Distances (Angstroems)
 ---------------------------
C1-C2=1.4860         C1-H15=1.0899        C1-H16=1.0895        C1-H17=1.0873        C2-C1=1.4860         C2-C3=1.3289         
C2-H18=1.0826        C3-C2=1.3289         C3-C4=1.4777         C3-H19=1.0803        C4-C3=1.4777         C4-O5=1.2191         
C4-N6=1.3702         O5-C4=1.2191         N6-C4=1.3702         N6-C7=1.4536         N6-C9=1.4090         C7-N6=1.4536         
C7-C8=1.5254         C7-H20=1.0929        C7-H21=1.0920        C8-C7=1.5254         C8-H22=1.0872        C8-H23=1.0887        
C8-H24=1.0867        C9-N6=1.4090         C9-C10=1.3935        C9-C14=1.3917        C10-C9=1.3935        C10-C11=1.3822       
C10-H25=1.0801       C11-C10=1.3822       C11-C12=1.3850       C11-H26=1.0799       C12-C11=1.3850       C12-C13=1.3847       
C12-H27=1.0795       C13-C12=1.3847       C13-C14=1.3828       C13-H28=1.0800       C14-C9=1.3917        C14-C13=1.3828       
C14-H29=1.0796       H15-C1=1.0899        H16-C1=1.0895        H17-C1=1.0873        H18-C2=1.0826        H19-C3=1.0803        
H20-C7=1.0929        H21-C7=1.0920        H22-C8=1.0872        H23-C8=1.0887        H24-C8=1.0867        H25-C10=1.0801       
H26-C11=1.0799       H27-C12=1.0795       H28-C13=1.0800       H29-C14=1.0796       
 C  H  Rav=1.0851 sigma=0.0048  Rmin=1.0795  Rmax=1.0929    15
 C  C  Rav=1.4138 sigma=0.0579  Rmin=1.3289  Rmax=1.5254    10
 N  C  Rav=1.4109 sigma=0.0341  Rmin=1.3702  Rmax=1.4536     3
 O  C  Rav=1.2191 sigma=0.0000  Rmin=1.2191  Rmax=1.2191     1

 selected bond angles (degree)
 --------------------
H15-C1-C2=110.08               H16-C1-C2=109.87               H16-C1-H15=107.36              H17-C1-C2=111.27               
H17-C1-H15=109.07              H17-C1-H16=109.10              C3-C2-C1=125.09                H18-C2-C1=116.59               
H18-C2-C3=118.33               C4-C3-C2=120.72                H19-C3-C2=121.48               H19-C3-C4=117.77               
O5-C4-C3=122.54                N6-C4-C3=115.83                N6-C4-O5=121.52                C7-N6-C4=118.45                
C9-N6-C4=123.25                C9-N6-C7=117.35                C8-C7-N6=111.56                H20-C7-N6=109.27               
H20-C7-C8=110.12               H21-C7-N6=106.58               H21-C7-C8=109.99               H21-C7-H20=109.24              
H22-C8-C7=109.96               H23-C8-C7=110.57               H23-C8-H22=108.80              H24-C8-C7=109.94               
H24-C8-H22=108.70              H24-C8-H23=108.83              C10-C9-N6=120.28               C14-C9-N6=120.51               
C14-C9-C10=119.19              C11-C10-C9=120.30              H25-C10-C9=119.22              H25-C10-C11=120.48             

 selected dihedral angles (degree)
 ---------------------------------
C3-C2-C1-H15=120.49           C3-C2-C1-H16=238.52           C3-C2-C1-H17=359.46           H18-C2-C1-H15=300.80          
H18-C2-C1-H16= 58.83          H18-C2-C1-H17=179.77          C4-C3-C2-C1=178.47            C4-C3-C2-H18=358.15           
H19-C3-C2-C1=  0.54           H19-C3-C2-H18=180.22          O5-C4-C3-C2=341.52            O5-C4-C3-H19=159.52           
N6-C4-C3-C2=165.20            N6-C4-C3-H19=343.20           C7-N6-C4-C3=174.06            C7-N6-C4-O5=357.70            
C9-N6-C4-C3=342.60            C9-N6-C4-O5=166.24            C8-C7-N6-C4=101.73            C8-C7-N6-C9=292.51            
H20-C7-N6-C4=223.73           H20-C7-N6-C9= 54.51           H21-C7-N6-C4=341.65           H21-C7-N6-C9=172.44           
H22-C8-C7-N6=300.27           H22-C8-C7-H20=178.77          H22-C8-C7-H21= 58.32          H23-C8-C7-N6= 60.44           
H23-C8-C7-H20=298.94          H23-C8-C7-H21=178.49          H24-C8-C7-N6=180.63           H24-C8-C7-H20= 59.13          
H24-C8-C7-H21=298.68          C10-C9-N6-C4=312.19           C10-C9-N6-C7=120.84           C14-C9-N6-C4=133.56           
C14-C9-N6-C7=302.21           C11-C10-C9-N6=180.61          C11-C10-C9-C14=359.25         H25-C10-C9-N6=  0.57          
H25-C10-C9-C14=179.21         
           -------------------------------------------------
          |                Final Singlepoint                |
           -------------------------------------------------

          ...................................................
          :                      SETUP                      :
          :.................................................:
          :  # basis functions                  71          :
          :  # atomic orbitals                  71          :
          :  # shells                           43          :
          :  # electrons                        74          :
          :  max. iterations                   250          :
          :  Hamiltonian                  GFN2-xTB          :
          :  restarted?                      false          :
          :  GBSA solvation                  false          :
          :  PC potential                    false          :
          :  electronic temp.          300.0000000     K    :
          :  accuracy                    1.0000000          :
          :  -> integral cutoff          0.2500000E+02      :
          :  -> integral neglect         0.1000000E-07      :
          :  -> SCF convergence          0.1000000E-05 Eh   :
          :  -> wf. convergence          0.1000000E-03 e    :
          :  Broyden damping             0.4000000          :
          :  net charge                          0          :
          :  unpaired electrons                  0          :
          ...................................................

 iter      E             dE          RMSdq      gap      omega  full diag
   1    -40.9704490 -0.409704E+02  0.603E-05    3.47       0.0  T
   2    -40.9704490 -0.554223E-11  0.386E-05    3.47     480.9  T
   3    -40.9704490 -0.150919E-10  0.266E-05    3.47     698.3  T

   *** convergence criteria satisfied after 3 iterations ***

         #    Occupation            Energy/Eh            Energy/eV
      -------------------------------------------------------------
         1        2.0000           -0.6848810             -18.6366
       ...           ...                  ...                  ...
        31        2.0000           -0.4390213             -11.9464
        32        2.0000           -0.4369308             -11.8895
        33        2.0000           -0.4221754             -11.4880
        34        2.0000           -0.4156340             -11.3100
        35        2.0000           -0.4057939             -11.0422
        36        2.0000           -0.3831563             -10.4262
        37        2.0000           -0.3788018             -10.3077 (HOMO)
        38                         -0.2512677              -6.8373 (LUMO)
        39                         -0.2334934              -6.3537
        40                         -0.2277008              -6.1961
        41                         -0.1458998              -3.9701
        42                         -0.1023494              -2.7851
       ...                                ...                  ...
        71                          0.6959637              18.9381
      -------------------------------------------------------------
                  HL-Gap            0.1275342 Eh            3.4704 eV
             Fermi-level           -0.3150347 Eh           -8.5725 eV

 SCC (total)                   0 d,  0 h,  0 min,  0.103 sec
 SCC setup                      ...        0 min,  0.004 sec (  3.689%)
 Dispersion                     ...        0 min,  0.008 sec (  7.301%)
 classical contributions        ...        0 min,  0.004 sec (  3.578%)
 integral evaluation            ...        0 min,  0.013 sec ( 12.692%)
 iterations                     ...        0 min,  0.039 sec ( 37.831%)
 molecular gradient             ...        0 min,  0.036 sec ( 34.732%)
 printout                       ...        0 min,  0.000 sec (  0.150%)

         :::::::::::::::::::::::::::::::::::::::::::::::::::::
         ::                     SUMMARY                     ::
         :::::::::::::::::::::::::::::::::::::::::::::::::::::
         :: total energy             -40.320569509414 Eh    ::
         :: gradient norm              0.000305649196 Eh/a0 ::
         :: HOMO-LUMO gap              3.470381812858 eV    ::
         ::.................................................::
         :: SCC energy               -40.970182697146 Eh    ::
         :: -> isotropic ES            0.040316284384 Eh    ::
         :: -> anisotropic ES          0.004369621323 Eh    ::
         :: -> anisotropic XC          0.021569537398 Eh    ::
         :: -> dispersion             -0.026706828878 Eh    ::
         :: repulsion energy           0.649613187731 Eh    ::
         :: add. restraining           0.000000000000 Eh    ::
         :: total charge               0.000000000000 e     ::
         :::::::::::::::::::::::::::::::::::::::::::::::::::::

           -------------------------------------------------
          |                Property Printout                |
           -------------------------------------------------

    * Orbital Energies and Occupations

         #    Occupation            Energy/Eh            Energy/eV
      -------------------------------------------------------------
         1        2.0000           -0.6848810             -18.6366
       ...           ...                  ...                  ...
        25        2.0000           -0.4846365             -13.1876
        26        2.0000           -0.4769773             -12.9792
        27        2.0000           -0.4669775             -12.7071
        28        2.0000           -0.4620565             -12.5732
        29        2.0000           -0.4453745             -12.1193
        30        2.0000           -0.4417861             -12.0216
        31        2.0000           -0.4390213             -11.9464
        32        2.0000           -0.4369308             -11.8895
        33        2.0000           -0.4221754             -11.4880
        34        2.0000           -0.4156340             -11.3100
        35        2.0000           -0.4057939             -11.0422
        36        2.0000           -0.3831563             -10.4262
        37        2.0000           -0.3788018             -10.3077 (HOMO)
        38                         -0.2512677              -6.8373 (LUMO)
        39                         -0.2334934              -6.3537
        40                         -0.2277008              -6.1961
        41                         -0.1458998              -3.9701
        42                         -0.1023494              -2.7851
        43                          0.0048720               0.1326
        44                          0.0864842               2.3534
        45                          0.1063448               2.8938
        46                          0.1262439               3.4353
        47                          0.1276276               3.4729
        48                          0.1404380               3.8215
       ...                                ...                  ...
        71                          0.6959637              18.9381
      -------------------------------------------------------------
                  HL-Gap            0.1275342 Eh            3.4704 eV
             Fermi-level           -0.3150347 Eh           -8.5725 eV

     #   Z          covCN         q      C6AA      α(0)
     1   6 C        3.756    -0.107    22.600     6.778
     2   6 C        2.893    -0.009    28.252     8.715
     3   6 C        2.894    -0.077    29.912     8.967
     4   6 C        2.773     0.266    22.508     7.770
     5   8 O        0.859    -0.446    22.624     6.377
     6   7 N        2.743    -0.103    23.258     7.163
     7   6 C        3.751     0.006    20.536     6.463
     8   6 C        3.752    -0.107    22.613     6.781
     9   6 C        2.918     0.068    26.470     8.437
    10   6 C        2.923    -0.042    29.040     8.837
    11   6 C        2.919    -0.028    28.707     8.786
    12   6 C        2.919    -0.034    28.844     8.807
    13   6 C        2.920    -0.029    28.717     8.788
    14   6 C        2.922    -0.043    29.068     8.841
    15   1 H        0.925     0.054     2.270     2.356
    16   1 H        0.925     0.057     2.237     2.339
    17   1 H        0.925     0.045     2.389     2.417
    18   1 H        0.925     0.062     2.171     2.304
    19   1 H        0.926     0.036     2.496     2.470
    20   1 H        0.924     0.039     2.463     2.454
    21   1 H        0.924     0.076     2.022     2.224
    22   1 H        0.925     0.050     2.325     2.384
    23   1 H        0.925     0.037     2.492     2.469
    24   1 H        0.925     0.044     2.391     2.418
    25   1 H        0.926     0.038     2.473     2.459
    26   1 H        0.926     0.036     2.496     2.471
    27   1 H        0.926     0.035     2.512     2.479
    28   1 H        0.926     0.036     2.497     2.471
    29   1 H        0.926     0.038     2.471     2.458

 Mol. C6AA /au·bohr⁶  :       8861.981481
 Mol. C8AA /au·bohr⁸  :     206939.928455
 Mol. α(0) /au        :        147.684707


Wiberg/Mayer (AO) data.
largest (>0.10) Wiberg bond orders for each atom

 ---------------------------------------------------------------------------
     #   Z sym  total        # sym  WBO       # sym  WBO       # sym  WBO
 ---------------------------------------------------------------------------
     1   6 C    3.996 --     2 C    1.050    17 H    0.985    15 H    0.965
                            16 H    0.964
     2   6 C    3.981 --     3 C    1.866     1 C    1.050    18 H    0.962
     3   6 C    3.988 --     2 C    1.866     4 C    1.023    19 H    0.961
     4   6 C    3.951 --     5 O    1.657     6 N    1.183     3 C    1.023
     5   8 O    1.991 --     4 C    1.657     6 N    0.173
     6   7 N    3.499 --     4 C    1.183     9 C    1.036     7 C    0.973
                             5 O    0.173
     7   6 C    3.968 --     8 C    1.010     6 N    0.973    20 H    0.968
                            21 H    0.965
     8   6 C    3.994 --     7 C    1.010    22 H    0.987    23 H    0.987
                            24 H    0.985
     9   6 C    3.970 --    14 C    1.387    10 C    1.379     6 N    1.036
                            12 C    0.103
    10   6 C    3.991 --    11 C    1.451     9 C    1.379    25 H    0.968
                            13 C    0.108
    11   6 C    3.992 --    10 C    1.451    12 C    1.434    26 H    0.970
                            14 C    0.108
    12   6 C    3.985 --    13 C    1.435    11 C    1.434    27 H    0.971
                             9 C    0.103
    13   6 C    3.991 --    14 C    1.449    12 C    1.435    28 H    0.971
                            10 C    0.108
    14   6 C    3.991 --    13 C    1.449     9 C    1.387    29 H    0.967
                            11 C    0.108
    15   1 H    0.996 --     1 C    0.965
    16   1 H    0.995 --     1 C    0.964
    17   1 H    0.998 --     1 C    0.985
    18   1 H    0.996 --     2 C    0.962
    19   1 H    0.999 --     3 C    0.961
    20   1 H    0.997 --     7 C    0.968
    21   1 H    0.994 --     7 C    0.965
    22   1 H    0.998 --     8 C    0.987
    23   1 H    0.999 --     8 C    0.987
    24   1 H    0.997 --     8 C    0.985
    25   1 H    0.999 --    10 C    0.968
    26   1 H    0.998 --    11 C    0.970
    27   1 H    0.999 --    12 C    0.971
    28   1 H    0.998 --    13 C    0.971
    29   1 H    0.999 --    14 C    0.967
 ---------------------------------------------------------------------------

Topologies differ in total number of bonds
Writing topology from bond orders to xtbtopo.mol

molecular dipole:
                 x           y           z       tot (Debye)
 q only:       -0.726       0.956       0.227
   full:       -0.812       1.134       0.252       3.603
molecular quadrupole (traceless):
                xx          xy          yy          xz          yz          zz
 q only:        2.717      10.045      -2.428       2.876      -0.430      -0.288
  q+dip:        3.575       8.920      -4.077       5.979       0.634       0.503
   full:        2.747      10.721      -4.090       4.170      -0.446       1.342

           -------------------------------------------------
          |                Geometry Summary                 |
           -------------------------------------------------

      molecular mass/u    :      189.2540502
   center of mass at/Å    :       -0.0102484      -0.0620386       0.0018410
  moments of inertia/u·Å² :        0.5999816E+03   0.9118402E+03   0.1336042E+04
rotational constants/cm⁻¹ :        0.2809692E-01   0.1848749E-01   0.1261759E-01

 * 27 selected distances

     #   Z          #   Z                                           value/Å
     2   6 C        3   6 C                                       1.3289135
     4   6 C        5   8 O                                       1.2190705
     4   6 C        6   7 N                                       1.3701619
     6   7 N        7   6 C                                       1.4536246
     7   6 C        8   6 C                                       1.5253860 (max)
     6   7 N        9   6 C                                       1.4090081
     9   6 C       10   6 C                                       1.3935100
    10   6 C       11   6 C                                       1.3821820
    11   6 C       12   6 C                                       1.3850391
    12   6 C       13   6 C                                       1.3846954
     9   6 C       14   6 C                                       1.3917225
    13   6 C       14   6 C                                       1.3828246
     1   6 C       15   1 H                                       1.0898566
     1   6 C       16   1 H                                       1.0895060
     1   6 C       17   1 H                                       1.0873231
     2   6 C       18   1 H                                       1.0826267
     3   6 C       19   1 H                                       1.0803097
     7   6 C       20   1 H                                       1.0929384
     7   6 C       21   1 H                                       1.0920096
     8   6 C       22   1 H                                       1.0872088
     8   6 C       23   1 H                                       1.0887482
     8   6 C       24   1 H                                       1.0866968
    10   6 C       25   1 H                                       1.0801230
    11   6 C       26   1 H                                       1.0799462
    12   6 C       27   1 H                                       1.0794550 (min)
    13   6 C       28   1 H                                       1.0800303
    14   6 C       29   1 H                                       1.0796022

 * 4 distinct bonds (by element types)

   Z      Z             #   av. dist./Å        max./Å        min./Å
   1 H    6 C          15     1.0850920     1.0929384     1.0794550
   6 C    6 C           8     1.3967841     1.5253860     1.3289135
   6 C    7 N           3     1.4109315     1.4536246     1.3701619
   6 C    8 O           1     1.2190705     1.2190705     1.2190705


optimized geometry written to: xtbopt.xyz


           -------------------------------------------------
          | TOTAL ENERGY              -40.320569509414 Eh   |
          | GRADIENT NORM               0.000305649196 Eh/α |
          | HOMO-LUMO GAP               3.470381812858 eV   |
           -------------------------------------------------

------------------------------------------------------------------------
 * finished run on 2026/07/08 at 02:48:17.203     
------------------------------------------------------------------------
 total:
 * wall-time:     0 d,  0 h,  0 min,  3.693 sec
 *  cpu-time:     0 d,  0 h,  0 min, 58.871 sec
 * ratio c/w:    15.941 speedup
 SCF:
 * wall-time:     0 d,  0 h,  0 min,  0.215 sec
 *  cpu-time:     0 d,  0 h,  0 min,  3.439 sec
 * ratio c/w:    15.977 speedup
 ANC optimizer:
 * wall-time:     0 d,  0 h,  0 min,  3.423 sec
 *  cpu-time:     0 d,  0 h,  0 min, 54.627 sec
 * ratio c/w:    15.960 speedup

