36
REP_00050 MMFF geometry for GFN2-xTB preoptimization
C  -6.545709182453 -0.844331463796 -1.977946007018
C  -5.411721984854 -0.996602134463 -0.976277385939
C  -5.355064502713  0.190124714462 -0.011563931055
C  -4.244169042819  0.038999134498  1.024294688350
O  -2.976422467280  0.037490612045  0.355756440597
C  -1.914616013671 -0.111632924633  1.183342669256
O  -1.945322885397 -0.235642115036  2.396116225952
C  -0.691153699384 -0.099963060951  0.365662001683
C   0.498954264050 -0.233052336120  0.965504912369
C   1.722665575253 -0.221262073144  0.147661862343
O   1.750667002806 -0.097929010066 -1.065126036759
O   2.783708549438 -0.365500397435  0.977426838884
C   4.072897100772 -0.381563372113  0.341983936677
C   4.599508695360  1.044358431007  0.202551759500
C   5.947427030017  1.130290501267 -0.511585497489
C   7.082466067718  0.469041583348  0.254646974471
H  -6.569511436915 -1.702567626580 -2.656762340875
H  -6.418624967879  0.061353997661 -2.579534257004
H  -7.513404936039 -0.786648664656 -1.469454994001
H  -4.465218261839 -1.087482321452 -1.521241301181
H  -5.552435656381 -1.926469966008 -0.413075087201
H  -6.315813039654  0.291111291667  0.506413895745
H  -5.189383531507  1.108311384882 -0.588225566008
H  -4.282705175351  0.884572317922  1.720926011116
H  -4.372226417918 -0.896047551844  1.582452277464
H  -0.798690593762  0.017350389296 -0.706558528803
H   0.606295681276 -0.350209265989  2.037741376012
H   4.728478668414 -0.971489739971  0.990124881171
H   4.029188371306 -0.895776687249 -0.625531611563
H   4.666793916960  1.506216563795  1.195517969044
H   3.869215660162  1.647422367975 -0.350882841059
H   6.196238152787  2.188014953497 -0.658853225860
H   5.870204264371  0.681337385099 -1.508639355267
H   8.033641370204  0.643849590284 -0.258429317065
H   7.163688687796  0.877428209159  1.266909291434
H   6.940154737963 -0.613102716649  0.327715821943
