22
 energy: -28.639146444454 gnorm: 0.000171873558 xtb: 6.7.1 (edcfbbe)
C            2.51574921113721        0.50845518240549        0.50123210607667
N            1.21817651020249        0.34296754095840       -0.11323339829264
C            0.78022067231896       -1.01303999554017       -0.35795858532401
C           -0.33250711731242       -1.46498632255259        0.59340217375348
C           -1.71513429828586       -1.00223683112698        0.14364824901953
C           -1.86260745871975        0.51617561789794        0.09830283271731
C           -0.93028233410561        1.19394982372530       -0.91140962430150
C            0.45605776030506        1.43732296173973       -0.34461362504586
O            0.85320654634506        2.56282483061559       -0.10324035274873
H            2.67131961871445        1.57278708861112        0.66783425019221
H            2.55948527870737       -0.01855581945940        1.45719732756462
H            3.30155920671087        0.12720138691500       -0.15490030546434
H            1.65274511467861       -1.65689901990920       -0.22840787307790
H            0.44210097545412       -1.12029586165150       -1.39426966264814
H           -0.12089130679807       -1.07988234181503        1.59293291885659
H           -0.32710340077724       -2.55569804483027        0.64598738344880
H           -1.92287794433786       -1.41235488841630       -0.84832744831922
H           -2.46308227173667       -1.40783039649492        0.82901407616171
H           -2.89494615271585        0.75029137178683       -0.17149887575278
H           -1.67993149843814        0.93575771282113        1.09001969967500
H           -1.32750587993249        2.17873998594623       -1.16283984462159
H           -0.87375123141224        0.60530601837255       -1.82887142187019
