16
 energy: -26.980553684347 gnorm: 0.000383132521 xtb: 6.7.1 (edcfbbe)
C           -2.64943680304656        0.05170772726148        0.36222174533006
C           -1.28404858523917        0.60468412145099        0.07170927286275
O           -0.80290860624748        1.55243086233073        0.62817859986711
C           -0.52200244309531       -0.16221562413591       -1.01347113739116
O            0.87041303793982        0.08073550253746       -0.92120997191356
C            1.44704957718812       -0.36535011968506        0.20881806432873
C            2.88489816735370        0.05724922346201        0.28484253352499
O            0.85771346449096       -1.01944964798646        1.02740551431459
H           -2.52388137197400       -0.82560525741947        0.99550931079043
H           -3.24434157853018        0.78535963181482        0.89885543878700
H           -3.15154142061894       -0.25272928474844       -0.55206681144732
H           -0.82731974383348        0.19942137706512       -1.99805518147506
H           -0.72833962570732       -1.23442581885643       -0.92615874639623
H            3.43561439419776       -0.62026057122959        0.93051290915750
H            2.91821030995983        1.05812534755091        0.71239261156649
H            3.31992122716223        0.09032253058874       -0.70948415190733
