      -----------------------------------------------------------      
     |                   =====================                   |     
     |                           x T B                           |     
     |                   =====================                   |     
     |                         S. Grimme                         |     
     |          Mulliken Center for Theoretical Chemistry        |     
     |                    University of Bonn                     |     
      -----------------------------------------------------------      

   * xtb version 6.7.1 (edcfbbe) compiled by 'conda@5dfe00f5fb80' on 2026-06-10

   xtb is free software: you can redistribute it and/or modify it under
   the terms of the GNU Lesser General Public License as published by
   the Free Software Foundation, either version 3 of the License, or
   (at your option) any later version.
   
   xtb is distributed in the hope that it will be useful,
   but WITHOUT ANY WARRANTY; without even the implied warranty of
   MERCHANTABILITY or FITNESS FOR A PARTICULAR PURPOSE.  See the
   GNU Lesser General Public License for more details.
   
   Cite this work as:
   * C. Bannwarth, E. Caldeweyher, S. Ehlert, A. Hansen, P. Pracht,
     J. Seibert, S. Spicher, S. Grimme, WIREs Comput. Mol. Sci., 2020, 11,
     e01493. DOI: 10.1002/wcms.1493
   
   for GFN2-xTB:
   * C. Bannwarth, S. Ehlert and S. Grimme., J. Chem. Theory Comput., 2019,
     15, 1652-1671. DOI: 10.1021/acs.jctc.8b01176
   for GFN1-xTB:
   * S. Grimme, C. Bannwarth, P. Shushkov, J. Chem. Theory Comput., 2017,
     13, 1989-2009. DOI: 10.1021/acs.jctc.7b00118
   for GFN0-xTB:
   * P. Pracht, E. Caldeweyher, S. Ehlert, S. Grimme, ChemRxiv, 2019, preprint.
     DOI: 10.26434/chemrxiv.8326202.v1
   for GFN-FF:
   * S. Spicher and S. Grimme, Angew. Chem. Int. Ed., 2020, 59, 15665-15673.
     DOI: 10.1002/anie.202004239
   
   for ALPB and GBSA implicit solvation:
   * S. Ehlert, M. Stahn, S. Spicher, S. Grimme, J. Chem. Theory Comput.,
     2021, 17, 4250-4261. DOI: 10.1021/acs.jctc.1c00471
   
   for ddCOSMO and CPCM-X implicit solvation:
   * M. Stahn, S. Ehlert, S. Grimme, J. Phys. Chem. A,
     2023, XX, XXXX-XXXX. DOI: 10.1021/acs.jpca.3c04382
   
   for DFT-D4:
   * E. Caldeweyher, C. Bannwarth and S. Grimme, J. Chem. Phys., 2017,
     147, 034112. DOI: 10.1063/1.4993215
   * E. Caldeweyher, S. Ehlert, A. Hansen, H. Neugebauer, S. Spicher,
     C. Bannwarth and S. Grimme, J. Chem. Phys., 2019, 150, 154122.
     DOI: 10.1063/1.5090222
   * E. Caldeweyher, J.-M. Mewes, S. Ehlert and S. Grimme, Phys. Chem. Chem. Phys.
     2020, 22, 8499-8512. DOI: 10.1039/D0CP00502A
   
   for sTDA-xTB:
   * S. Grimme and C. Bannwarth, J. Chem. Phys., 2016, 145, 054103.
     DOI: 10.1063/1.4959605
   
   in the mass-spec context:
   * V. Asgeirsson, C. Bauer and S. Grimme, Chem. Sci., 2017, 8, 4879.
     DOI: 10.1039/c7sc00601b
   * J. Koopman and S. Grimme, ACS Omega 2019, 4, 12, 15120-15133.
     DOI: 10.1021/acsomega.9b02011
   
   for metadynamics refer to:
   * S. Grimme, J. Chem. Theory Comput., 2019, 155, 2847-2862
     DOI: 10.1021/acs.jctc.9b00143
   
   for SPH calculations refer to:
   * S. Spicher and S. Grimme, J. Chem. Theory Comput., 2021, 17, 1701-1714
     DOI: 10.1021/acs.jctc.0c01306
   
   for ONIOM refer to:
   * C. Plett, A. Katbashev, S. Ehlert, S. Grimme, M. Bursch,
     Phys. Chem. Chem. Phys., 2023, 25, 17860-17868. DOI: 10.1039/D3CP02178E
   
   for DIPRO refer to:
   * J. Kohn, N. Gildemeister, S. Grimme, D. Fazzi, A. Hansen,
     J. Chem. Phys., 2023, just accepted.
   
   for PTB refer to:
   * S. Grimme, M. Mueller, A. Hansen, J. Chem. Phys., 2023, 158, 124111.
     DOI: 10.1063/5.0137838
   
   with help from (in alphabetical order)
   P. Atkinson, C. Bannwarth, F. Bohle, G. Brandenburg, E. Caldeweyher
   M. Checinski, S. Dohm, S. Ehlert, S. Ehrlich, I. Gerasimov, C. Hölzer
   A. Katbashev, J. Kohn, J. Koopman, C. Lavigne, S. Lehtola, F. März, M. Müller,
   F. Musil, H. Neugebauer, J. Pisarek, C. Plett, P. Pracht, F. Pultar,
   J. Seibert, P. Shushkov, S. Spicher, M. Stahn, M. Steiner, T. Strunk,
   J. Stückrath, T. Rose, and J. Unsleber
   
 * started run on 2026/07/07 at 03:37:45.343     
   ID    Z sym.   atoms
    1    6 C      1-3, 5-8, 10-13, 16, 17
    2    7 N      4
    3    8 O      9, 14, 15
    4    1 H      18-42

           -------------------------------------------------
          |                Calculation Setup                |
           -------------------------------------------------

          program call               : /home/ws/xd2484/miniforge3/envs/p3z_dft/bin/xtb xtb_input.xyz --gfn 2 --opt tight --cycles 500 --chrg 0 --uhf 0
          hostname                   : gpu10
          coordinate file            : xtb_input.xyz
          omp threads                :                    16


           -------------------------------------------------
          |                 G F N 2 - x T B                 |
           -------------------------------------------------

        Reference                      10.1021/acs.jctc.8b01176
      * Hamiltonian:
        H0-scaling (s, p, d)           1.850000    2.230000    2.230000
        zeta-weighting                 0.500000
      * Dispersion:
        s8                             2.700000
        a1                             0.520000
        a2                             5.000000
        s9                             5.000000
      * Repulsion:
        kExp                           1.500000    1.000000
        rExp                           1.000000
      * Coulomb:
        alpha                          2.000000
        third order                    shell-resolved
        anisotropic                    true
        a3                             3.000000
        a5                             4.000000
        cn-shift                       1.200000
        cn-exp                         4.000000
        max-rad                        5.000000


          ...................................................
          :                      SETUP                      :
          :.................................................:
          :  # basis functions                  93          :
          :  # atomic orbitals                  93          :
          :  # shells                           59          :
          :  # electrons                       100          :
          :  max. iterations                   250          :
          :  Hamiltonian                  GFN2-xTB          :
          :  restarted?                      false          :
          :  GBSA solvation                  false          :
          :  PC potential                    false          :
          :  electronic temp.          300.0000000     K    :
          :  accuracy                    1.0000000          :
          :  -> integral cutoff          0.2500000E+02      :
          :  -> integral neglect         0.1000000E-07      :
          :  -> SCF convergence          0.1000000E-05 Eh   :
          :  -> wf. convergence          0.1000000E-03 e    :
          :  Broyden damping             0.4000000          :
          :  net charge                          0          :
          :  unpaired electrons                  0          :
          ...................................................

 iter      E             dE          RMSdq      gap      omega  full diag
   1    -56.2551498 -0.562551E+02  0.347E+00    4.53       0.0  T
   2    -56.3933055 -0.138156E+00  0.181E+00    3.88       1.0  T
   3    -56.3999701 -0.666458E-02  0.103E+00    4.30       1.0  T
   4    -56.4031382 -0.316817E-02  0.194E-01    3.91       1.0  T
   5    -56.4040567 -0.918502E-03  0.734E-02    4.00       1.0  T
   6    -56.4040822 -0.254984E-04  0.360E-02    3.99       1.0  T
   7    -56.4040858 -0.353084E-05  0.909E-03    4.00       1.7  T
   8    -56.4040863 -0.482676E-06  0.309E-03    4.00       5.0  T
   9    -56.4040864 -0.997824E-07  0.140E-03    4.00      11.0  T
  10    -56.4040864 -0.133643E-07  0.567E-04    4.00      27.2  T
  11    -56.4040864 -0.242231E-08  0.175E-04    4.00      88.2  T

   *** convergence criteria satisfied after 11 iterations ***

         #    Occupation            Energy/Eh            Energy/eV
      -------------------------------------------------------------
         1        2.0000           -0.7328256             -19.9412
       ...           ...                  ...                  ...
        44        2.0000           -0.4410127             -12.0006
        45        2.0000           -0.4375908             -11.9075
        46        2.0000           -0.4343251             -11.8186
        47        2.0000           -0.4279540             -11.6452
        48        2.0000           -0.4087532             -11.1227
        49        2.0000           -0.3818698             -10.3912
        50        2.0000           -0.3786672             -10.3041 (HOMO)
        51                         -0.2317477              -6.3062 (LUMO)
        52                         -0.2039342              -5.5493
        53                         -0.0331115              -0.9010
        54                          0.0028231               0.0768
        55                          0.0534449               1.4543
       ...                                ...                  ...
        93                          0.5977404              16.2653
      -------------------------------------------------------------
                  HL-Gap            0.1469194 Eh            3.9979 eV
             Fermi-level           -0.3052074 Eh           -8.3051 eV

 SCC (total)                   0 d,  0 h,  0 min,  0.261 sec
 SCC setup                      ...        0 min,  0.002 sec (  0.922%)
 Dispersion                     ...        0 min,  0.007 sec (  2.784%)
 classical contributions        ...        0 min,  0.002 sec (  0.864%)
 integral evaluation            ...        0 min,  0.017 sec (  6.348%)
 iterations                     ...        0 min,  0.183 sec ( 69.903%)
 molecular gradient             ...        0 min,  0.050 sec ( 19.043%)
 printout                       ...        0 min,  0.000 sec (  0.123%)

         :::::::::::::::::::::::::::::::::::::::::::::::::::::
         ::                     SUMMARY                     ::
         :::::::::::::::::::::::::::::::::::::::::::::::::::::
         :: total energy             -55.755498342002 Eh    ::
         :: gradient norm              0.065719128219 Eh/a0 ::
         :: HOMO-LUMO gap              3.997880884673 eV    ::
         ::.................................................::
         :: SCC energy               -56.403881121359 Eh    ::
         :: -> isotropic ES            0.086728182847 Eh    ::
         :: -> anisotropic ES          0.008714611133 Eh    ::
         :: -> anisotropic XC          0.020468986375 Eh    ::
         :: -> dispersion             -0.031661636984 Eh    ::
         :: repulsion energy           0.648382779357 Eh    ::
         :: add. restraining           0.000000000000 Eh    ::
         :: total charge               0.000000000000 e     ::
         :::::::::::::::::::::::::::::::::::::::::::::::::::::

      ----------------------------------------------------------- 
     |                   =====================                   |
     |                        A N C O P T                        |
     |                   =====================                   |
     |               Approximate Normal Coordinate               |
     |                Rational Function Optimizer                |
      ----------------------------------------------------------- 
      ----------------------------------------------------------- 
     |                   =====================                   |
     |                        A N C O P T                        |
     |                   =====================                   |
     |               Approximate Normal Coordinate               |
     |                Rational Function Optimizer                |
      ----------------------------------------------------------- 

          ...................................................
          :                      SETUP                      :
          :.................................................:
          :   optimization level             tight          :
          :   max. optcycles                   500          :
          :   ANC micro-cycles                  20          :
          :   degrees of freedom               120          :
          :.................................................:
          :   RF solver                   davidson          :
          :   write xtbopt.log                true          :
          :   linear?                        false          :
          :   energy convergence         0.1000000E-05 Eh   :
          :   grad. convergence          0.8000000E-03 Eh/α :
          :   maxmium RF displ.          1.0000000          :
          :   Hlow (freq-cutoff)         0.1000000E-01      :
          :   Hmax (freq-cutoff)         5.0000000          :
          :   S6 in model hess.         20.0000000          :
          ...................................................

generating ANC from exact Hessian ...
Using Lindh-Hessian (1995)
 Shifting diagonal of input Hessian by    9.8427524552269757E-003
 Lowest  eigenvalues of input Hessian
    0.000000    0.000000    0.000000    0.000000    0.000000    0.000000
    0.010000    0.010069    0.010881    0.010933    0.011143    0.011849
    0.012120    0.012426    0.013194    0.013771    0.014712    0.016253
 Highest eigenvalues
    1.316482    1.498232    1.682493    1.707000    2.167119    2.246204


........................................................................
.............................. CYCLE    1 ..............................
........................................................................

 iter      E             dE          RMSdq      gap      omega  full diag
   1    -56.4040864 -0.564041E+02  0.550E-05    4.00       0.0  T
   2    -56.4040864 -0.208544E-10  0.323E-05    4.00     478.1  T
   3    -56.4040864 -0.289901E-11  0.187E-05    4.00     826.5  T
     SCC iter.                  ...        0 min,  0.048 sec
     gradient                   ...        0 min,  0.039 sec
 * total energy  :   -55.7554983 Eh     change       -0.2102922E-09 Eh
   gradient norm :     0.0657214 Eh/α   predicted     0.0000000E+00 (-100.00%)
   displ. norm   :     0.2153598 α      lambda       -0.7526450E-02
   maximum displ.:     0.0891231 α      in ANC's #49, #13, #10, ...

........................................................................
.............................. CYCLE    2 ..............................
........................................................................

 iter      E             dE          RMSdq      gap      omega  full diag
   1    -56.4340443 -0.564340E+02  0.144E-01    4.24       0.0  T
   2    -56.4341819 -0.137639E-03  0.875E-02    4.23       1.0  T
   3    -56.4341893 -0.735829E-05  0.416E-02    4.24       1.0  T
   4    -56.4342001 -0.108694E-04  0.539E-03    4.24       2.9  T
   5    -56.4342006 -0.444286E-06  0.291E-03    4.24       5.3  T
   6    -56.4342006 -0.335043E-07  0.106E-03    4.24      14.6  T
   7    -56.4342006 -0.388722E-08  0.358E-04    4.24      43.1  T
   8    -56.4342006 -0.670980E-09  0.114E-04    4.24     135.2  T
     SCC iter.                  ...        0 min,  0.102 sec
     gradient                   ...        0 min,  0.032 sec
 * total energy  :   -55.7601820 Eh     change       -0.4683686E-02 Eh
   gradient norm :     0.0175933 Eh/α   predicted    -0.3938232E-02 ( -15.92%)
   displ. norm   :     0.1944722 α      lambda       -0.1166696E-02
   maximum displ.:     0.0814271 α      in ANC's #13, #9, #10, ...

........................................................................
.............................. CYCLE    3 ..............................
........................................................................

 iter      E             dE          RMSdq      gap      omega  full diag
   1    -56.4438721 -0.564439E+02  0.600E-02    4.30       0.0  T
   2    -56.4439165 -0.444065E-04  0.363E-02    4.30       1.0  T
   3    -56.4439201 -0.354724E-05  0.193E-02    4.31       1.0  T
   4    -56.4439206 -0.510523E-06  0.278E-03    4.31       5.5  T
   5    -56.4439208 -0.173230E-06  0.117E-03    4.31      13.2  T
   6    -56.4439208 -0.487526E-08  0.515E-04    4.31      29.9  T
   7    -56.4439208 -0.830035E-09  0.155E-04    4.31      99.2  T
     SCC iter.                  ...        0 min,  0.110 sec
     gradient                   ...        0 min,  0.032 sec
 * total energy  :   -55.7608957 Eh     change       -0.7136386E-03 Eh
   gradient norm :     0.0078811 Eh/α   predicted    -0.6054506E-03 ( -15.16%)
   displ. norm   :     0.1694127 α      lambda       -0.3198534E-03
   maximum displ.:     0.0844030 α      in ANC's #9, #10, #13, ...

........................................................................
.............................. CYCLE    4 ..............................
........................................................................

 iter      E             dE          RMSdq      gap      omega  full diag
   1    -56.4454691 -0.564455E+02  0.322E-02    4.31       0.0  T
   2    -56.4454814 -0.123369E-04  0.187E-02    4.32       1.0  T
   3    -56.4454820 -0.608514E-06  0.958E-03    4.32       1.6  T
   4    -56.4454821 -0.103385E-06  0.151E-03    4.32      10.2  T
   5    -56.4454822 -0.395519E-07  0.545E-04    4.32      28.3  T
   6    -56.4454822 -0.156710E-08  0.235E-04    4.32      65.7  T
     SCC iter.                  ...        0 min,  0.056 sec
     gradient                   ...        0 min,  0.022 sec
 * total energy  :   -55.7611246 Eh     change       -0.2289385E-03 Eh
   gradient norm :     0.0048205 Eh/α   predicted    -0.1645195E-03 ( -28.14%)
   displ. norm   :     0.1962871 α      lambda       -0.2292381E-03
   maximum displ.:     0.1043630 α      in ANC's #9, #10, #13, ...

........................................................................
.............................. CYCLE    5 ..............................
........................................................................

 iter      E             dE          RMSdq      gap      omega  full diag
   1    -56.4452768 -0.564453E+02  0.392E-02    4.31       0.0  T
   2    -56.4452837 -0.688851E-05  0.226E-02    4.32       1.0  T
   3    -56.4452838 -0.164480E-06  0.790E-03    4.32       2.0  T
   4    -56.4452841 -0.290606E-06  0.147E-03    4.32      10.5  T
   5    -56.4452841 -0.270019E-07  0.634E-04    4.32      24.3  T
   6    -56.4452841 -0.172487E-08  0.232E-04    4.32      66.6  T
     SCC iter.                  ...        0 min,  0.094 sec
     gradient                   ...        0 min,  0.043 sec
 * total energy  :   -55.7612698 Eh     change       -0.1452051E-03 Eh
   gradient norm :     0.0039724 Eh/α   predicted    -0.1190362E-03 ( -18.02%)
   displ. norm   :     0.1108501 α      lambda       -0.7549382E-04
   maximum displ.:     0.0610195 α      in ANC's #9, #10, #1, ...

........................................................................
.............................. CYCLE    6 ..............................
........................................................................

 iter      E             dE          RMSdq      gap      omega  full diag
   1    -56.4447706 -0.564448E+02  0.278E-02    4.32       0.0  T
   2    -56.4447711 -0.443227E-06  0.162E-02    4.32       1.0  T
   3    -56.4447711 -0.835760E-07  0.166E-03    4.32       9.3  T
   4    -56.4447712 -0.272583E-07  0.811E-04    4.32      19.0  T
   5    -56.4447712 -0.443642E-08  0.331E-04    4.32      46.7  T
     SCC iter.                  ...        0 min,  0.114 sec
     gradient                   ...        0 min,  0.043 sec
 * total energy  :   -55.7613233 Eh     change       -0.5351405E-04 Eh
   gradient norm :     0.0031965 Eh/α   predicted    -0.3821842E-04 ( -28.58%)
   displ. norm   :     0.1149765 α      lambda       -0.6231711E-04
   maximum displ.:     0.0540479 α      in ANC's #9, #1, #5, ...

........................................................................
.............................. CYCLE    7 ..............................
........................................................................

 iter      E             dE          RMSdq      gap      omega  full diag
   1    -56.4443574 -0.564444E+02  0.378E-02    4.31       0.0  T
   2    -56.4443581 -0.687645E-06  0.221E-02    4.31       1.0  T
   3    -56.4443582 -0.119778E-06  0.219E-03    4.31       7.0  T
   4    -56.4443583 -0.568803E-07  0.102E-03    4.31      15.2  T
   5    -56.4443583 -0.281464E-08  0.358E-04    4.31      43.1  T
   6    -56.4443583 -0.769120E-09  0.152E-04    4.31     101.3  T
     SCC iter.                  ...        0 min,  0.083 sec
     gradient                   ...        0 min,  0.039 sec
 * total energy  :   -55.7613686 Eh     change       -0.4522893E-04 Eh
   gradient norm :     0.0026082 Eh/α   predicted    -0.3157085E-04 ( -30.20%)
   displ. norm   :     0.1375933 α      lambda       -0.5957224E-04
   maximum displ.:     0.0616120 α      in ANC's #5, #1, #9, ...

........................................................................
.............................. CYCLE    8 ..............................
........................................................................

 iter      E             dE          RMSdq      gap      omega  full diag
   1    -56.4440323 -0.564440E+02  0.482E-02    4.31       0.0  T
   2    -56.4440333 -0.999326E-06  0.283E-02    4.31       1.0  T
   3    -56.4440335 -0.174834E-06  0.267E-03    4.31       5.8  T
   4    -56.4440336 -0.891337E-07  0.127E-03    4.31      12.1  T
   5    -56.4440336 -0.392767E-08  0.501E-04    4.31      30.8  T
   6    -56.4440336 -0.149550E-08  0.177E-04    4.31      87.0  T
     SCC iter.                  ...        0 min,  0.071 sec
     gradient                   ...        0 min,  0.037 sec
 * total energy  :   -55.7614133 Eh     change       -0.4479065E-04 Eh
   gradient norm :     0.0029885 Eh/α   predicted    -0.3035141E-04 ( -32.24%)
   displ. norm   :     0.1770533 α      lambda       -0.6805963E-04
   maximum displ.:     0.0918012 α      in ANC's #5, #1, #3, ...

........................................................................
.............................. CYCLE    9 ..............................
........................................................................

 iter      E             dE          RMSdq      gap      omega  full diag
   1    -56.4436734 -0.564437E+02  0.639E-02    4.30       0.0  T
   2    -56.4436744 -0.981260E-06  0.376E-02    4.30       1.0  T
   3    -56.4436747 -0.316661E-06  0.296E-03    4.30       5.2  T
   4    -56.4436748 -0.966240E-07  0.165E-03    4.30       9.4  T
   5    -56.4436748 -0.823275E-08  0.551E-04    4.30      28.0  T
   6    -56.4436748 -0.222180E-08  0.207E-04    4.30      74.5  T
     SCC iter.                  ...        0 min,  0.083 sec
     gradient                   ...        0 min,  0.037 sec
 * total energy  :   -55.7614649 Eh     change       -0.5154942E-04 Eh
   gradient norm :     0.0039070 Eh/α   predicted    -0.3509735E-04 ( -31.92%)
   displ. norm   :     0.1809200 α      lambda       -0.7249122E-04
   maximum displ.:     0.1031975 α      in ANC's #5, #1, #3, ...

........................................................................
.............................. CYCLE   10 ..............................
........................................................................

 iter      E             dE          RMSdq      gap      omega  full diag
   1    -56.4437852 -0.564438E+02  0.623E-02    4.30       0.0  T
   2    -56.4437860 -0.858534E-06  0.367E-02    4.30       1.0  T
   3    -56.4437863 -0.236666E-06  0.308E-03    4.30       5.0  T
   4    -56.4437864 -0.158006E-06  0.167E-03    4.30       9.3  T
   5    -56.4437864 -0.975879E-08  0.496E-04    4.30      31.1  T
   6    -56.4437864 -0.523471E-09  0.156E-04    4.30      99.1  T
     SCC iter.                  ...        0 min,  0.068 sec
     gradient                   ...        0 min,  0.025 sec
 * total energy  :   -55.7615201 Eh     change       -0.5517036E-04 Eh
   gradient norm :     0.0032678 Eh/α   predicted    -0.3743866E-04 ( -32.14%)
   displ. norm   :     0.1890871 α      lambda       -0.6890127E-04
   maximum displ.:     0.1136187 α      in ANC's #5, #1, #11, ...

........................................................................
.............................. CYCLE   11 ..............................
........................................................................

 iter      E             dE          RMSdq      gap      omega  full diag
   1    -56.4440077 -0.564440E+02  0.639E-02    4.29       0.0  T
   2    -56.4440091 -0.140375E-05  0.376E-02    4.29       1.0  T
   3    -56.4440093 -0.130897E-06  0.388E-03    4.29       4.0  T
   4    -56.4440096 -0.318747E-06  0.174E-03    4.29       8.9  T
   5    -56.4440096 -0.111383E-07  0.761E-04    4.29      20.3  T
   6    -56.4440096 -0.241921E-08  0.192E-04    4.29      80.2  T
     SCC iter.                  ...        0 min,  0.049 sec
     gradient                   ...        0 min,  0.027 sec
 * total energy  :   -55.7615716 Eh     change       -0.5158238E-04 Eh
   gradient norm :     0.0028756 Eh/α   predicted    -0.3568313E-04 ( -30.82%)
   displ. norm   :     0.1770023 α      lambda       -0.6394579E-04
   maximum displ.:     0.1130537 α      in ANC's #5, #1, #17, ...

........................................................................
.............................. CYCLE   12 ..............................
........................................................................

 iter      E             dE          RMSdq      gap      omega  full diag
   1    -56.4449650 -0.564450E+02  0.524E-02    4.31       0.0  T
   2    -56.4449663 -0.129678E-05  0.309E-02    4.30       1.0  T
   3    -56.4449662  0.127479E-06  0.448E-03    4.30       3.4  T
   4    -56.4449667 -0.513122E-06  0.146E-03    4.30      10.6  T
   5    -56.4449667 -0.505540E-08  0.670E-04    4.30      23.0  T
   6    -56.4449667 -0.194372E-08  0.167E-04    4.30      92.4  T
     SCC iter.                  ...        0 min,  0.081 sec
     gradient                   ...        0 min,  0.024 sec
 * total energy  :   -55.7616144 Eh     change       -0.4279262E-04 Eh
   gradient norm :     0.0020240 Eh/α   predicted    -0.3297791E-04 ( -22.94%)
   displ. norm   :     0.2976172 α      lambda       -0.6544343E-04
   maximum displ.:     0.1820957 α      in ANC's #5, #1, #17, ...

........................................................................
.............................. CYCLE   13 ..............................
........................................................................

 iter      E             dE          RMSdq      gap      omega  full diag
   1    -56.4428981 -0.564429E+02  0.970E-02    4.24       0.0  T
   2    -56.4429035 -0.546950E-05  0.571E-02    4.25       1.0  T
   3    -56.4429043 -0.715795E-06  0.561E-03    4.25       2.8  T
   4    -56.4429046 -0.367070E-06  0.255E-03    4.25       6.1  T
   5    -56.4429047 -0.246556E-07  0.133E-03    4.25      11.6  T
   6    -56.4429047 -0.665457E-08  0.339E-04    4.25      45.5  T
   7    -56.4429047 -0.100935E-08  0.143E-04    4.25     107.6  T
     SCC iter.                  ...        0 min,  0.068 sec
     gradient                   ...        0 min,  0.020 sec
 * total energy  :   -55.7616240 Eh     change       -0.9587333E-05 Eh
   gradient norm :     0.0091867 Eh/α   predicted    -0.3562073E-04 ( 271.54%)
   displ. norm   :     0.0619195 α      lambda       -0.8446827E-04
   maximum displ.:     0.0284579 α      in ANC's #3, #12, #9, ...

........................................................................
.............................. CYCLE   14 ..............................
........................................................................

 iter      E             dE          RMSdq      gap      omega  full diag
   1    -56.4450394 -0.564450E+02  0.251E-02    4.30       0.0  T
   2    -56.4450411 -0.176166E-05  0.151E-02    4.29       1.0  T
   3    -56.4450410  0.154686E-06  0.518E-03    4.29       3.0  T
   4    -56.4450414 -0.424385E-06  0.808E-04    4.29      19.1  T
   5    -56.4450414 -0.318163E-08  0.488E-04    4.29      31.6  T
     SCC iter.                  ...        0 min,  0.042 sec
     gradient                   ...        0 min,  0.019 sec
 * total energy  :   -55.7616709 Eh     change       -0.4690002E-04 Eh
   gradient norm :     0.0025281 Eh/α   predicted    -0.4239941E-04 (  -9.60%)
   displ. norm   :     0.1324053 α      lambda       -0.3297464E-04
   maximum displ.:     0.0832594 α      in ANC's #5, #1, #17, ...

........................................................................
.............................. CYCLE   15 ..............................
........................................................................

 iter      E             dE          RMSdq      gap      omega  full diag
   1    -56.4449913 -0.564450E+02  0.341E-02    4.29       0.0  T
   2    -56.4449917 -0.401067E-06  0.201E-02    4.29       1.0  T
   3    -56.4449918 -0.975741E-07  0.165E-03    4.29       9.4  T
   4    -56.4449919 -0.305655E-07  0.874E-04    4.29      17.6  T
   5    -56.4449919 -0.201002E-08  0.370E-04    4.29      41.7  T
     SCC iter.                  ...        0 min,  0.049 sec
     gradient                   ...        0 min,  0.025 sec
 * total energy  :   -55.7616979 Eh     change       -0.2692956E-04 Eh
   gradient norm :     0.0016491 Eh/α   predicted    -0.1680412E-04 ( -37.60%)
   displ. norm   :     0.4027726 α      lambda       -0.5157394E-04
   maximum displ.:     0.2502833 α      in ANC's #5, #1, #17, ...

........................................................................
.............................. CYCLE   16 ..............................
........................................................................

 iter      E             dE          RMSdq      gap      omega  full diag
   1    -56.4428758 -0.564429E+02  0.109E-01    4.24       0.0  T
   2    -56.4428787 -0.292830E-05  0.641E-02    4.25       1.0  T
   3    -56.4428798 -0.109222E-05  0.471E-03    4.25       3.3  T
   4    -56.4428799 -0.160656E-06  0.265E-03    4.25       5.8  T
   5    -56.4428800 -0.223948E-07  0.917E-04    4.25      16.8  T
   6    -56.4428800 -0.445273E-08  0.318E-04    4.25      48.5  T
     SCC iter.                  ...        0 min,  0.059 sec
     gradient                   ...        0 min,  0.018 sec
 * total energy  :   -55.7617292 Eh     change       -0.3138498E-04 Eh
   gradient norm :     0.0054472 Eh/α   predicted    -0.2764627E-04 ( -11.91%)
   displ. norm   :     0.0463961 α      lambda       -0.2978829E-04
   maximum displ.:     0.0248063 α      in ANC's #5, #11, #3, ...

........................................................................
.............................. CYCLE   17 ..............................
........................................................................

 iter      E             dE          RMSdq      gap      omega  full diag
   1    -56.4444707 -0.564445E+02  0.162E-02    4.27       0.0  T
   2    -56.4444716 -0.879047E-06  0.955E-03    4.27       1.6  T
   3    -56.4444716 -0.207905E-08  0.272E-03    4.27       5.7  T
   4    -56.4444717 -0.486044E-07  0.530E-04    4.27      29.1  T
   5    -56.4444717 -0.427541E-08  0.307E-04    4.27      50.2  T
     SCC iter.                  ...        0 min,  0.056 sec
     gradient                   ...        0 min,  0.018 sec
 * total energy  :   -55.7617455 Eh     change       -0.1626263E-04 Eh
   gradient norm :     0.0015349 Eh/α   predicted    -0.1492880E-04 (  -8.20%)
   displ. norm   :     0.0832808 α      lambda       -0.1054276E-04
   maximum displ.:     0.0560865 α      in ANC's #1, #5, #17, ...

........................................................................
.............................. CYCLE   18 ..............................
........................................................................

 iter      E             dE          RMSdq      gap      omega  full diag
   1    -56.4448488 -0.564448E+02  0.194E-02    4.27       0.0  T
   2    -56.4448492 -0.356165E-06  0.114E-02    4.27       1.4  T
   3    -56.4448492 -0.730004E-08  0.167E-03    4.27       9.2  T
   4    -56.4448492 -0.393717E-07  0.519E-04    4.27      29.8  T
   5    -56.4448492 -0.122316E-08  0.278E-04    4.27      55.6  T
     SCC iter.                  ...        0 min,  0.060 sec
     gradient                   ...        0 min,  0.032 sec
 * total energy  :   -55.7617575 Eh     change       -0.1203065E-04 Eh
   gradient norm :     0.0008973 Eh/α   predicted    -0.5292548E-05 ( -56.01%)
   displ. norm   :     0.1510197 α      lambda       -0.1197960E-04
   maximum displ.:     0.1009470 α      in ANC's #1, #5, #17, ...

........................................................................
.............................. CYCLE   19 ..............................
........................................................................

 iter      E             dE          RMSdq      gap      omega  full diag
   1    -56.4448056 -0.564448E+02  0.370E-02    4.26       0.0  T
   2    -56.4448062 -0.570508E-06  0.218E-02    4.26       1.0  T
   3    -56.4448062 -0.924774E-07  0.213E-03    4.26       7.2  T
   4    -56.4448063 -0.650416E-07  0.991E-04    4.26      15.6  T
   5    -56.4448063 -0.267035E-08  0.403E-04    4.26      38.3  T
     SCC iter.                  ...        0 min,  0.070 sec
     gradient                   ...        0 min,  0.041 sec
 * total energy  :   -55.7617694 Eh     change       -0.1187491E-04 Eh
   gradient norm :     0.0013394 Eh/α   predicted    -0.6049888E-05 ( -49.05%)
   displ. norm   :     0.1160575 α      lambda       -0.6960091E-05
   maximum displ.:     0.0788305 α      in ANC's #1, #5, #2, ...

........................................................................
.............................. CYCLE   20 ..............................
........................................................................

 iter      E             dE          RMSdq      gap      omega  full diag
   1    -56.4446444 -0.564446E+02  0.245E-02    4.26       0.0  T
   2    -56.4446446 -0.212808E-06  0.145E-02    4.26       1.1  T
   3    -56.4446447 -0.542486E-07  0.115E-03    4.26      13.4  T
   4    -56.4446447 -0.104540E-07  0.619E-04    4.26      24.9  T
   5    -56.4446447 -0.125909E-08  0.273E-04    4.26      56.6  T
     SCC iter.                  ...        0 min,  0.067 sec
     gradient                   ...        0 min,  0.032 sec
 * total energy  :   -55.7617769 Eh     change       -0.7522258E-05 Eh
   gradient norm :     0.0011626 Eh/α   predicted    -0.3505384E-05 ( -53.40%)
   displ. norm   :     0.1290420 α      lambda       -0.8501600E-05
   maximum displ.:     0.0887097 α      in ANC's #1, #5, #2, ...
 * RMSD in coord.:     0.3656127 α      energy gain  -0.6278590E-02 Eh

generating ANC from exact Hessian ...
Using Lindh-Hessian (1995)
 Shifting diagonal of input Hessian by    9.8450846171628543E-003
 Lowest  eigenvalues of input Hessian
    0.000000    0.000000    0.000000    0.000000    0.000000    0.000000
    0.010000    0.010071    0.011000    0.011006    0.011171    0.011939
    0.012268    0.012538    0.013060    0.013555    0.015284    0.016476
 Highest eigenvalues
    1.334528    1.580480    1.799431    1.852588    2.285375    2.347407


........................................................................
.............................. CYCLE   21 ..............................
........................................................................

 iter      E             dE          RMSdq      gap      omega  full diag
   1    -56.4450891 -0.564451E+02  0.243E-02    4.26       0.0  T
   2    -56.4450894 -0.276054E-06  0.143E-02    4.26       1.1  T
   3    -56.4450894 -0.487342E-08  0.179E-03    4.27       8.6  T
   4    -56.4450895 -0.672968E-07  0.684E-04    4.26      22.6  T
   5    -56.4450895 -0.259672E-08  0.307E-04    4.26      50.2  T
     SCC iter.                  ...        0 min,  0.055 sec
     gradient                   ...        0 min,  0.018 sec
 * total energy  :   -55.7617857 Eh     change       -0.8757107E-05 Eh
   gradient norm :     0.0008380 Eh/α   predicted     0.0000000E+00 (-100.00%)
   displ. norm   :     0.0216479 α      lambda       -0.6797406E-06
   maximum displ.:     0.0088691 α      in ANC's #11, #7, #4, ...

........................................................................
.............................. CYCLE   22 ..............................
........................................................................

 iter      E             dE          RMSdq      gap      omega  full diag
   1    -56.4448081 -0.564448E+02  0.416E-03    4.26       0.0  T
   2    -56.4448081 -0.271784E-07  0.244E-03    4.26       6.3  T
   3    -56.4448081 -0.751029E-09  0.494E-04    4.26      31.2  T
   4    -56.4448081 -0.184846E-08  0.118E-04    4.26     130.9  T
     SCC iter.                  ...        0 min,  0.038 sec
     gradient                   ...        0 min,  0.026 sec
 * total energy  :   -55.7617901 Eh     change       -0.4372307E-05 Eh
   gradient norm :     0.0004203 Eh/α   predicted    -0.2062063E-05 ( -52.84%)
   displ. norm   :     0.0554898 α      lambda       -0.6156701E-05
   maximum displ.:     0.0231469 α      in ANC's #4, #2, #7, ...

........................................................................
.............................. CYCLE   23 ..............................
........................................................................

 iter      E             dE          RMSdq      gap      omega  full diag
   1    -56.4445315 -0.564445E+02  0.101E-02    4.26       0.0  T
   2    -56.4445315 -0.705437E-07  0.593E-03    4.26       2.6  T
   3    -56.4445316 -0.201999E-08  0.742E-04    4.26      20.8  T
   4    -56.4445316 -0.835531E-08  0.241E-04    4.26      64.0  T
     SCC iter.                  ...        0 min,  0.038 sec
     gradient                   ...        0 min,  0.025 sec
 * total energy  :   -55.7617959 Eh     change       -0.5883355E-05 Eh
   gradient norm :     0.0008640 Eh/α   predicted    -0.3084011E-05 ( -47.58%)
   displ. norm   :     0.0578996 α      lambda       -0.4267254E-05
   maximum displ.:     0.0275412 α      in ANC's #2, #4, #7, ...

........................................................................
.............................. CYCLE   24 ..............................
........................................................................

 iter      E             dE          RMSdq      gap      omega  full diag
   1    -56.4446676 -0.564447E+02  0.990E-03    4.26       0.0  T
   2    -56.4446676 -0.294285E-07  0.584E-03    4.26       2.6  T
   3    -56.4446676  0.616566E-09  0.625E-04    4.26      24.7  T
   4    -56.4446676 -0.977511E-08  0.232E-04    4.26      66.4  T
     SCC iter.                  ...        0 min,  0.040 sec
     gradient                   ...        0 min,  0.033 sec
 * total energy  :   -55.7618007 Eh     change       -0.4772165E-05 Eh
   gradient norm :     0.0006817 Eh/α   predicted    -0.2138746E-05 ( -55.18%)
   displ. norm   :     0.0773422 α      lambda       -0.4898140E-05
   maximum displ.:     0.0394969 α      in ANC's #2, #4, #7, ...

........................................................................
.............................. CYCLE   25 ..............................
........................................................................

 iter      E             dE          RMSdq      gap      omega  full diag
   1    -56.4448248 -0.564448E+02  0.131E-02    4.26       0.0  T
   2    -56.4448248 -0.349965E-07  0.775E-03    4.26       2.0  T
   3    -56.4448248 -0.631523E-08  0.572E-04    4.26      27.0  T
   4    -56.4448249 -0.610926E-08  0.277E-04    4.26      55.6  T
     SCC iter.                  ...        0 min,  0.049 sec
     gradient                   ...        0 min,  0.031 sec
 * total energy  :   -55.7618065 Eh     change       -0.5765860E-05 Eh
   gradient norm :     0.0004729 Eh/α   predicted    -0.2456391E-05 ( -57.40%)
   displ. norm   :     0.0936560 α      lambda       -0.5192793E-05
   maximum displ.:     0.0505617 α      in ANC's #2, #4, #7, ...

........................................................................
.............................. CYCLE   26 ..............................
........................................................................

 iter      E             dE          RMSdq      gap      omega  full diag
   1    -56.4449604 -0.564450E+02  0.149E-02    4.26       0.0  T
   2    -56.4449604 -0.575810E-07  0.881E-03    4.26       1.8  T
   3    -56.4449604 -0.851974E-08  0.660E-04    4.26      23.4  T
   4    -56.4449605 -0.717719E-08  0.305E-04    4.26      50.6  T
     SCC iter.                  ...        0 min,  0.049 sec
     gradient                   ...        0 min,  0.025 sec
 * total energy  :   -55.7618125 Eh     change       -0.5986753E-05 Eh
   gradient norm :     0.0004021 Eh/α   predicted    -0.2608483E-05 ( -56.43%)
   displ. norm   :     0.0915274 α      lambda       -0.4247750E-05
   maximum displ.:     0.0512045 α      in ANC's #2, #1, #4, ...

........................................................................
.............................. CYCLE   27 ..............................
........................................................................

 iter      E             dE          RMSdq      gap      omega  full diag
   1    -56.4449647 -0.564450E+02  0.135E-02    4.26       0.0  T
   2    -56.4449647 -0.585739E-07  0.799E-03    4.26       1.9  T
   3    -56.4449647 -0.321843E-08  0.715E-04    4.26      21.6  T
   4    -56.4449648 -0.104567E-07  0.278E-04    4.27      55.5  T
     SCC iter.                  ...        0 min,  0.047 sec
     gradient                   ...        0 min,  0.031 sec
 * total energy  :   -55.7618174 Eh     change       -0.4919898E-05 Eh
   gradient norm :     0.0004467 Eh/α   predicted    -0.2132070E-05 ( -56.66%)
   displ. norm   :     0.0880071 α      lambda       -0.3766041E-05
   maximum displ.:     0.0504979 α      in ANC's #2, #1, #4, ...

........................................................................
.............................. CYCLE   28 ..............................
........................................................................

 iter      E             dE          RMSdq      gap      omega  full diag
   1    -56.4448992 -0.564449E+02  0.117E-02    4.26       0.0  T
   2    -56.4448992 -0.424114E-07  0.691E-03    4.27       2.2  T
   3    -56.4448992 -0.165293E-08  0.643E-04    4.27      24.0  T
   4    -56.4448992 -0.886369E-08  0.248E-04    4.27      62.3  T
     SCC iter.                  ...        0 min,  0.275 sec
     gradient                   ...        0 min,  0.077 sec
 * total energy  :   -55.7618218 Eh     change       -0.4420833E-05 Eh
   gradient norm :     0.0003789 Eh/α   predicted    -0.1890141E-05 ( -57.24%)
   displ. norm   :     0.0974557 α      lambda       -0.4024607E-05
   maximum displ.:     0.0565627 α      in ANC's #2, #1, #5, ...

........................................................................
.............................. CYCLE   29 ..............................
........................................................................

 iter      E             dE          RMSdq      gap      omega  full diag
   1    -56.4448047 -0.564448E+02  0.124E-02    4.26       0.0  T
   2    -56.4448047 -0.370044E-07  0.735E-03    4.27       2.1  T
   3    -56.4448047 -0.253251E-08  0.571E-04    4.27      27.0  T
   4    -56.4448047 -0.681001E-08  0.228E-04    4.27      67.6  T
     SCC iter.                  ...        0 min,  0.069 sec
     gradient                   ...        0 min,  0.033 sec
 * total energy  :   -55.7618267 Eh     change       -0.4863631E-05 Eh
   gradient norm :     0.0003897 Eh/α   predicted    -0.2021380E-05 ( -58.44%)
   displ. norm   :     0.1209449 α      lambda       -0.4706535E-05
   maximum displ.:     0.0702750 α      in ANC's #2, #1, #5, ...

........................................................................
.............................. CYCLE   30 ..............................
........................................................................

 iter      E             dE          RMSdq      gap      omega  full diag
   1    -56.4446802 -0.564447E+02  0.148E-02    4.26       0.0  T
   2    -56.4446802 -0.409574E-07  0.878E-03    4.27       1.8  T
   3    -56.4446803 -0.737479E-08  0.513E-04    4.27      30.1  T
   4    -56.4446803 -0.335166E-08  0.244E-04    4.27      63.2  T
     SCC iter.                  ...        0 min,  0.056 sec
     gradient                   ...        0 min,  0.041 sec
 * total energy  :   -55.7618322 Eh     change       -0.5558778E-05 Eh
   gradient norm :     0.0004111 Eh/α   predicted    -0.2370898E-05 ( -57.35%)
   displ. norm   :     0.1209536 α      lambda       -0.4191027E-05
   maximum displ.:     0.0705601 α      in ANC's #2, #1, #5, ...

........................................................................
.............................. CYCLE   31 ..............................
........................................................................

 iter      E             dE          RMSdq      gap      omega  full diag
   1    -56.4446656 -0.564447E+02  0.156E-02    4.27       0.0  T
   2    -56.4446656 -0.324530E-07  0.925E-03    4.27       1.7  T
   3    -56.4446656 -0.792362E-08  0.433E-04    4.27      35.7  T
   4    -56.4446656 -0.165615E-08  0.222E-04    4.27      69.4  T
     SCC iter.                  ...        0 min,  0.096 sec
     gradient                   ...        0 min,  0.050 sec
 * total energy  :   -55.7618368 Eh     change       -0.4613203E-05 Eh
   gradient norm :     0.0004085 Eh/α   predicted    -0.2110275E-05 ( -54.26%)
   displ. norm   :     0.0766174 α      lambda       -0.2312415E-05
   maximum displ.:     0.0453663 α      in ANC's #2, #5, #1, ...

........................................................................
.............................. CYCLE   32 ..............................
........................................................................

 iter      E             dE          RMSdq      gap      omega  full diag
   1    -56.4447667 -0.564448E+02  0.101E-02    4.27       0.0  T
   2    -56.4447668 -0.110368E-07  0.601E-03    4.27       2.6  T
   3    -56.4447668 -0.320774E-08  0.264E-04    4.27      58.5  T
   4    -56.4447668 -0.606803E-09  0.143E-04    4.27     107.7  T
     SCC iter.                  ...        0 min,  0.072 sec
     gradient                   ...        0 min,  0.052 sec
 * total energy  :   -55.7618394 Eh     change       -0.2534804E-05 Eh
   gradient norm :     0.0002493 Eh/α   predicted    -0.1162915E-05 ( -54.12%)
   displ. norm   :     0.0521037 α      lambda       -0.1401798E-05
   maximum displ.:     0.0310313 α      in ANC's #2, #5, #1, ...

........................................................................
.............................. CYCLE   33 ..............................
........................................................................

 iter      E             dE          RMSdq      gap      omega  full diag
   1    -56.4448552 -0.564449E+02  0.781E-03    4.27       0.0  T
   2    -56.4448552 -0.662580E-08  0.462E-03    4.27       3.3  T
   3    -56.4448552 -0.162021E-08  0.209E-04    4.27      73.7  T
   4    -56.4448553 -0.575575E-09  0.110E-04    4.27     140.7  T
     SCC iter.                  ...        0 min,  0.055 sec
     gradient                   ...        0 min,  0.040 sec
 * total energy  :   -55.7618410 Eh     change       -0.1577037E-05 Eh
   gradient norm :     0.0001872 Eh/α   predicted    -0.7040189E-06 ( -55.36%)
   displ. norm   :     0.0424919 α      lambda       -0.1145060E-05
   maximum displ.:     0.0247665 α      in ANC's #2, #5, #1, ...

........................................................................
.............................. CYCLE   34 ..............................
........................................................................

 iter      E             dE          RMSdq      gap      omega  full diag
   1    -56.4449308 -0.564449E+02  0.686E-03    4.27       0.0  T
   2    -56.4449308 -0.649944E-08  0.406E-03    4.27       3.8  T
   3    -56.4449308 -0.139589E-08  0.193E-04    4.27      80.1  T
   4    -56.4449308 -0.401187E-09  0.995E-05    4.27     155.1  T
     SCC iter.                  ...        0 min,  0.043 sec
     gradient                   ...        0 min,  0.022 sec
 * total energy  :   -55.7618424 Eh     change       -0.1403732E-05 Eh
   gradient norm :     0.0001975 Eh/α   predicted    -0.5769550E-06 ( -58.90%)
   displ. norm   :     0.0628909 α      lambda       -0.1663876E-05
   maximum displ.:     0.0352316 α      in ANC's #2, #5, #1, ...

........................................................................
.............................. CYCLE   35 ..............................
........................................................................

 iter      E             dE          RMSdq      gap      omega  full diag
   1    -56.4449615 -0.564450E+02  0.103E-02    4.27       0.0  T
   2    -56.4449616 -0.165617E-07  0.611E-03    4.27       2.5  T
   3    -56.4449616 -0.243972E-08  0.337E-04    4.27      45.7  T
   4    -56.4449616 -0.181653E-08  0.157E-04    4.27      98.1  T
     SCC iter.                  ...        0 min,  0.065 sec
     gradient                   ...        0 min,  0.040 sec
 * total energy  :   -55.7618444 Eh     change       -0.2060906E-05 Eh
   gradient norm :     0.0002763 Eh/α   predicted    -0.8347446E-06 ( -59.50%)
   displ. norm   :     0.1019621 α      lambda       -0.2528266E-05
   maximum displ.:     0.0567686 α      in ANC's #5, #2, #1, ...

........................................................................
.............................. CYCLE   36 ..............................
........................................................................

 iter      E             dE          RMSdq      gap      omega  full diag
   1    -56.4449013 -0.564449E+02  0.171E-02    4.27       0.0  T
   2    -56.4449014 -0.415103E-07  0.101E-02    4.27       1.5  T
   3    -56.4449014 -0.628393E-08  0.560E-04    4.27      27.5  T
   4    -56.4449014 -0.524619E-08  0.259E-04    4.27      59.6  T
     SCC iter.                  ...        0 min,  0.098 sec
     gradient                   ...        0 min,  0.057 sec
 * total energy  :   -55.7618474 Eh     change       -0.2980936E-05 Eh
   gradient norm :     0.0003525 Eh/α   predicted    -0.1273082E-05 ( -57.29%)
   displ. norm   :     0.1300460 α      lambda       -0.2830553E-05
   maximum displ.:     0.0726052 α      in ANC's #5, #2, #1, ...

........................................................................
.............................. CYCLE   37 ..............................
........................................................................

 iter      E             dE          RMSdq      gap      omega  full diag
   1    -56.4448202 -0.564448E+02  0.211E-02    4.27       0.0  T
   2    -56.4448202 -0.605134E-07  0.125E-02    4.27       1.2  T
   3    -56.4448202 -0.108599E-07  0.686E-04    4.27      22.5  T
   4    -56.4448202 -0.722021E-08  0.325E-04    4.27      47.5  T
     SCC iter.                  ...        0 min,  0.070 sec
     gradient                   ...        0 min,  0.045 sec
 * total energy  :   -55.7618506 Eh     change       -0.3216420E-05 Eh
   gradient norm :     0.0003785 Eh/α   predicted    -0.1430159E-05 ( -55.54%)
   displ. norm   :     0.0985179 α      lambda       -0.2237392E-05
   maximum displ.:     0.0553766 α      in ANC's #5, #2, #1, ...

........................................................................
.............................. CYCLE   38 ..............................
........................................................................

 iter      E             dE          RMSdq      gap      omega  full diag
   1    -56.4448008 -0.564448E+02  0.163E-02    4.27       0.0  T
   2    -56.4448008 -0.349756E-07  0.968E-03    4.27       1.6  T
   3    -56.4448008 -0.723400E-08  0.513E-04    4.28      30.1  T
   4    -56.4448008 -0.349808E-08  0.248E-04    4.28      62.2  T
     SCC iter.                  ...        0 min,  0.088 sec
     gradient                   ...        0 min,  0.033 sec
 * total energy  :   -55.7618533 Eh     change       -0.2651192E-05 Eh
   gradient norm :     0.0002890 Eh/α   predicted    -0.1125408E-05 ( -57.55%)
   displ. norm   :     0.0978859 α      lambda       -0.2250157E-05
   maximum displ.:     0.0559568 α      in ANC's #5, #2, #1, ...

........................................................................
.............................. CYCLE   39 ..............................
........................................................................

 iter      E             dE          RMSdq      gap      omega  full diag
   1    -56.4447355 -0.564447E+02  0.160E-02    4.28       0.0  T
   2    -56.4447356 -0.390909E-07  0.952E-03    4.28       1.6  T
   3    -56.4447356 -0.759992E-08  0.521E-04    4.28      29.6  T
   4    -56.4447356 -0.344477E-08  0.258E-04    4.28      59.9  T
     SCC iter.                  ...        0 min,  0.054 sec
     gradient                   ...        0 min,  0.045 sec
 * total energy  :   -55.7618558 Eh     change       -0.2532941E-05 Eh
   gradient norm :     0.0002547 Eh/α   predicted    -0.1132505E-05 ( -55.29%)
   displ. norm   :     0.0652251 α      lambda       -0.1642319E-05
   maximum displ.:     0.0366180 α      in ANC's #5, #2, #6, ...

........................................................................
.............................. CYCLE   40 ..............................
........................................................................

 iter      E             dE          RMSdq      gap      omega  full diag
   1    -56.4447823 -0.564448E+02  0.115E-02    4.28       0.0  T
   2    -56.4447823 -0.308311E-07  0.684E-03    4.28       2.3  T
   3    -56.4447823 -0.160773E-08  0.495E-04    4.28      31.2  T
   4    -56.4447823 -0.516243E-08  0.211E-04    4.28      73.0  T
     SCC iter.                  ...        0 min,  0.045 sec
     gradient                   ...        0 min,  0.028 sec
 * total energy  :   -55.7618576 Eh     change       -0.1759173E-05 Eh
   gradient norm :     0.0002440 Eh/α   predicted    -0.8270908E-06 ( -52.98%)
   displ. norm   :     0.0592310 α      lambda       -0.1112755E-05
   maximum displ.:     0.0346662 α      in ANC's #5, #2, #6, ...

........................................................................
.............................. CYCLE   41 ..............................
........................................................................

 iter      E             dE          RMSdq      gap      omega  full diag
   1    -56.4446988 -0.564447E+02  0.106E-02    4.28       0.0  T
   2    -56.4446988 -0.190953E-07  0.630E-03    4.28       2.5  T
   3    -56.4446988 -0.896428E-09  0.428E-04    4.28      36.0  T
   4    -56.4446988 -0.430212E-08  0.180E-04    4.28      85.6  T
     SCC iter.                  ...        0 min,  0.055 sec
     gradient                   ...        0 min,  0.030 sec
 * total energy  :   -55.7618587 Eh     change       -0.1146427E-05 Eh
   gradient norm :     0.0002914 Eh/α   predicted    -0.5592437E-06 ( -51.22%)
   displ. norm   :     0.0375075 α      lambda       -0.9549918E-06
   maximum displ.:     0.0188022 α      in ANC's #3, #5, #6, ...

........................................................................
.............................. CYCLE   42 ..............................
........................................................................

 iter      E             dE          RMSdq      gap      omega  full diag
   1    -56.4449403 -0.564449E+02  0.656E-03    4.28       0.0  T
   2    -56.4449403 -0.125396E-07  0.390E-03    4.28       4.0  T
   3    -56.4449403  0.169213E-08  0.395E-04    4.28      39.0  T
   4    -56.4449403 -0.451495E-08  0.123E-04    4.28     125.6  T
     SCC iter.                  ...        0 min,  0.064 sec
     gradient                   ...        0 min,  0.046 sec
 * total energy  :   -55.7618595 Eh     change       -0.7593714E-06 Eh
   gradient norm :     0.0002256 Eh/α   predicted    -0.4816723E-06 ( -36.57%)
   displ. norm   :     0.0358004 α      lambda       -0.6490287E-06
   maximum displ.:     0.0212349 α      in ANC's #5, #2, #6, ...

   *** GEOMETRY OPTIMIZATION CONVERGED AFTER 42 ITERATIONS ***

------------------------------------------------------------------------
 total energy gain   :        -0.0063611 Eh       -3.9917 kcal/mol
 total RMSD          :         0.4966541 a0        0.2628 Å
 total power (kW/mol):        -0.3976461 (step)   -2.9298 (real)
------------------------------------------------------------------------

 ANCopt (total)                0 d,  0 h,  0 min,  5.700 sec
 optimizer setup                ...        0 min,  0.001 sec (  0.013%)
 model hessian                  ...        0 min,  0.049 sec (  0.859%)
 ANC generation                 ...        0 min,  0.005 sec (  0.088%)
 coordinate transformation      ...        0 min,  0.001 sec (  0.019%)
 single point calculation       ...        0 min,  5.492 sec ( 96.338%)
 optimization log               ...        0 min,  0.010 sec (  0.168%)
 hessian update                 ...        0 min,  0.124 sec (  2.175%)
 rational function              ...        0 min,  0.007 sec (  0.117%)

================
 final structure:
================
42
 xtb: 6.7.1 (edcfbbe)
C           -2.70066905109990        3.80801301077775       -0.56535090989814
C           -1.95628113842433        2.55877070084252       -0.11416151967569
C           -2.44261556207975        1.32014045259921       -0.86985740951231
N           -1.75389409828009        0.11620577690414       -0.43910561430935
C           -2.32495112423719       -0.59028508978856        0.68493084076957
C           -3.38989133639027       -1.60855683481729        0.25828486239527
C           -3.96643424807491       -2.33940239330081        1.46350924315372
C           -0.64946356590490       -0.26607669579915       -1.12656952640205
O           -0.24961585326536        0.37800057029989       -2.08212954661113
C            0.05398271941172       -1.52066041051374       -0.63945838555824
C            1.26625198342685       -1.87559406879597       -1.50145115666793
C            2.38462226388556       -0.83881181794413       -1.40453092128677
C            3.01504993308154       -0.73956412726246       -0.04038848577334
O            2.55620414142783       -1.14716961854240        0.99772754611256
O            4.19201304688674       -0.10757512852594       -0.11435600294330
C            4.89066067545422        0.09272342624901        1.11533568651697
C            6.12482541804532        0.92883919780063        0.83588975285432
H           -2.34163223118309        4.68121854037953       -0.02631053434866
H           -2.54999229089785        3.97421736382926       -1.62922252576173
H           -3.76842011708728        3.70572456792564       -0.38158542174269
H           -2.09785596047353        2.41330001083840        0.95968030576996
H           -0.88758698076766        2.67737450453238       -0.29888176266101
H           -2.24281544342539        1.44968109381142       -1.93615919552698
H           -3.51713736447712        1.18466781598359       -0.72360696688950
H           -1.53943055900070       -1.09591553371966        1.24849745712936
H           -2.78363679607460        0.14794854711053        1.34921636737390
H           -4.18980516345030       -1.09156931494357       -0.27544521591824
H           -2.94796955522804       -2.32843307341834       -0.43269331053543
H           -3.18367152924091       -2.87686386015659        1.99394421670414
H           -4.72212803329664       -3.05483179765536        1.14945344629687
H           -4.42602813500055       -1.63541814555980        2.15376580233722
H            0.39222127459620       -1.36836923035051        0.38652954778750
H           -0.64984287194200       -2.35430088496240       -0.64945784250077
H            1.64483523166097       -2.85048386297753       -1.18759325904917
H            0.95488842578708       -1.94159306192538       -2.54519774722571
H            3.17451563842013       -1.05319839872550       -2.12565546307124
H            1.97303847116103        0.14205971470996       -1.65622524439864
H            4.22139858631125        0.59128350680175        1.82558177585387
H            5.15789075779147       -0.88520899095382        1.53199562779492
H            6.67705038183821        1.08546233785631        1.75800921953114
H            6.76445733789035        0.42200414819715        0.11873741236223
H            5.83786272221901        1.89224705319368        0.42369309848008

 Bond Distances (Angstroems)
 ---------------------------
C1-C2=1.5226         C1-H18=1.0872        C1-H19=1.0873        C1-H20=1.0883        C2-C1=1.5226         C2-C3=1.5303         
C2-H21=1.0929        C2-H22=1.0910        C3-C2=1.5303         C3-N4=1.4524         C3-H23=1.0926        C3-H24=1.0929        
N4-C3=1.4524         N4-C5=1.4452         N4-C8=1.3559         C5-N4=1.4452         C5-C6=1.5339         C5-H25=1.0910        
C5-H26=1.0939        C6-C5=1.5339         C6-C7=1.5229         C6-H27=1.0918        C6-H28=1.0913        C7-C6=1.5229         
C7-H29=1.0876        C7-H30=1.0870        C7-H31=1.0878        C8-N4=1.3559         C8-O9=1.2198         C8-C10=1.5186        
O9-C8=1.2198         C10-C8=1.5186        C10-C11=1.5293       C10-H32=1.0910       C10-H33=1.0911       C11-C10=1.5293       
C11-C12=1.5281       C11-H34=1.0919       C11-H35=1.0912       C12-C11=1.5281       C12-C13=1.5060       C12-H36=1.0908       
C12-H37=1.0931       C13-C12=1.5060       C13-O14=1.2060       C13-O15=1.3380       O14-C13=1.2060       O15-C13=1.3380       
O15-C16=1.4284       C16-O15=1.4284       C16-C17=1.5167       C16-H38=1.0959       C16-H39=1.0961       C17-C16=1.5167       
C17-H40=1.0862       C17-H41=1.0864       C17-H42=1.0865       H18-C1=1.0872        H19-C1=1.0873        H20-C1=1.0883        
H21-C2=1.0929        H22-C2=1.0910        H23-C3=1.0926        H24-C3=1.0929        H25-C5=1.0910        H26-C5=1.0939        
H27-C6=1.0918        H28-C6=1.0913        H29-C7=1.0876        H30-C7=1.0870        H31-C7=1.0878        H32-C10=1.0910       
H33-C10=1.0911       H34-C11=1.0919       H35-C11=1.0912       H36-C12=1.0908       H37-C12=1.0931       H38-C16=1.0959       
H39-C16=1.0961       H40-C17=1.0862       H41-C17=1.0864       H42-C17=1.0865       
 C  H  Rav=1.0905 sigma=0.0029  Rmin=1.0862  Rmax=1.0961    25
 C  C  Rav=1.5232 sigma=0.0081  Rmin=1.5060  Rmax=1.5339     9
 N  C  Rav=1.4178 sigma=0.0439  Rmin=1.3559  Rmax=1.4524     3
 O  C  Rav=1.2980 sigma=0.0911  Rmin=1.2060  Rmax=1.4284     4

 selected bond angles (degree)
 --------------------
H18-C1-C2=110.52               H19-C1-C2=110.34               H19-C1-H18=108.46              H20-C1-C2=110.64               
H20-C1-H18=108.41              H20-C1-H19=108.39              C3-C2-C1=111.25                H21-C2-C1=109.70               
H21-C2-C3=109.65               H22-C2-C1=109.85               H22-C2-C3=108.40               H22-C2-H21=107.92              
N4-C3-C2=111.95                H23-C3-C2=109.14               H23-C3-N4=107.52               H24-C3-C2=110.29               
H24-C3-N4=108.89               H24-C3-H23=108.97              C5-N4-C3=116.65                C8-N4-C3=118.01                
C8-N4-C5=125.33                C6-C5-N4=112.49                H25-C5-N4=110.11               H25-C5-C6=109.63               
H26-C5-N4=107.94               H26-C5-C6=109.01               H26-C5-H25=107.52              C7-C6-C5=111.18                
H27-C6-C5=109.29               H27-C6-C7=109.68               H28-C6-C5=109.44               H28-C6-C7=109.74               
H28-C6-H27=107.43              H29-C7-C6=110.53               H30-C7-C6=110.51               H30-C7-H29=108.42              
H31-C7-C6=110.58               H31-C7-H29=108.33              H31-C7-H30=108.39              O9-C8-N4=121.02                
C10-C8-N4=116.59               C10-C8-O9=122.39               C11-C10-C8=112.22              H32-C10-C8=109.27              
H32-C10-C11=108.46             H33-C10-C8=109.24              H33-C10-C11=109.20             H33-C10-H32=108.38             

 selected dihedral angles (degree)
 ---------------------------------
C3-C2-C1-H18=180.38           C3-C2-C1-H19=300.34           C3-C2-C1-H20= 60.29           H21-C2-C1-H18= 58.88          
H21-C2-C1-H19=178.84          H21-C2-C1-H20=298.79          H22-C2-C1-H18=300.41          H22-C2-C1-H19= 60.37          
H22-C2-C1-H20=180.32          N4-C3-C2-C1=180.72            N4-C3-C2-H21=302.25           N4-C3-C2-H22= 59.84           
H23-C3-C2-C1= 61.81           H23-C3-C2-H21=183.34          H23-C3-C2-H22=300.93          H24-C3-C2-C1=302.13           
H24-C3-C2-H21= 63.66          H24-C3-C2-H22=181.25          C5-N4-C3-C2= 87.89            C5-N4-C3-H23=207.75           
C5-N4-C3-H24=325.68           C8-N4-C3-C2=266.91            C8-N4-C3-H23= 26.77           C8-N4-C3-H24=144.70           
C6-C5-N4-C3= 87.71            C6-C5-N4-C8=268.78            H25-C5-N4-C3=210.30           H25-C5-N4-C8= 31.37           
H26-C5-N4-C3=327.40           H26-C5-N4-C8=148.47           C7-C6-C5-N4=179.74            C7-C6-C5-H25= 56.87           
C7-C6-C5-H26=299.43           H27-C6-C5-N4=300.95           H27-C6-C5-H25=178.08          H27-C6-C5-H26= 60.64          
H28-C6-C5-N4= 58.34           H28-C6-C5-H25=295.47          H28-C6-C5-H26=178.03          H29-C7-C6-C5=299.80           
H29-C7-C6-H27=178.82          H29-C7-C6-H28= 61.02          H30-C7-C6-C5=179.77           H30-C7-C6-H27= 58.79          
H30-C7-C6-H28=300.99          H31-C7-C6-C5= 59.75           H31-C7-C6-H27=298.77          H31-C7-C6-H28=180.97          
O9-C8-N4-C3=359.66            O9-C8-N4-C5=178.58            C10-C8-N4-C3=179.35           C10-C8-N4-C5=358.27           
C11-C10-C8-N4=178.82          C11-C10-C8-O9=358.51          H32-C10-C8-N4=299.16          H32-C10-C8-O9=118.85          
H33-C10-C8-N4= 57.56          H33-C10-C8-O9=237.26          
           -------------------------------------------------
          |                Final Singlepoint                |
           -------------------------------------------------

          ...................................................
          :                      SETUP                      :
          :.................................................:
          :  # basis functions                  93          :
          :  # atomic orbitals                  93          :
          :  # shells                           59          :
          :  # electrons                       100          :
          :  max. iterations                   250          :
          :  Hamiltonian                  GFN2-xTB          :
          :  restarted?                      false          :
          :  GBSA solvation                  false          :
          :  PC potential                    false          :
          :  electronic temp.          300.0000000     K    :
          :  accuracy                    1.0000000          :
          :  -> integral cutoff          0.2500000E+02      :
          :  -> integral neglect         0.1000000E-07      :
          :  -> SCF convergence          0.1000000E-05 Eh   :
          :  -> wf. convergence          0.1000000E-03 e    :
          :  Broyden damping             0.4000000          :
          :  net charge                          0          :
          :  unpaired electrons                  0          :
          ...................................................

 iter      E             dE          RMSdq      gap      omega  full diag
   1    -56.4449403 -0.564449E+02  0.554E-05    4.28       0.0  T
   2    -56.4449403 -0.765255E-11  0.335E-05    4.28     460.3  T
   3    -56.4449403 -0.461853E-12  0.127E-05    4.28    1210.5  T

   *** convergence criteria satisfied after 3 iterations ***

         #    Occupation            Energy/Eh            Energy/eV
      -------------------------------------------------------------
         1        2.0000           -0.7350982             -20.0030
       ...           ...                  ...                  ...
        44        2.0000           -0.4415247             -12.0145
        45        2.0000           -0.4363450             -11.8736
        46        2.0000           -0.4330778             -11.7846
        47        2.0000           -0.4283510             -11.6560
        48        2.0000           -0.4032547             -10.9731
        49        2.0000           -0.3791936             -10.3184
        50        2.0000           -0.3772953             -10.2667 (HOMO)
        51                         -0.2200735              -5.9885 (LUMO)
        52                         -0.1934894              -5.2651
        53                         -0.0097389              -0.2650
        54                          0.0078015               0.2123
        55                          0.0656971               1.7877
       ...                                ...                  ...
        93                          0.6558910              17.8477
      -------------------------------------------------------------
                  HL-Gap            0.1572218 Eh            4.2782 eV
             Fermi-level           -0.2986844 Eh           -8.1276 eV

 SCC (total)                   0 d,  0 h,  0 min,  0.172 sec
 SCC setup                      ...        0 min,  0.004 sec (  2.065%)
 Dispersion                     ...        0 min,  0.006 sec (  3.359%)
 classical contributions        ...        0 min,  0.005 sec (  2.870%)
 integral evaluation            ...        0 min,  0.012 sec (  7.197%)
 iterations                     ...        0 min,  0.096 sec ( 55.934%)
 molecular gradient             ...        0 min,  0.049 sec ( 28.283%)
 printout                       ...        0 min,  0.000 sec (  0.274%)

         :::::::::::::::::::::::::::::::::::::::::::::::::::::
         ::                     SUMMARY                     ::
         :::::::::::::::::::::::::::::::::::::::::::::::::::::
         :: total energy             -55.761859468508 Eh    ::
         :: gradient norm              0.000224856462 Eh/a0 ::
         :: HOMO-LUMO gap              4.278222889678 eV    ::
         ::.................................................::
         :: SCC energy               -56.444694731973 Eh    ::
         :: -> isotropic ES            0.088311564193 Eh    ::
         :: -> anisotropic ES          0.005794397727 Eh    ::
         :: -> anisotropic XC          0.018867103037 Eh    ::
         :: -> dispersion             -0.032296895858 Eh    ::
         :: repulsion energy           0.682835263465 Eh    ::
         :: add. restraining           0.000000000000 Eh    ::
         :: total charge              -0.000000000000 e     ::
         :::::::::::::::::::::::::::::::::::::::::::::::::::::

           -------------------------------------------------
          |                Property Printout                |
           -------------------------------------------------

    * Orbital Energies and Occupations

         #    Occupation            Energy/Eh            Energy/eV
      -------------------------------------------------------------
         1        2.0000           -0.7350982             -20.0030
       ...           ...                  ...                  ...
        38        2.0000           -0.4617964             -12.5661
        39        2.0000           -0.4572060             -12.4412
        40        2.0000           -0.4559908             -12.4081
        41        2.0000           -0.4479727             -12.1900
        42        2.0000           -0.4457651             -12.1299
        43        2.0000           -0.4429788             -12.0541
        44        2.0000           -0.4415247             -12.0145
        45        2.0000           -0.4363450             -11.8736
        46        2.0000           -0.4330778             -11.7846
        47        2.0000           -0.4283510             -11.6560
        48        2.0000           -0.4032547             -10.9731
        49        2.0000           -0.3791936             -10.3184
        50        2.0000           -0.3772953             -10.2667 (HOMO)
        51                         -0.2200735              -5.9885 (LUMO)
        52                         -0.1934894              -5.2651
        53                         -0.0097389              -0.2650
        54                          0.0078015               0.2123
        55                          0.0656971               1.7877
        56                          0.0855909               2.3290
        57                          0.0971312               2.6431
        58                          0.1033071               2.8111
        59                          0.1073473               2.9211
        60                          0.1166036               3.1729
        61                          0.1220964               3.3224
       ...                                ...                  ...
        93                          0.6558910              17.8477
      -------------------------------------------------------------
                  HL-Gap            0.1572218 Eh            4.2782 eV
             Fermi-level           -0.2986844 Eh           -8.1276 eV

     #   Z          covCN         q      C6AA      α(0)
     1   6 C        3.753    -0.105    22.569     6.775
     2   6 C        3.800    -0.057    21.599     6.617
     3   6 C        3.755    -0.001    20.657     6.481
     4   7 N        2.735    -0.110    23.393     7.183
     5   6 C        3.744    -0.008    20.788     6.504
     6   6 C        3.800    -0.059    21.634     6.622
     7   6 C        3.753    -0.107    22.597     6.779
     8   6 C        2.763     0.264    22.549     7.777
     9   8 O        0.859    -0.457    22.863     6.411
    10   6 C        3.804    -0.092    22.251     6.715
    11   6 C        3.802    -0.045    21.380     6.583
    12   6 C        3.804    -0.095    22.317     6.725
    13   6 C        2.717     0.358    20.930     7.489
    14   8 O        0.856    -0.426    22.209     6.318
    15   8 O        1.705    -0.273    18.520     5.810
    16   6 C        3.701     0.086    19.300     6.282
    17   6 C        3.751    -0.116    22.779     6.806
    18   1 H        0.925     0.039     2.457     2.451
    19   1 H        0.925     0.041     2.432     2.439
    20   1 H        0.925     0.034     2.529     2.487
    21   1 H        0.924     0.030     2.583     2.514
    22   1 H        0.924     0.046     2.376     2.411
    23   1 H        0.924     0.072     2.064     2.246
    24   1 H        0.924     0.038     2.477     2.461
    25   1 H        0.924     0.053     2.287     2.365
    26   1 H        0.924     0.049     2.327     2.386
    27   1 H        0.924     0.038     2.478     2.462
    28   1 H        0.924     0.036     2.498     2.472
    29   1 H        0.925     0.039     2.457     2.451
    30   1 H        0.925     0.042     2.423     2.434
    31   1 H        0.925     0.038     2.477     2.461
    32   1 H        0.924     0.076     2.024     2.225
    33   1 H        0.924     0.048     2.346     2.395
    34   1 H        0.924     0.039     2.463     2.454
    35   1 H        0.924     0.053     2.277     2.360
    36   1 H        0.924     0.064     2.150     2.293
    37   1 H        0.924     0.101     1.772     2.082
    38   1 H        0.924     0.049     2.329     2.387
    39   1 H        0.924     0.048     2.348     2.396
    40   1 H        0.925     0.051     2.305     2.374
    41   1 H        0.925     0.058     2.217     2.328
    42   1 H        0.925     0.058     2.218     2.329

 Mol. C6AA /au·bohr⁶  :      13684.750262
 Mol. C8AA /au·bohr⁸  :     293109.056903
 Mol. α(0) /au        :        173.540305


Wiberg/Mayer (AO) data.
largest (>0.10) Wiberg bond orders for each atom

 ---------------------------------------------------------------------------
     #   Z sym  total        # sym  WBO       # sym  WBO       # sym  WBO
 ---------------------------------------------------------------------------
     1   6 C    3.996 --     2 C    1.019    20 H    0.988    19 H    0.987
                            18 H    0.987
     2   6 C    3.997 --     1 C    1.019     3 C    0.996    22 H    0.978
                            21 H    0.977
     3   6 C    3.969 --     2 C    0.996     4 N    0.983    24 H    0.971
                            23 H    0.965
     4   7 N    3.488 --     8 C    1.244     5 C    0.994     3 C    0.983
                             9 O    0.188
     5   6 C    3.974 --     4 N    0.994     6 C    0.992    26 H    0.969
                            25 H    0.965
     6   6 C    3.997 --     7 C    1.019     5 C    0.992    27 H    0.977
                            28 H    0.976
     7   6 C    3.995 --     6 C    1.019    31 H    0.987    29 H    0.987
                            30 H    0.986
     8   6 C    3.950 --     9 O    1.656     4 N    1.244    10 C    0.974
     9   8 O    1.984 --     8 C    1.656     4 N    0.188
    10   6 C    3.996 --    11 C    1.008     8 C    0.974    33 H    0.960
                            32 H    0.946
    11   6 C    3.995 --    10 C    1.008    12 C    1.006    34 H    0.978
                            35 H    0.975
    12   6 C    3.991 --    11 C    1.006    13 C    0.983    36 H    0.961
                            37 H    0.932
    13   6 C    3.911 --    14 O    1.736    15 O    1.130    12 C    0.983
    14   8 O    2.026 --    13 C    1.736    15 O    0.168
    15   8 O    2.297 --    13 C    1.130    16 C    0.939    14 O    0.168
    16   6 C    3.931 --    17 C    1.020    38 H    0.969    39 H    0.969
                            15 O    0.939
    17   6 C    3.991 --    16 C    1.020    42 H    0.985    41 H    0.985
                            40 H    0.984
    18   1 H    0.998 --     1 C    0.987
    19   1 H    0.998 --     1 C    0.987
    20   1 H    0.999 --     1 C    0.988
    21   1 H    0.999 --     2 C    0.977
    22   1 H    0.998 --     2 C    0.978
    23   1 H    0.995 --     3 C    0.965
    24   1 H    0.998 --     3 C    0.971
    25   1 H    0.997 --     5 C    0.965
    26   1 H    0.997 --     5 C    0.969
    27   1 H    0.999 --     6 C    0.977
    28   1 H    0.999 --     6 C    0.976
    29   1 H    0.998 --     7 C    0.987
    30   1 H    0.998 --     7 C    0.986
    31   1 H    0.999 --     7 C    0.987
    32   1 H    0.994 --    10 C    0.946
    33   1 H    0.998 --    10 C    0.960
    34   1 H    0.998 --    11 C    0.978
    35   1 H    0.997 --    11 C    0.975
    36   1 H    0.996 --    12 C    0.961
    37   1 H    0.990 --    12 C    0.932
    38   1 H    0.998 --    16 C    0.969
    39   1 H    0.998 --    16 C    0.969
    40   1 H    0.997 --    17 C    0.984
    41   1 H    0.997 --    17 C    0.985
    42   1 H    0.997 --    17 C    0.985
 ---------------------------------------------------------------------------

Topologies differ in total number of bonds
Writing topology from bond orders to xtbtopo.mol

molecular dipole:
                 x           y           z       tot (Debye)
 q only:       -0.390       0.067       0.611
   full:       -0.418      -0.050       0.752       2.190
molecular quadrupole (traceless):
                xx          xy          yy          xz          yz          zz
 q only:       15.449       4.429      -2.982      -0.957       4.340     -12.467
  q+dip:       15.948       2.177      -2.612      -0.874       6.184     -13.336
   full:       16.008       2.802      -2.143      -0.507       6.352     -13.865

           -------------------------------------------------
          |                Geometry Summary                 |
           -------------------------------------------------

      molecular mass/u    :      243.3430034
   center of mass at/Å    :        0.3204609      -0.0962068      -0.1937875
  moments of inertia/u·Å² :        0.8733349E+03   0.2527406E+04   0.2898759E+04
rotational constants/cm⁻¹ :        0.1930260E-01   0.6669935E-02   0.5815466E-02

 * 39 selected distances

     #   Z          #   Z                                           value/Å
     1   6 C        2   6 C                                       1.5225938
     2   6 C        3   6 C                                       1.5302950
     3   6 C        4   7 N                                       1.4523579
     4   7 N        5   6 C                                       1.4452314
     5   6 C        6   6 C                                       1.5339499 (max)
     6   6 C        7   6 C                                       1.5228602
     4   7 N        8   6 C                                       1.3559180
     8   6 C        9   8 O                                       1.2197577
    10   6 C       11   6 C                                       1.5292504
    11   6 C       12   6 C                                       1.5280915
    13   6 C       14   8 O                                       1.2059713
    13   6 C       15   8 O                                       1.3379551
    15   8 O       16   6 C                                       1.4284152
    16   6 C       17   6 C                                       1.5166881
     1   6 C       18   1 H                                       1.0871799
     1   6 C       19   1 H                                       1.0872674
     1   6 C       20   1 H                                       1.0882671
     2   6 C       21   1 H                                       1.0928594
     2   6 C       22   1 H                                       1.0910068
     3   6 C       23   1 H                                       1.0925661
     3   6 C       24   1 H                                       1.0928583
     5   6 C       25   1 H                                       1.0910143
     5   6 C       26   1 H                                       1.0939182
     6   6 C       27   1 H                                       1.0917904
     6   6 C       28   1 H                                       1.0913147
     7   6 C       29   1 H                                       1.0876322
     7   6 C       30   1 H                                       1.0869883
     7   6 C       31   1 H                                       1.0877843
    10   6 C       32   1 H                                       1.0909855
    10   6 C       33   1 H                                       1.0910670
    11   6 C       34   1 H                                       1.0918985
    11   6 C       35   1 H                                       1.0911967
    12   6 C       36   1 H                                       1.0908318
    12   6 C       37   1 H                                       1.0930967
    16   6 C       38   1 H                                       1.0958666
    16   6 C       39   1 H                                       1.0960700
    17   6 C       40   1 H                                       1.0861803 (min)
    17   6 C       41   1 H                                       1.0864246
    17   6 C       42   1 H                                       1.0864661

 * 4 distinct bonds (by element types)

   Z      Z             #   av. dist./Å        max./Å        min./Å
   1 H    6 C          25     1.0905012     1.0960700     1.0861803
   6 C    6 C           7     1.5262470     1.5339499     1.5166881
   6 C    7 N           3     1.4178358     1.4523579     1.3559180
   6 C    8 O           4     1.2980248     1.4284152     1.2059713


optimized geometry written to: xtbopt.xyz


           -------------------------------------------------
          | TOTAL ENERGY              -55.761859468508 Eh   |
          | GRADIENT NORM               0.000224856462 Eh/α |
          | HOMO-LUMO GAP               4.278222889678 eV   |
           -------------------------------------------------

------------------------------------------------------------------------
 * finished run on 2026/07/07 at 03:37:51.542     
------------------------------------------------------------------------
 total:
 * wall-time:     0 d,  0 h,  0 min,  6.199 sec
 *  cpu-time:     0 d,  0 h,  1 min, 38.011 sec
 * ratio c/w:    15.811 speedup
 SCF:
 * wall-time:     0 d,  0 h,  0 min,  0.262 sec
 *  cpu-time:     0 d,  0 h,  0 min,  4.072 sec
 * ratio c/w:    15.570 speedup
 ANC optimizer:
 * wall-time:     0 d,  0 h,  0 min,  5.878 sec
 *  cpu-time:     0 d,  0 h,  1 min, 33.481 sec
 * ratio c/w:    15.902 speedup

