      -----------------------------------------------------------      
     |                   =====================                   |     
     |                           x T B                           |     
     |                   =====================                   |     
     |                         S. Grimme                         |     
     |          Mulliken Center for Theoretical Chemistry        |     
     |                    University of Bonn                     |     
      -----------------------------------------------------------      

   * xtb version 6.7.1 (edcfbbe) compiled by 'conda@5dfe00f5fb80' on 2026-06-10

   xtb is free software: you can redistribute it and/or modify it under
   the terms of the GNU Lesser General Public License as published by
   the Free Software Foundation, either version 3 of the License, or
   (at your option) any later version.
   
   xtb is distributed in the hope that it will be useful,
   but WITHOUT ANY WARRANTY; without even the implied warranty of
   MERCHANTABILITY or FITNESS FOR A PARTICULAR PURPOSE.  See the
   GNU Lesser General Public License for more details.
   
   Cite this work as:
   * C. Bannwarth, E. Caldeweyher, S. Ehlert, A. Hansen, P. Pracht,
     J. Seibert, S. Spicher, S. Grimme, WIREs Comput. Mol. Sci., 2020, 11,
     e01493. DOI: 10.1002/wcms.1493
   
   for GFN2-xTB:
   * C. Bannwarth, S. Ehlert and S. Grimme., J. Chem. Theory Comput., 2019,
     15, 1652-1671. DOI: 10.1021/acs.jctc.8b01176
   for GFN1-xTB:
   * S. Grimme, C. Bannwarth, P. Shushkov, J. Chem. Theory Comput., 2017,
     13, 1989-2009. DOI: 10.1021/acs.jctc.7b00118
   for GFN0-xTB:
   * P. Pracht, E. Caldeweyher, S. Ehlert, S. Grimme, ChemRxiv, 2019, preprint.
     DOI: 10.26434/chemrxiv.8326202.v1
   for GFN-FF:
   * S. Spicher and S. Grimme, Angew. Chem. Int. Ed., 2020, 59, 15665-15673.
     DOI: 10.1002/anie.202004239
   
   for ALPB and GBSA implicit solvation:
   * S. Ehlert, M. Stahn, S. Spicher, S. Grimme, J. Chem. Theory Comput.,
     2021, 17, 4250-4261. DOI: 10.1021/acs.jctc.1c00471
   
   for ddCOSMO and CPCM-X implicit solvation:
   * M. Stahn, S. Ehlert, S. Grimme, J. Phys. Chem. A,
     2023, XX, XXXX-XXXX. DOI: 10.1021/acs.jpca.3c04382
   
   for DFT-D4:
   * E. Caldeweyher, C. Bannwarth and S. Grimme, J. Chem. Phys., 2017,
     147, 034112. DOI: 10.1063/1.4993215
   * E. Caldeweyher, S. Ehlert, A. Hansen, H. Neugebauer, S. Spicher,
     C. Bannwarth and S. Grimme, J. Chem. Phys., 2019, 150, 154122.
     DOI: 10.1063/1.5090222
   * E. Caldeweyher, J.-M. Mewes, S. Ehlert and S. Grimme, Phys. Chem. Chem. Phys.
     2020, 22, 8499-8512. DOI: 10.1039/D0CP00502A
   
   for sTDA-xTB:
   * S. Grimme and C. Bannwarth, J. Chem. Phys., 2016, 145, 054103.
     DOI: 10.1063/1.4959605
   
   in the mass-spec context:
   * V. Asgeirsson, C. Bauer and S. Grimme, Chem. Sci., 2017, 8, 4879.
     DOI: 10.1039/c7sc00601b
   * J. Koopman and S. Grimme, ACS Omega 2019, 4, 12, 15120-15133.
     DOI: 10.1021/acsomega.9b02011
   
   for metadynamics refer to:
   * S. Grimme, J. Chem. Theory Comput., 2019, 155, 2847-2862
     DOI: 10.1021/acs.jctc.9b00143
   
   for SPH calculations refer to:
   * S. Spicher and S. Grimme, J. Chem. Theory Comput., 2021, 17, 1701-1714
     DOI: 10.1021/acs.jctc.0c01306
   
   for ONIOM refer to:
   * C. Plett, A. Katbashev, S. Ehlert, S. Grimme, M. Bursch,
     Phys. Chem. Chem. Phys., 2023, 25, 17860-17868. DOI: 10.1039/D3CP02178E
   
   for DIPRO refer to:
   * J. Kohn, N. Gildemeister, S. Grimme, D. Fazzi, A. Hansen,
     J. Chem. Phys., 2023, just accepted.
   
   for PTB refer to:
   * S. Grimme, M. Mueller, A. Hansen, J. Chem. Phys., 2023, 158, 124111.
     DOI: 10.1063/5.0137838
   
   with help from (in alphabetical order)
   P. Atkinson, C. Bannwarth, F. Bohle, G. Brandenburg, E. Caldeweyher
   M. Checinski, S. Dohm, S. Ehlert, S. Ehrlich, I. Gerasimov, C. Hölzer
   A. Katbashev, J. Kohn, J. Koopman, C. Lavigne, S. Lehtola, F. März, M. Müller,
   F. Musil, H. Neugebauer, J. Pisarek, C. Plett, P. Pracht, F. Pultar,
   J. Seibert, P. Shushkov, S. Spicher, M. Stahn, M. Steiner, T. Strunk,
   J. Stückrath, T. Rose, and J. Unsleber
   
 * started run on 2026/07/08 at 21:46:28.399     
   ID    Z sym.   atoms
    1    6 C      1, 2, 4, 6-8
    2    8 O      3, 5
    3    7 N      9
    4    1 H      10-18

           -------------------------------------------------
          |                Calculation Setup                |
           -------------------------------------------------

          program call               : /home/ws/xd2484/miniforge3/envs/p3z_dft/bin/xtb xtb_input.xyz --gfn 2 --opt tight --cycles 500 --chrg 0 --uhf 0
          hostname                   : gpu10
          coordinate file            : xtb_input.xyz
          omp threads                :                    16


           -------------------------------------------------
          |                 G F N 2 - x T B                 |
           -------------------------------------------------

        Reference                      10.1021/acs.jctc.8b01176
      * Hamiltonian:
        H0-scaling (s, p, d)           1.850000    2.230000    2.230000
        zeta-weighting                 0.500000
      * Dispersion:
        s8                             2.700000
        a1                             0.520000
        a2                             5.000000
        s9                             5.000000
      * Repulsion:
        kExp                           1.500000    1.000000
        rExp                           1.000000
      * Coulomb:
        alpha                          2.000000
        third order                    shell-resolved
        anisotropic                    true
        a3                             3.000000
        a5                             4.000000
        cn-shift                       1.200000
        cn-exp                         4.000000
        max-rad                        5.000000


          ...................................................
          :                      SETUP                      :
          :.................................................:
          :  # basis functions                  45          :
          :  # atomic orbitals                  45          :
          :  # shells                           27          :
          :  # electrons                        50          :
          :  max. iterations                   250          :
          :  Hamiltonian                  GFN2-xTB          :
          :  restarted?                      false          :
          :  GBSA solvation                  false          :
          :  PC potential                    false          :
          :  electronic temp.          300.0000000     K    :
          :  accuracy                    1.0000000          :
          :  -> integral cutoff          0.2500000E+02      :
          :  -> integral neglect         0.1000000E-07      :
          :  -> SCF convergence          0.1000000E-05 Eh   :
          :  -> wf. convergence          0.1000000E-03 e    :
          :  Broyden damping             0.4000000          :
          :  net charge                          0          :
          :  unpaired electrons                  0          :
          ...................................................

 iter      E             dE          RMSdq      gap      omega  full diag
   1    -28.7433280 -0.287433E+02  0.502E+00    4.93       0.0  T
   2    -28.7890401 -0.457122E-01  0.293E+00    4.42       1.0  T
   3    -28.7794673  0.957285E-02  0.188E+00    4.69       1.0  T
   4    -28.8018574 -0.223901E-01  0.801E-01    4.73       1.0  T
   5    -28.8097170 -0.785961E-02  0.166E-01    4.58       1.0  T
   6    -28.8098330 -0.115944E-03  0.755E-02    4.60       1.0  T
   7    -28.8098598 -0.268151E-04  0.193E-02    4.59       1.2  T
   8    -28.8098606 -0.834472E-06  0.615E-03    4.59       3.8  T
   9    -28.8098607 -0.110296E-06  0.234E-03    4.59      10.1  T
  10    -28.8098607 -0.960548E-08  0.706E-04    4.59      33.4  T
  11    -28.8098607 -0.133501E-08  0.322E-04    4.59      73.3  T

   *** convergence criteria satisfied after 11 iterations ***

         #    Occupation            Energy/Eh            Energy/eV
      -------------------------------------------------------------
         1        2.0000           -0.7567162             -20.5913
       ...           ...                  ...                  ...
        19        2.0000           -0.4852361             -13.2039
        20        2.0000           -0.4819082             -13.1134
        21        2.0000           -0.4784633             -13.0196
        22        2.0000           -0.4706760             -12.8077
        23        2.0000           -0.4513309             -12.2813
        24        2.0000           -0.4425774             -12.0431
        25        2.0000           -0.4336405             -11.8000 (HOMO)
        26                         -0.2648582              -7.2072 (LUMO)
        27                         -0.2276641              -6.1951
        28                         -0.2226509              -6.0586
        29                         -0.0175889              -0.4786
        30                          0.0689853               1.8772
       ...                                ...                  ...
        45                          1.0267678              27.9398
      -------------------------------------------------------------
                  HL-Gap            0.1687824 Eh            4.5928 eV
             Fermi-level           -0.3492494 Eh           -9.5036 eV

 SCC (total)                   0 d,  0 h,  0 min,  0.270 sec
 SCC setup                      ...        0 min,  0.007 sec (  2.410%)
 Dispersion                     ...        0 min,  0.013 sec (  4.873%)
 classical contributions        ...        0 min,  0.007 sec (  2.423%)
 integral evaluation            ...        0 min,  0.015 sec (  5.463%)
 iterations                     ...        0 min,  0.182 sec ( 67.458%)
 molecular gradient             ...        0 min,  0.047 sec ( 17.304%)
 printout                       ...        0 min,  0.000 sec (  0.059%)

         :::::::::::::::::::::::::::::::::::::::::::::::::::::
         ::                     SUMMARY                     ::
         :::::::::::::::::::::::::::::::::::::::::::::::::::::
         :: total energy             -28.459746780040 Eh    ::
         :: gradient norm              0.086600545151 Eh/a0 ::
         :: HOMO-LUMO gap              4.592801801836 eV    ::
         ::.................................................::
         :: SCC energy               -28.809837825467 Eh    ::
         :: -> isotropic ES            0.051722227727 Eh    ::
         :: -> anisotropic ES          0.002528488825 Eh    ::
         :: -> anisotropic XC          0.022010198617 Eh    ::
         :: -> dispersion             -0.011309081841 Eh    ::
         :: repulsion energy           0.350091045426 Eh    ::
         :: add. restraining           0.000000000000 Eh    ::
         :: total charge              -0.000000000000 e     ::
         :::::::::::::::::::::::::::::::::::::::::::::::::::::

      ----------------------------------------------------------- 
     |                   =====================                   |
     |                        A N C O P T                        |
     |                   =====================                   |
     |               Approximate Normal Coordinate               |
     |                Rational Function Optimizer                |
      ----------------------------------------------------------- 
      ----------------------------------------------------------- 
     |                   =====================                   |
     |                        A N C O P T                        |
     |                   =====================                   |
     |               Approximate Normal Coordinate               |
     |                Rational Function Optimizer                |
      ----------------------------------------------------------- 

          ...................................................
          :                      SETUP                      :
          :.................................................:
          :   optimization level             tight          :
          :   max. optcycles                   500          :
          :   ANC micro-cycles                  20          :
          :   degrees of freedom                48          :
          :.................................................:
          :   RF solver                   davidson          :
          :   write xtbopt.log                true          :
          :   linear?                        false          :
          :   energy convergence         0.1000000E-05 Eh   :
          :   grad. convergence          0.8000000E-03 Eh/α :
          :   maxmium RF displ.          1.0000000          :
          :   Hlow (freq-cutoff)         0.1000000E-01      :
          :   Hmax (freq-cutoff)         5.0000000          :
          :   S6 in model hess.         20.0000000          :
          ...................................................

generating ANC from exact Hessian ...
Using Lindh-Hessian (1995)
 Shifting diagonal of input Hessian by    8.6195298129245600E-003
 Lowest  eigenvalues of input Hessian
    0.000000    0.000000    0.000000    0.000000    0.000000    0.000000
    0.010000    0.011022    0.012239    0.013507    0.018672    0.019235
    0.020202    0.025223    0.034038    0.039687    0.048888    0.051643
 Highest eigenvalues
    1.190424    1.260624    1.309313    1.683894    2.234981    2.455116


........................................................................
.............................. CYCLE    1 ..............................
........................................................................

 iter      E             dE          RMSdq      gap      omega  full diag
   1    -28.8098607 -0.288099E+02  0.800E-05    4.59       0.0  T
   2    -28.8098607 -0.103313E-10  0.497E-05    4.59     473.9  T
   3    -28.8098607 -0.251532E-11  0.200E-05    4.59    1177.5  T
     SCC iter.                  ...        0 min,  0.033 sec
     gradient                   ...        0 min,  0.034 sec
 * total energy  :   -28.4597468 Eh     change       -0.3079315E-09 Eh
   gradient norm :     0.0866035 Eh/α   predicted     0.0000000E+00 (-100.00%)
   displ. norm   :     0.1612037 α      lambda       -0.7395907E-02
   maximum displ.:     0.0565586 α      in ANC's #20, #33, #28, ...

........................................................................
.............................. CYCLE    2 ..............................
........................................................................

 iter      E             dE          RMSdq      gap      omega  full diag
   1    -28.8428019 -0.288428E+02  0.267E-01    4.86       0.0  T
   2    -28.8428832 -0.812951E-04  0.159E-01    4.80       1.0  T
   3    -28.8428272  0.559921E-04  0.996E-02    4.83       1.0  T
   4    -28.8429167 -0.894849E-04  0.289E-02    4.81       1.0  T
   5    -28.8429282 -0.114352E-04  0.585E-03    4.81       4.0  T
   6    -28.8429282 -0.484731E-07  0.284E-03    4.81       8.3  T
   7    -28.8429282 -0.166179E-07  0.814E-04    4.81      29.0  T
   8    -28.8429282 -0.171291E-08  0.279E-04    4.81      84.5  T
     SCC iter.                  ...        0 min,  0.101 sec
     gradient                   ...        0 min,  0.040 sec
 * total energy  :   -28.4638267 Eh     change       -0.4079890E-02 Eh
   gradient norm :     0.0247516 Eh/α   predicted    -0.3794049E-02 (  -7.01%)
   displ. norm   :     0.1317311 α      lambda       -0.8983387E-03
   maximum displ.:     0.0704562 α      in ANC's #3, #11, #1, ...

........................................................................
.............................. CYCLE    3 ..............................
........................................................................

 iter      E             dE          RMSdq      gap      omega  full diag
   1    -28.8466778 -0.288467E+02  0.253E-01    4.88       0.0  T
   2    -28.8467096 -0.317994E-04  0.142E-01    4.85       1.0  T
   3    -28.8466810  0.285756E-04  0.516E-02    4.87       1.0  T
   4    -28.8467184 -0.374250E-04  0.147E-02    4.85       1.6  T
   5    -28.8467212 -0.280372E-05  0.357E-03    4.85       6.6  T
   6    -28.8467213 -0.395091E-07  0.121E-03    4.86      19.5  T
   7    -28.8467213 -0.188364E-08  0.385E-04    4.86      61.2  T
   8    -28.8467213 -0.457575E-09  0.128E-04    4.86     183.5  T
     SCC iter.                  ...        0 min,  0.093 sec
     gradient                   ...        0 min,  0.034 sec
 * total energy  :   -28.4641516 Eh     change       -0.3249199E-03 Eh
   gradient norm :     0.0130779 Eh/α   predicted    -0.4569630E-03 (  40.64%)
   displ. norm   :     0.1160443 α      lambda       -0.5085212E-03
   maximum displ.:     0.0561024 α      in ANC's #4, #3, #7, ...

........................................................................
.............................. CYCLE    4 ..............................
........................................................................

 iter      E             dE          RMSdq      gap      omega  full diag
   1    -28.8451466 -0.288451E+02  0.245E-01    4.87       0.0  T
   2    -28.8451644 -0.177989E-04  0.136E-01    4.86       1.0  T
   3    -28.8451670 -0.253559E-05  0.136E-02    4.86       1.7  T
   4    -28.8451689 -0.198790E-05  0.408E-03    4.86       5.8  T
   5    -28.8451690 -0.717797E-07  0.173E-03    4.86      13.6  T
   6    -28.8451690 -0.298082E-08  0.420E-04    4.86      56.1  T
   7    -28.8451690 -0.218030E-09  0.276E-04    4.86      85.2  T
     SCC iter.                  ...        0 min,  0.080 sec
     gradient                   ...        0 min,  0.026 sec
 * total energy  :   -28.4643097 Eh     change       -0.1581101E-03 Eh
   gradient norm :     0.0113518 Eh/α   predicted    -0.2576838E-03 (  62.98%)
   displ. norm   :     0.0436360 α      lambda       -0.1545078E-03
   maximum displ.:     0.0296618 α      in ANC's #3, #1, #2, ...

........................................................................
.............................. CYCLE    5 ..............................
........................................................................

 iter      E             dE          RMSdq      gap      omega  full diag
   1    -28.8452967 -0.288453E+02  0.776E-02    4.83       0.0  T
   2    -28.8452989 -0.226681E-05  0.434E-02    4.84       1.0  T
   3    -28.8452990 -0.109340E-06  0.596E-03    4.84       4.0  T
   4    -28.8452994 -0.405562E-06  0.250E-03    4.84       9.4  T
   5    -28.8452995 -0.509140E-07  0.115E-03    4.84      20.4  T
   6    -28.8452995 -0.124139E-07  0.474E-04    4.84      49.8  T
   7    -28.8452995 -0.716938E-09  0.129E-04    4.84     182.4  T
     SCC iter.                  ...        0 min,  0.082 sec
     gradient                   ...        0 min,  0.038 sec
 * total energy  :   -28.4643979 Eh     change       -0.8823917E-04 Eh
   gradient norm :     0.0022289 Eh/α   predicted    -0.7740103E-04 ( -12.28%)
   displ. norm   :     0.0495758 α      lambda       -0.3304349E-04
   maximum displ.:     0.0306710 α      in ANC's #2, #1, #6, ...

........................................................................
.............................. CYCLE    6 ..............................
........................................................................

 iter      E             dE          RMSdq      gap      omega  full diag
   1    -28.8448923 -0.288449E+02  0.412E-02    4.83       0.0  T
   2    -28.8448929 -0.645554E-06  0.233E-02    4.83       1.0  T
   3    -28.8448930 -0.720287E-07  0.312E-03    4.83       7.6  T
   4    -28.8448931 -0.848895E-07  0.118E-03    4.83      20.0  T
   5    -28.8448931 -0.342411E-08  0.688E-04    4.83      34.3  T
   6    -28.8448931 -0.246312E-08  0.343E-04    4.83      68.7  T
     SCC iter.                  ...        0 min,  0.074 sec
     gradient                   ...        0 min,  0.034 sec
 * total energy  :   -28.4644237 Eh     change       -0.2578040E-04 Eh
   gradient norm :     0.0015785 Eh/α   predicted    -0.1656327E-04 ( -35.75%)
   displ. norm   :     0.1379715 α      lambda       -0.3868405E-04
   maximum displ.:     0.0855255 α      in ANC's #2, #6, #1, ...

........................................................................
.............................. CYCLE    7 ..............................
........................................................................

 iter      E             dE          RMSdq      gap      omega  full diag
   1    -28.8445037 -0.288445E+02  0.106E-01    4.83       0.0  T
   2    -28.8445067 -0.299274E-05  0.607E-02    4.82       1.0  T
   3    -28.8445070 -0.284068E-06  0.798E-03    4.82       3.0  T
   4    -28.8445077 -0.684488E-06  0.317E-03    4.82       7.4  T
   5    -28.8445076  0.130384E-07  0.219E-03    4.82      10.8  T
   6    -28.8445077 -0.551923E-07  0.483E-04    4.82      48.8  T
   7    -28.8445077 -0.678764E-09  0.187E-04    4.82     125.8  T
     SCC iter.                  ...        0 min,  0.106 sec
     gradient                   ...        0 min,  0.047 sec
 * total energy  :   -28.4644518 Eh     change       -0.2809007E-04 Eh
   gradient norm :     0.0033333 Eh/α   predicted    -0.1950581E-04 ( -30.56%)
   displ. norm   :     0.0214300 α      lambda       -0.1131986E-04
   maximum displ.:     0.0112847 α      in ANC's #2, #6, #7, ...

........................................................................
.............................. CYCLE    8 ..............................
........................................................................

 iter      E             dE          RMSdq      gap      omega  full diag
   1    -28.8449344 -0.288449E+02  0.139E-02    4.82       0.0  T
   2    -28.8449346 -0.155989E-06  0.806E-03    4.82       2.9  T
   3    -28.8449346  0.377514E-07  0.233E-03    4.82      10.1  T
   4    -28.8449346 -0.291194E-07  0.128E-03    4.82      18.4  T
   5    -28.8449346 -0.249140E-07  0.267E-04    4.82      88.2  T
   6    -28.8449346 -0.896101E-10  0.113E-04    4.82     208.1  T
     SCC iter.                  ...        0 min,  0.101 sec
     gradient                   ...        0 min,  0.039 sec
 * total energy  :   -28.4644616 Eh     change       -0.9823844E-05 Eh
   gradient norm :     0.0023303 Eh/α   predicted    -0.5661935E-05 ( -42.37%)
   displ. norm   :     0.0901417 α      lambda       -0.3096628E-04
   maximum displ.:     0.0493523 α      in ANC's #6, #2, #7, ...

........................................................................
.............................. CYCLE    9 ..............................
........................................................................

 iter      E             dE          RMSdq      gap      omega  full diag
   1    -28.8453275 -0.288453E+02  0.568E-02    4.82       0.0  T
   2    -28.8453290 -0.142533E-05  0.329E-02    4.82       1.0  T
   3    -28.8453288  0.148072E-06  0.603E-03    4.82       3.9  T
   4    -28.8453290 -0.199751E-06  0.342E-03    4.82       6.9  T
   5    -28.8453292 -0.160355E-06  0.113E-03    4.82      20.8  T
   6    -28.8453292 -0.357824E-08  0.474E-04    4.82      49.7  T
   7    -28.8453292 -0.116217E-08  0.129E-04    4.82     183.0  T
     SCC iter.                  ...        0 min,  0.092 sec
     gradient                   ...        0 min,  0.039 sec
 * total energy  :   -28.4644800 Eh     change       -0.1835042E-04 Eh
   gradient norm :     0.0008744 Eh/α   predicted    -0.1560948E-04 ( -14.94%)
   displ. norm   :     0.0593046 α      lambda       -0.5268814E-05
   maximum displ.:     0.0376393 α      in ANC's #6, #2, #7, ...

........................................................................
.............................. CYCLE   10 ..............................
........................................................................

 iter      E             dE          RMSdq      gap      omega  full diag
   1    -28.8453541 -0.288454E+02  0.341E-02    4.82       0.0  T
   2    -28.8453542 -0.162960E-06  0.199E-02    4.82       1.2  T
   3    -28.8453542 -0.814694E-08  0.230E-03    4.82      10.2  T
   4    -28.8453543 -0.434117E-07  0.127E-03    4.82      18.6  T
   5    -28.8453543 -0.134703E-07  0.524E-04    4.82      45.0  T
   6    -28.8453543 -0.503203E-09  0.120E-04    4.82     195.8  T
     SCC iter.                  ...        0 min,  0.071 sec
     gradient                   ...        0 min,  0.026 sec
 * total energy  :   -28.4644855 Eh     change       -0.5492979E-05 Eh
   gradient norm :     0.0010900 Eh/α   predicted    -0.2639050E-05 ( -51.96%)
   displ. norm   :     0.0651094 α      lambda       -0.6368534E-05
   maximum displ.:     0.0464368 α      in ANC's #6, #7, #5, ...

........................................................................
.............................. CYCLE   11 ..............................
........................................................................

 iter      E             dE          RMSdq      gap      omega  full diag
   1    -28.8453300 -0.288453E+02  0.345E-02    4.81       0.0  T
   2    -28.8453301 -0.189921E-06  0.203E-02    4.81       1.2  T
   3    -28.8453302 -0.354861E-07  0.163E-03    4.81      14.5  T
   4    -28.8453302 -0.120964E-07  0.862E-04    4.81      27.3  T
   5    -28.8453302 -0.838682E-09  0.512E-04    4.81      46.0  T
     SCC iter.                  ...        0 min,  0.054 sec
     gradient                   ...        0 min,  0.031 sec
 * total energy  :   -28.4644928 Eh     change       -0.7331419E-05 Eh
   gradient norm :     0.0012032 Eh/α   predicted    -0.3190174E-05 ( -56.49%)
   displ. norm   :     0.1039573 α      lambda       -0.9438150E-05
   maximum displ.:     0.0744806 α      in ANC's #6, #7, #5, ...

........................................................................
.............................. CYCLE   12 ..............................
........................................................................

 iter      E             dE          RMSdq      gap      omega  full diag
   1    -28.8451828 -0.288452E+02  0.537E-02    4.81       0.0  T
   2    -28.8451831 -0.359182E-06  0.312E-02    4.81       1.0  T
   3    -28.8451832 -0.106500E-06  0.254E-03    4.81       9.3  T
   4    -28.8451832 -0.144298E-07  0.181E-03    4.81      13.0  T
   5    -28.8451833 -0.223689E-07  0.886E-04    4.81      26.6  T
   6    -28.8451833 -0.406481E-08  0.240E-04    4.81      98.2  T
     SCC iter.                  ...        0 min,  0.062 sec
     gradient                   ...        0 min,  0.026 sec
 * total energy  :   -28.4645021 Eh     change       -0.9264553E-05 Eh
   gradient norm :     0.0014241 Eh/α   predicted    -0.4742738E-05 ( -48.81%)
   displ. norm   :     0.0746532 α      lambda       -0.6109126E-05
   maximum displ.:     0.0485516 α      in ANC's #6, #7, #5, ...

........................................................................
.............................. CYCLE   13 ..............................
........................................................................

 iter      E             dE          RMSdq      gap      omega  full diag
   1    -28.8451332 -0.288451E+02  0.483E-02    4.80       0.0  T
   2    -28.8451336 -0.446359E-06  0.277E-02    4.80       1.0  T
   3    -28.8451337 -0.130496E-06  0.196E-03    4.80      12.0  T
   4    -28.8451337 -0.481078E-08  0.109E-03    4.80      21.7  T
   5    -28.8451337  0.138191E-08  0.657E-04    4.80      35.9  T
   6    -28.8451337 -0.427468E-08  0.214E-04    4.80     110.3  T
     SCC iter.                  ...        0 min,  0.069 sec
     gradient                   ...        0 min,  0.033 sec
 * total energy  :   -28.4645070 Eh     change       -0.4954273E-05 Eh
   gradient norm :     0.0014490 Eh/α   predicted    -0.3060156E-05 ( -38.23%)
   displ. norm   :     0.0294693 α      lambda       -0.2896759E-05
   maximum displ.:     0.0182710 α      in ANC's #2, #1, #6, ...

........................................................................
.............................. CYCLE   14 ..............................
........................................................................

 iter      E             dE          RMSdq      gap      omega  full diag
   1    -28.8454473 -0.288454E+02  0.227E-02    4.81       0.0  T
   2    -28.8454475 -0.203484E-06  0.128E-02    4.81       1.8  T
   3    -28.8454476 -0.415744E-07  0.105E-03    4.81      22.5  T
   4    -28.8454476 -0.415917E-08  0.528E-04    4.81      44.7  T
   5    -28.8454476 -0.684633E-09  0.348E-04    4.81      67.8  T
     SCC iter.                  ...        0 min,  0.057 sec
     gradient                   ...        0 min,  0.034 sec
 * total energy  :   -28.4645092 Eh     change       -0.2155539E-05 Eh
   gradient norm :     0.0006268 Eh/α   predicted    -0.1450048E-05 ( -32.73%)
   displ. norm   :     0.0258771 α      lambda       -0.1599381E-05
   maximum displ.:     0.0172309 α      in ANC's #6, #8, #7, ...

........................................................................
.............................. CYCLE   15 ..............................
........................................................................

 iter      E             dE          RMSdq      gap      omega  full diag
   1    -28.8451791 -0.288452E+02  0.177E-02    4.80       0.0  T
   2    -28.8451792 -0.863474E-07  0.103E-02    4.81       2.3  T
   3    -28.8451792  0.265585E-07  0.203E-03    4.80      11.6  T
   4    -28.8451792 -0.453503E-07  0.721E-04    4.81      32.7  T
   5    -28.8451792 -0.435289E-08  0.408E-04    4.81      57.8  T
     SCC iter.                  ...        0 min,  0.050 sec
     gradient                   ...        0 min,  0.033 sec
 * total energy  :   -28.4645104 Eh     change       -0.1258872E-05 Eh
   gradient norm :     0.0005233 Eh/α   predicted    -0.7978049E-06 ( -36.63%)
   displ. norm   :     0.0213252 α      lambda       -0.1504920E-05
   maximum displ.:     0.0130070 α      in ANC's #2, #4, #3, ...

........................................................................
.............................. CYCLE   16 ..............................
........................................................................

 iter      E             dE          RMSdq      gap      omega  full diag
   1    -28.8452299 -0.288452E+02  0.778E-03    4.81       0.0  T
   2    -28.8452299 -0.578203E-08  0.458E-03    4.81       5.1  T
   3    -28.8452299  0.253075E-08  0.586E-04    4.81      40.3  T
   4    -28.8452299 -0.408339E-08  0.253E-04    4.81      93.0  T
     SCC iter.                  ...        0 min,  0.046 sec
     gradient                   ...        0 min,  0.030 sec
 * total energy  :   -28.4645123 Eh     change       -0.1823915E-05 Eh
   gradient norm :     0.0006231 Eh/α   predicted    -0.7515190E-06 ( -58.80%)
   displ. norm   :     0.0470706 α      lambda       -0.2793816E-05
   maximum displ.:     0.0288442 α      in ANC's #2, #8, #1, ...

........................................................................
.............................. CYCLE   17 ..............................
........................................................................

 iter      E             dE          RMSdq      gap      omega  full diag
   1    -28.8451777 -0.288452E+02  0.247E-02    4.80       0.0  T
   2    -28.8451778 -0.525674E-07  0.144E-02    4.80       1.6  T
   3    -28.8451778 -0.229852E-07  0.878E-04    4.80      26.9  T
   4    -28.8451778 -0.765795E-09  0.515E-04    4.80      45.8  T
     SCC iter.                  ...        0 min,  0.040 sec
     gradient                   ...        0 min,  0.033 sec
 * total energy  :   -28.4645154 Eh     change       -0.3139541E-05 Eh
   gradient norm :     0.0007131 Eh/α   predicted    -0.1398596E-05 ( -55.45%)
   displ. norm   :     0.0533348 α      lambda       -0.2133592E-05
   maximum displ.:     0.0334583 α      in ANC's #2, #8, #1, ...

........................................................................
.............................. CYCLE   18 ..............................
........................................................................

 iter      E             dE          RMSdq      gap      omega  full diag
   1    -28.8451837 -0.288452E+02  0.329E-02    4.80       0.0  T
   2    -28.8451838 -0.111322E-06  0.191E-02    4.80       1.2  T
   3    -28.8451839 -0.402209E-07  0.145E-03    4.80      16.2  T
   4    -28.8451839 -0.522125E-08  0.107E-03    4.80      22.1  T
   5    -28.8451839 -0.896086E-08  0.345E-04    4.80      68.4  T
   6    -28.8451839 -0.480945E-09  0.121E-04    4.80     195.4  T
     SCC iter.                  ...        0 min,  0.068 sec
     gradient                   ...        0 min,  0.033 sec
 * total energy  :   -28.4645178 Eh     change       -0.2376787E-05 Eh
   gradient norm :     0.0006327 Eh/α   predicted    -0.1067000E-05 ( -55.11%)
   displ. norm   :     0.0515461 α      lambda       -0.1433330E-05
   maximum displ.:     0.0309449 α      in ANC's #2, #8, #1, ...

........................................................................
.............................. CYCLE   19 ..............................
........................................................................

 iter      E             dE          RMSdq      gap      omega  full diag
   1    -28.8451508 -0.288452E+02  0.346E-02    4.80       0.0  T
   2    -28.8451509 -0.133553E-06  0.200E-02    4.80       1.2  T
   3    -28.8451510 -0.539662E-07  0.145E-03    4.80      16.3  T
   4    -28.8451510 -0.656417E-09  0.107E-03    4.80      22.0  T
   5    -28.8451510 -0.887571E-08  0.401E-04    4.80      58.7  T
   6    -28.8451510 -0.108269E-08  0.143E-04    4.80     164.7  T
     SCC iter.                  ...        0 min,  0.089 sec
     gradient                   ...        0 min,  0.039 sec
 * total energy  :   -28.4645192 Eh     change       -0.1409886E-05 Eh
   gradient norm :     0.0004214 Eh/α   predicted    -0.7174616E-06 ( -49.11%)
   displ. norm   :     0.0224783 α      lambda       -0.5388432E-06
   maximum displ.:     0.0127391 α      in ANC's #2, #8, #5, ...

........................................................................
.............................. CYCLE   20 ..............................
........................................................................

 iter      E             dE          RMSdq      gap      omega  full diag
   1    -28.8452554 -0.288453E+02  0.152E-02    4.80       0.0  T
   2    -28.8452554 -0.317539E-07  0.881E-03    4.80       2.7  T
   3    -28.8452555 -0.119018E-08  0.105E-03    4.80      22.4  T
   4    -28.8452555 -0.111440E-07  0.503E-04    4.80      46.9  T
   5    -28.8452555 -0.947455E-09  0.305E-04    4.80      77.2  T
     SCC iter.                  ...        0 min,  0.047 sec
     gradient                   ...        0 min,  0.028 sec
 * total energy  :   -28.4645197 Eh     change       -0.5522489E-06 Eh
   gradient norm :     0.0001611 Eh/α   predicted    -0.2689678E-06 ( -51.30%)
   displ. norm   :     0.0176736 α      lambda       -0.2861066E-06
   maximum displ.:     0.0088342 α      in ANC's #5, #8, #6, ...

   *** GEOMETRY OPTIMIZATION CONVERGED AFTER 20 ITERATIONS ***

------------------------------------------------------------------------
 total energy gain   :        -0.0047730 Eh       -2.9951 kcal/mol
 total RMSD          :         0.1665405 a0        0.0881 Å
 total power (kW/mol):        -0.6265707 (step)   -4.6656 (real)
------------------------------------------------------------------------

 ANCopt (total)                0 d,  0 h,  0 min,  2.686 sec
 optimizer setup                ...        0 min,  0.001 sec (  0.021%)
 model hessian                  ...        0 min,  0.003 sec (  0.112%)
 ANC generation                 ...        0 min,  0.000 sec (  0.019%)
 coordinate transformation      ...        0 min,  0.000 sec (  0.006%)
 single point calculation       ...        0 min,  2.608 sec ( 97.100%)
 optimization log               ...        0 min,  0.003 sec (  0.116%)
 hessian update                 ...        0 min,  0.065 sec (  2.411%)
 rational function              ...        0 min,  0.003 sec (  0.122%)

================
 final structure:
================
18
 xtb: 6.7.1 (edcfbbe)
C            3.08778973598727        0.07466512047459        0.51036421238613
C            1.91194729961558       -0.67356875242833       -0.08652131928391
O            0.70643227193214       -0.01125353929901        0.31480830386339
C           -0.41742861583349       -0.40528921075211       -0.27149196621576
O           -0.50264380731683       -1.28872538964830       -1.07760916516835
C           -1.59565776836239        0.44784253513646        0.21412526535723
C           -2.93140806258682       -0.25595631762199       -0.02842584976556
C           -1.53024423405746        1.68993364665243       -0.52213810808103
N           -1.48284586565072        2.66569061859512       -1.11445599335893
H            4.01375425606441       -0.41287273587514        0.22026344763766
H            3.01509264584743        0.08464505107436        1.59449218873954
H            3.09805492468811        1.10075528867281        0.15300285427319
H            1.87440753928962       -1.70970241207155        0.26785877151292
H            1.95632063142987       -0.68715326332722       -1.18072147461656
H           -1.44317300572796        0.67561489033994        1.27462425613949
H           -3.75855201306660        0.40655921457989        0.21453925532360
H           -2.99528807101404       -1.14839960884571        0.58905243452192
H           -3.00655786123812       -0.55278513565717       -1.07176711326598

 Bond Distances (Angstroems)
 ---------------------------
C1-C2=1.5162         C1-H10=1.0859        C1-H11=1.0866        C1-H12=1.0866        C2-C1=1.5162         C2-O3=1.4328         
C2-H13=1.0957        C2-H14=1.0952        O3-C2=1.4328         O3-C4=1.3274         C4-O3=1.3274         C4-O5=1.1990         
C4-C6=1.5336         O5-C4=1.1990         C6-C4=1.5336         C6-C7=1.5292         C6-C8=1.4454         C6-H15=1.0953        
C7-C6=1.5292         C7-H16=1.0873        C7-H17=1.0871        C7-H18=1.0873        C8-C6=1.4454         C8-N9=1.1424         
N9-C8=1.1424         H10-C1=1.0859        H11-C1=1.0866        H12-C1=1.0866        H13-C2=1.0957        H14-C2=1.0952        
H15-C6=1.0953        H16-C7=1.0873        H17-C7=1.0871        H18-C7=1.0873        
 C  H  Rav=1.0897 sigma=0.0041  Rmin=1.0859  Rmax=1.0957     9
 C  C  Rav=1.5061 sigma=0.0356  Rmin=1.4454  Rmax=1.5336     4
 N  C  Rav=1.1424 sigma=0.0000  Rmin=1.1424  Rmax=1.1424     1
 O  C  Rav=1.3197 sigma=0.0956  Rmin=1.1990  Rmax=1.4328     3

 selected bond angles (degree)
 --------------------
H10-C1-C2=109.55               H11-C1-C2=110.21               H11-C1-H10=109.13              H12-C1-C2=110.11               
H12-C1-H10=109.15              H12-C1-H11=108.67              O3-C2-C1=108.31                H13-C2-C1=111.46               
H13-C2-O3=108.52               H14-C2-C1=111.59               H14-C2-O3=108.64               H14-C2-H13=108.23              
C4-O3-C2=116.83                O5-C4-O3=125.16                C6-C4-O3=110.21                C6-C4-O5=124.62                
C7-C6-C4=111.40                C8-C6-C4=106.38                C8-C6-C7=110.75                H15-C6-C4=108.38               
H15-C6-C7=111.77               H15-C6-C8=107.95               H16-C7-C6=110.40               H17-C7-C6=109.82               
H17-C7-H16=109.18              H18-C7-C6=109.77               H18-C7-H16=109.16              H18-C7-H17=108.47              
N9-C8-C6=179.36                

 selected dihedral angles (degree)
 ---------------------------------
O3-C2-C1-H10=179.86           O3-C2-C1-H11= 59.78           O3-C2-C1-H12=299.90           H13-C2-C1-H10= 60.54          
H13-C2-C1-H11=300.46          H13-C2-C1-H12=180.59          H14-C2-C1-H10=299.40          H14-C2-C1-H11=179.32          
H14-C2-C1-H12= 59.45          C4-O3-C2-C1=170.36            C4-O3-C2-H13=291.51           C4-O3-C2-H14= 48.98           
O5-C4-O3-C2=  2.05            C6-C4-O3-C2=182.92            C7-C6-C4-O3=200.17            C7-C6-C4-O5= 21.03            
C8-C6-C4-O3= 79.39            C8-C6-C4-O5=260.25            H15-C6-C4-O3=323.53           H15-C6-C4-O5=144.39           
H16-C7-C6-C4=186.51           H16-C7-C6-C8=304.69           H16-C7-C6-H15= 65.10          H17-C7-C6-C4= 66.06           
H17-C7-C6-C8=184.25           H17-C7-C6-H15=304.65          H18-C7-C6-C4=306.89           H18-C7-C6-C8= 65.08           
H18-C7-C6-H15=185.48          N9-C8-C6-C4= 74.35            N9-C8-C6-C7=313.15            N9-C8-C6-H15=190.50           
           -------------------------------------------------
          |                Final Singlepoint                |
           -------------------------------------------------

          ...................................................
          :                      SETUP                      :
          :.................................................:
          :  # basis functions                  45          :
          :  # atomic orbitals                  45          :
          :  # shells                           27          :
          :  # electrons                        50          :
          :  max. iterations                   250          :
          :  Hamiltonian                  GFN2-xTB          :
          :  restarted?                      false          :
          :  GBSA solvation                  false          :
          :  PC potential                    false          :
          :  electronic temp.          300.0000000     K    :
          :  accuracy                    1.0000000          :
          :  -> integral cutoff          0.2500000E+02      :
          :  -> integral neglect         0.1000000E-07      :
          :  -> SCF convergence          0.1000000E-05 Eh   :
          :  -> wf. convergence          0.1000000E-03 e    :
          :  Broyden damping             0.4000000          :
          :  net charge                          0          :
          :  unpaired electrons                  0          :
          ...................................................

 iter      E             dE          RMSdq      gap      omega  full diag
   1    -28.8452555 -0.288453E+02  0.796E-05    4.80       0.0  T
   2    -28.8452555 -0.102673E-10  0.522E-05    4.80     451.1  T
   3    -28.8452555 -0.302691E-11  0.383E-05    4.80     615.3  T

   *** convergence criteria satisfied after 3 iterations ***

         #    Occupation            Energy/Eh            Energy/eV
      -------------------------------------------------------------
         1        2.0000           -0.7634493             -20.7745
       ...           ...                  ...                  ...
        19        2.0000           -0.4863439             -13.2341
        20        2.0000           -0.4818076             -13.1107
        21        2.0000           -0.4788977             -13.0315
        22        2.0000           -0.4700008             -12.7894
        23        2.0000           -0.4533206             -12.3355
        24        2.0000           -0.4386956             -11.9375
        25        2.0000           -0.4295458             -11.6885 (HOMO)
        26                         -0.2531775              -6.8893 (LUMO)
        27                         -0.2157671              -5.8713
        28                         -0.2064681              -5.6183
        29                         -0.0186313              -0.5070
        30                          0.0868411               2.3631
       ...                                ...                  ...
        45                          1.1346671              30.8759
      -------------------------------------------------------------
                  HL-Gap            0.1763684 Eh            4.7992 eV
             Fermi-level           -0.3413617 Eh           -9.2889 eV

 SCC (total)                   0 d,  0 h,  0 min,  0.144 sec
 SCC setup                      ...        0 min,  0.003 sec (  2.116%)
 Dispersion                     ...        0 min,  0.010 sec (  7.185%)
 classical contributions        ...        0 min,  0.002 sec (  1.558%)
 integral evaluation            ...        0 min,  0.008 sec (  5.378%)
 iterations                     ...        0 min,  0.086 sec ( 59.499%)
 molecular gradient             ...        0 min,  0.035 sec ( 24.168%)
 printout                       ...        0 min,  0.000 sec (  0.075%)

         :::::::::::::::::::::::::::::::::::::::::::::::::::::
         ::                     SUMMARY                     ::
         :::::::::::::::::::::::::::::::::::::::::::::::::::::
         :: total energy             -28.464519744478 Eh    ::
         :: gradient norm              0.000160227032 Eh/a0 ::
         :: HOMO-LUMO gap              4.799228061860 eV    ::
         ::.................................................::
         :: SCC energy               -28.845231000519 Eh    ::
         :: -> isotropic ES            0.051713969322 Eh    ::
         :: -> anisotropic ES          0.001808197273 Eh    ::
         :: -> anisotropic XC          0.020723268245 Eh    ::
         :: -> dispersion             -0.011407590032 Eh    ::
         :: repulsion energy           0.380711256041 Eh    ::
         :: add. restraining           0.000000000000 Eh    ::
         :: total charge              -0.000000000000 e     ::
         :::::::::::::::::::::::::::::::::::::::::::::::::::::

           -------------------------------------------------
          |                Property Printout                |
           -------------------------------------------------

    * Orbital Energies and Occupations

         #    Occupation            Energy/Eh            Energy/eV
      -------------------------------------------------------------
         1        2.0000           -0.7634493             -20.7745
       ...           ...                  ...                  ...
        13        2.0000           -0.5328345             -14.4992
        14        2.0000           -0.5258125             -14.3081
        15        2.0000           -0.5196871             -14.1414
        16        2.0000           -0.4970483             -13.5254
        17        2.0000           -0.4921493             -13.3921
        18        2.0000           -0.4902529             -13.3405
        19        2.0000           -0.4863439             -13.2341
        20        2.0000           -0.4818076             -13.1107
        21        2.0000           -0.4788977             -13.0315
        22        2.0000           -0.4700008             -12.7894
        23        2.0000           -0.4533206             -12.3355
        24        2.0000           -0.4386956             -11.9375
        25        2.0000           -0.4295458             -11.6885 (HOMO)
        26                         -0.2531775              -6.8893 (LUMO)
        27                         -0.2157671              -5.8713
        28                         -0.2064681              -5.6183
        29                         -0.0186313              -0.5070
        30                          0.0868411               2.3631
        31                          0.0969628               2.6385
        32                          0.1129955               3.0748
        33                          0.1217275               3.3124
        34                          0.1312894               3.5726
        35                          0.1339774               3.6457
        36                          0.1424840               3.8772
       ...                                ...                  ...
        45                          1.1346671              30.8759
      -------------------------------------------------------------
                  HL-Gap            0.1763684 Eh            4.7992 eV
             Fermi-level           -0.3413617 Eh           -9.2889 eV

     #   Z          covCN         q      C6AA      α(0)
     1   6 C        3.751    -0.117    22.803     6.810
     2   6 C        3.701     0.084    19.337     6.288
     3   8 O        1.704    -0.263    18.359     5.785
     4   6 C        2.737     0.366    20.788     7.465
     5   8 O        0.856    -0.394    21.570     6.227
     6   6 C        3.854    -0.031    21.091     6.532
     7   6 C        3.760    -0.099    22.437     6.753
     8   6 C        1.918     0.121    28.119     8.564
     9   7 N        0.911    -0.219    25.785     7.344
    10   1 H        0.925     0.057     2.231     2.336
    11   1 H        0.925     0.061     2.188     2.313
    12   1 H        0.925     0.063     2.167     2.302
    13   1 H        0.924     0.053     2.285     2.364
    14   1 H        0.924     0.057     2.234     2.337
    15   1 H        0.924     0.084     1.940     2.178
    16   1 H        0.925     0.054     2.265     2.353
    17   1 H        0.925     0.055     2.262     2.352
    18   1 H        0.925     0.068     2.103     2.268

 Mol. C6AA /au·bohr⁶  :       3084.181188
 Mol. C8AA /au·bohr⁸  :      68720.480133
 Mol. α(0) /au        :         82.569993


Wiberg/Mayer (AO) data.
largest (>0.10) Wiberg bond orders for each atom

 ---------------------------------------------------------------------------
     #   Z sym  total        # sym  WBO       # sym  WBO       # sym  WBO
 ---------------------------------------------------------------------------
     1   6 C    3.989 --     2 C    1.020    11 H    0.985    12 H    0.985
                            10 H    0.982
     2   6 C    3.920 --     1 C    1.020    14 H    0.969    13 H    0.969
                             3 O    0.926
     3   8 O    2.317 --     4 C    1.154     2 C    0.926     5 O    0.179
     4   6 C    3.921 --     5 O    1.765     3 O    1.154     6 C    0.912
     5   8 O    2.065 --     4 C    1.765     3 O    0.179
     6   6 C    3.994 --     8 C    1.024     7 C    0.980    15 H    0.930
                             4 C    0.912
     7   6 C    3.987 --    16 H    0.985    18 H    0.984    17 H    0.984
                             6 C    0.980
     8   6 C    3.947 --     9 N    2.851     6 C    1.024
     9   7 N    3.018 --     8 C    2.851
    10   1 H    0.996 --     1 C    0.982
    11   1 H    0.996 --     1 C    0.985
    12   1 H    0.996 --     1 C    0.985
    13   1 H    0.997 --     2 C    0.969
    14   1 H    0.997 --     2 C    0.969
    15   1 H    0.993 --     6 C    0.930
    16   1 H    0.996 --     7 C    0.985
    17   1 H    0.997 --     7 C    0.984
    18   1 H    0.995 --     7 C    0.984
 ---------------------------------------------------------------------------

Topologies differ in total number of bonds
Writing topology from bond orders to xtbtopo.mol

molecular dipole:
                 x           y           z       tot (Debye)
 q only:        0.492      -0.324       0.938
   full:        0.493      -0.680       1.240       3.808
molecular quadrupole (traceless):
                xx          xy          yy          xz          yz          zz
 q only:       11.584       1.072      -8.804      -2.669       0.806      -2.780
  q+dip:       10.775       1.898     -10.566      -4.728       1.036      -0.209
   full:       12.268       1.998     -11.725      -4.698       1.864      -0.543

           -------------------------------------------------
          |                Geometry Summary                 |
           -------------------------------------------------

      molecular mass/u    :      127.1413952
   center of mass at/Å    :       -0.2552215       0.1952035      -0.2198146
  moments of inertia/u·Å² :        0.1889431E+03   0.5031165E+03   0.6158063E+03
rotational constants/cm⁻¹ :        0.8922070E-01   0.3350642E-01   0.2737490E-01

 * 15 selected distances

     #   Z          #   Z                                           value/Å
     1   6 C        2   6 C                                       1.5161570
     2   6 C        3   8 O                                       1.4328272
     3   8 O        4   6 C                                       1.3274320
     4   6 C        5   8 O                                       1.1989772
     6   6 C        7   6 C                                       1.5291805 (max)
     8   6 C        9   7 N                                       1.1424487
     1   6 C       10   1 H                                       1.0859384 (min)
     1   6 C       11   1 H                                       1.0866086
     1   6 C       12   1 H                                       1.0865881
     2   6 C       13   1 H                                       1.0957042
     2   6 C       14   1 H                                       1.0951839
     6   6 C       15   1 H                                       1.0953493
     7   6 C       16   1 H                                       1.0872563
     7   6 C       17   1 H                                       1.0871133
     7   6 C       18   1 H                                       1.0873436

 * 4 distinct bonds (by element types)

   Z      Z             #   av. dist./Å        max./Å        min./Å
   1 H    6 C           9     1.0896762     1.0957042     1.0859384
   6 C    6 C           2     1.5226688     1.5291805     1.5161570
   6 C    7 N           1     1.1424487     1.1424487     1.1424487
   6 C    8 O           3     1.3197455     1.4328272     1.1989772


optimized geometry written to: xtbopt.xyz


           -------------------------------------------------
          | TOTAL ENERGY              -28.464519744478 Eh   |
          | GRADIENT NORM               0.000160227032 Eh/α |
          | HOMO-LUMO GAP               4.799228061860 eV   |
           -------------------------------------------------

------------------------------------------------------------------------
 * finished run on 2026/07/08 at 21:46:31.567     
------------------------------------------------------------------------
 total:
 * wall-time:     0 d,  0 h,  0 min,  3.168 sec
 *  cpu-time:     0 d,  0 h,  0 min, 50.492 sec
 * ratio c/w:    15.937 speedup
 SCF:
 * wall-time:     0 d,  0 h,  0 min,  0.270 sec
 *  cpu-time:     0 d,  0 h,  0 min,  4.332 sec
 * ratio c/w:    16.013 speedup
 ANC optimizer:
 * wall-time:     0 d,  0 h,  0 min,  2.835 sec
 *  cpu-time:     0 d,  0 h,  0 min, 45.225 sec
 * ratio c/w:    15.953 speedup

