18
DEC_00116 MMFF geometry for GFN2-xTB preoptimization
C   3.114822012201  0.042700636606  0.504556731780
C   1.908815965319 -0.643993788051 -0.105838249116
O   0.738094087737  0.098062298412  0.261702524078
C  -0.428574110005 -0.401584189147 -0.240731587490
O  -0.512617702271 -1.413881519686 -0.923766913680
C  -1.594932825228  0.459597469549  0.186988286786
C  -2.922145626627 -0.257310755172 -0.042959835802
C  -1.555543720959  1.725394049434 -0.550834649301
N  -1.540371926213  2.735219725015 -1.123196338753
H   4.036283685146 -0.488953224932  0.251360628674
H   3.021254329871  0.089214228844  1.594592164653
H   3.192314413093  1.074950128477  0.147387186957
H   1.831501704341 -1.667475588592  0.277547206742
H   2.006484810550 -0.663635028309 -1.197022074627
H  -1.496432100426  0.642394779169  1.263940821817
H  -3.762880095305  0.352576497003  0.306247158237
H  -2.948729321925 -1.211106088476  0.495500596942
H  -3.087343579299 -0.472169630145 -1.105473657898
