      -----------------------------------------------------------      
     |                   =====================                   |     
     |                           x T B                           |     
     |                   =====================                   |     
     |                         S. Grimme                         |     
     |          Mulliken Center for Theoretical Chemistry        |     
     |                    University of Bonn                     |     
      -----------------------------------------------------------      

   * xtb version 6.7.1 (edcfbbe) compiled by 'conda@5dfe00f5fb80' on 2026-06-10

   xtb is free software: you can redistribute it and/or modify it under
   the terms of the GNU Lesser General Public License as published by
   the Free Software Foundation, either version 3 of the License, or
   (at your option) any later version.
   
   xtb is distributed in the hope that it will be useful,
   but WITHOUT ANY WARRANTY; without even the implied warranty of
   MERCHANTABILITY or FITNESS FOR A PARTICULAR PURPOSE.  See the
   GNU Lesser General Public License for more details.
   
   Cite this work as:
   * C. Bannwarth, E. Caldeweyher, S. Ehlert, A. Hansen, P. Pracht,
     J. Seibert, S. Spicher, S. Grimme, WIREs Comput. Mol. Sci., 2020, 11,
     e01493. DOI: 10.1002/wcms.1493
   
   for GFN2-xTB:
   * C. Bannwarth, S. Ehlert and S. Grimme., J. Chem. Theory Comput., 2019,
     15, 1652-1671. DOI: 10.1021/acs.jctc.8b01176
   for GFN1-xTB:
   * S. Grimme, C. Bannwarth, P. Shushkov, J. Chem. Theory Comput., 2017,
     13, 1989-2009. DOI: 10.1021/acs.jctc.7b00118
   for GFN0-xTB:
   * P. Pracht, E. Caldeweyher, S. Ehlert, S. Grimme, ChemRxiv, 2019, preprint.
     DOI: 10.26434/chemrxiv.8326202.v1
   for GFN-FF:
   * S. Spicher and S. Grimme, Angew. Chem. Int. Ed., 2020, 59, 15665-15673.
     DOI: 10.1002/anie.202004239
   
   for ALPB and GBSA implicit solvation:
   * S. Ehlert, M. Stahn, S. Spicher, S. Grimme, J. Chem. Theory Comput.,
     2021, 17, 4250-4261. DOI: 10.1021/acs.jctc.1c00471
   
   for ddCOSMO and CPCM-X implicit solvation:
   * M. Stahn, S. Ehlert, S. Grimme, J. Phys. Chem. A,
     2023, XX, XXXX-XXXX. DOI: 10.1021/acs.jpca.3c04382
   
   for DFT-D4:
   * E. Caldeweyher, C. Bannwarth and S. Grimme, J. Chem. Phys., 2017,
     147, 034112. DOI: 10.1063/1.4993215
   * E. Caldeweyher, S. Ehlert, A. Hansen, H. Neugebauer, S. Spicher,
     C. Bannwarth and S. Grimme, J. Chem. Phys., 2019, 150, 154122.
     DOI: 10.1063/1.5090222
   * E. Caldeweyher, J.-M. Mewes, S. Ehlert and S. Grimme, Phys. Chem. Chem. Phys.
     2020, 22, 8499-8512. DOI: 10.1039/D0CP00502A
   
   for sTDA-xTB:
   * S. Grimme and C. Bannwarth, J. Chem. Phys., 2016, 145, 054103.
     DOI: 10.1063/1.4959605
   
   in the mass-spec context:
   * V. Asgeirsson, C. Bauer and S. Grimme, Chem. Sci., 2017, 8, 4879.
     DOI: 10.1039/c7sc00601b
   * J. Koopman and S. Grimme, ACS Omega 2019, 4, 12, 15120-15133.
     DOI: 10.1021/acsomega.9b02011
   
   for metadynamics refer to:
   * S. Grimme, J. Chem. Theory Comput., 2019, 155, 2847-2862
     DOI: 10.1021/acs.jctc.9b00143
   
   for SPH calculations refer to:
   * S. Spicher and S. Grimme, J. Chem. Theory Comput., 2021, 17, 1701-1714
     DOI: 10.1021/acs.jctc.0c01306
   
   for ONIOM refer to:
   * C. Plett, A. Katbashev, S. Ehlert, S. Grimme, M. Bursch,
     Phys. Chem. Chem. Phys., 2023, 25, 17860-17868. DOI: 10.1039/D3CP02178E
   
   for DIPRO refer to:
   * J. Kohn, N. Gildemeister, S. Grimme, D. Fazzi, A. Hansen,
     J. Chem. Phys., 2023, just accepted.
   
   for PTB refer to:
   * S. Grimme, M. Mueller, A. Hansen, J. Chem. Phys., 2023, 158, 124111.
     DOI: 10.1063/5.0137838
   
   with help from (in alphabetical order)
   P. Atkinson, C. Bannwarth, F. Bohle, G. Brandenburg, E. Caldeweyher
   M. Checinski, S. Dohm, S. Ehlert, S. Ehrlich, I. Gerasimov, C. Hölzer
   A. Katbashev, J. Kohn, J. Koopman, C. Lavigne, S. Lehtola, F. März, M. Müller,
   F. Musil, H. Neugebauer, J. Pisarek, C. Plett, P. Pracht, F. Pultar,
   J. Seibert, P. Shushkov, S. Spicher, M. Stahn, M. Steiner, T. Strunk,
   J. Stückrath, T. Rose, and J. Unsleber
   
 * started run on 2026/07/09 at 14:10:56.362     
   ID    Z sym.   atoms
    1    6 C      1-12
    2    1 H      13-30

           -------------------------------------------------
          |                Calculation Setup                |
           -------------------------------------------------

          program call               : /home/ws/xd2484/miniforge3/envs/p3z_dft/bin/xtb xtb_input.xyz --gfn 2 --opt tight --cycles 500 --chrg 0 --uhf 0
          hostname                   : gpu10
          coordinate file            : xtb_input.xyz
          omp threads                :                    16


           -------------------------------------------------
          |                 G F N 2 - x T B                 |
           -------------------------------------------------

        Reference                      10.1021/acs.jctc.8b01176
      * Hamiltonian:
        H0-scaling (s, p, d)           1.850000    2.230000    2.230000
        zeta-weighting                 0.500000
      * Dispersion:
        s8                             2.700000
        a1                             0.520000
        a2                             5.000000
        s9                             5.000000
      * Repulsion:
        kExp                           1.500000    1.000000
        rExp                           1.000000
      * Coulomb:
        alpha                          2.000000
        third order                    shell-resolved
        anisotropic                    true
        a3                             3.000000
        a5                             4.000000
        cn-shift                       1.200000
        cn-exp                         4.000000
        max-rad                        5.000000


          ...................................................
          :                      SETUP                      :
          :.................................................:
          :  # basis functions                  66          :
          :  # atomic orbitals                  66          :
          :  # shells                           42          :
          :  # electrons                        66          :
          :  max. iterations                   250          :
          :  Hamiltonian                  GFN2-xTB          :
          :  restarted?                      false          :
          :  GBSA solvation                  false          :
          :  PC potential                    false          :
          :  electronic temp.          300.0000000     K    :
          :  accuracy                    1.0000000          :
          :  -> integral cutoff          0.2500000E+02      :
          :  -> integral neglect         0.1000000E-07      :
          :  -> SCF convergence          0.1000000E-05 Eh   :
          :  -> wf. convergence          0.1000000E-03 e    :
          :  Broyden damping             0.4000000          :
          :  net charge                          0          :
          :  unpaired electrons                  0          :
          ...................................................

 iter      E             dE          RMSdq      gap      omega  full diag
   1    -35.3980083 -0.353980E+02  0.325E+00    4.51       0.0  T
   2    -35.4413243 -0.433160E-01  0.190E+00    4.53       1.0  T
   3    -35.4390447  0.227964E-02  0.862E-01    4.49       1.0  T
   4    -35.4441999 -0.515526E-02  0.337E-01    4.49       1.0  T
   5    -35.4455701 -0.137022E-02  0.670E-02    4.50       1.0  T
   6    -35.4455976 -0.274825E-04  0.353E-02    4.49       1.0  T
   7    -35.4456018 -0.417734E-05  0.132E-02    4.50       1.4  T
   8    -35.4456026 -0.785384E-06  0.257E-03    4.49       7.1  T
   9    -35.4456028 -0.196524E-06  0.660E-04    4.49      27.7  T
  10    -35.4456028 -0.339040E-08  0.352E-04    4.49      51.9  T

   *** convergence criteria satisfied after 10 iterations ***

         #    Occupation            Energy/Eh            Energy/eV
      -------------------------------------------------------------
         1        2.0000           -0.6306289             -17.1603
       ...           ...                  ...                  ...
        27        2.0000           -0.4391964             -11.9511
        28        2.0000           -0.4280231             -11.6471
        29        2.0000           -0.4267328             -11.6120
        30        2.0000           -0.4069550             -11.0738
        31        2.0000           -0.4048285             -11.0159
        32        2.0000           -0.3786192             -10.3028
        33        2.0000           -0.3759137             -10.2291 (HOMO)
        34                         -0.2107735              -5.7354 (LUMO)
        35                         -0.2087021              -5.6791
        36                         -0.0903447              -2.4584
        37                          0.0497218               1.3530
        38                          0.0754786               2.0539
       ...                                ...                  ...
        66                          0.6210281              16.8990
      -------------------------------------------------------------
                  HL-Gap            0.1651402 Eh            4.4937 eV
             Fermi-level           -0.2933436 Eh           -7.9823 eV

 SCC (total)                   0 d,  0 h,  0 min,  0.248 sec
 SCC setup                      ...        0 min,  0.001 sec (  0.571%)
 Dispersion                     ...        0 min,  0.004 sec (  1.470%)
 classical contributions        ...        0 min,  0.003 sec (  1.101%)
 integral evaluation            ...        0 min,  0.006 sec (  2.244%)
 iterations                     ...        0 min,  0.191 sec ( 76.967%)
 molecular gradient             ...        0 min,  0.044 sec ( 17.556%)
 printout                       ...        0 min,  0.000 sec (  0.078%)

         :::::::::::::::::::::::::::::::::::::::::::::::::::::
         ::                     SUMMARY                     ::
         :::::::::::::::::::::::::::::::::::::::::::::::::::::
         :: total energy             -34.883017751076 Eh    ::
         :: gradient norm              0.035084361419 Eh/a0 ::
         :: HOMO-LUMO gap              4.493693455886 eV    ::
         ::.................................................::
         :: SCC energy               -35.445377980330 Eh    ::
         :: -> isotropic ES            0.005719389020 Eh    ::
         :: -> anisotropic ES          0.010232148740 Eh    ::
         :: -> anisotropic XC          0.022155987409 Eh    ::
         :: -> dispersion             -0.025503195013 Eh    ::
         :: repulsion energy           0.562360229254 Eh    ::
         :: add. restraining           0.000000000000 Eh    ::
         :: total charge               0.000000000000 e     ::
         :::::::::::::::::::::::::::::::::::::::::::::::::::::

      ----------------------------------------------------------- 
     |                   =====================                   |
     |                        A N C O P T                        |
     |                   =====================                   |
     |               Approximate Normal Coordinate               |
     |                Rational Function Optimizer                |
      ----------------------------------------------------------- 
      ----------------------------------------------------------- 
     |                   =====================                   |
     |                        A N C O P T                        |
     |                   =====================                   |
     |               Approximate Normal Coordinate               |
     |                Rational Function Optimizer                |
      ----------------------------------------------------------- 

          ...................................................
          :                      SETUP                      :
          :.................................................:
          :   optimization level             tight          :
          :   max. optcycles                   500          :
          :   ANC micro-cycles                  20          :
          :   degrees of freedom                84          :
          :.................................................:
          :   RF solver                   davidson          :
          :   write xtbopt.log                true          :
          :   linear?                        false          :
          :   energy convergence         0.1000000E-05 Eh   :
          :   grad. convergence          0.8000000E-03 Eh/α :
          :   maxmium RF displ.          1.0000000          :
          :   Hlow (freq-cutoff)         0.1000000E-01      :
          :   Hmax (freq-cutoff)         5.0000000          :
          :   S6 in model hess.         20.0000000          :
          ...................................................

generating ANC from exact Hessian ...
Using Lindh-Hessian (1995)
 Shifting diagonal of input Hessian by    9.3163437861446905E-003
 Lowest  eigenvalues of input Hessian
    0.000000    0.000000    0.000000    0.000000    0.000000    0.000000
    0.010000    0.010849    0.012243    0.013570    0.015069    0.016216
    0.016985    0.017234    0.017630    0.017822    0.018210    0.018862
 Highest eigenvalues
    1.374140    1.513838    1.531578    1.800675    1.895846    1.905400


........................................................................
.............................. CYCLE    1 ..............................
........................................................................

 iter      E             dE          RMSdq      gap      omega  full diag
   1    -35.4456028 -0.354456E+02  0.116E-04    4.49       0.0  T
   2    -35.4456028 -0.142933E-09  0.677E-05    4.49     269.8  T
   3    -35.4456028 -0.970388E-10  0.356E-05    4.49     512.7  T
     SCC iter.                  ...        0 min,  0.038 sec
     gradient                   ...        0 min,  0.035 sec
 * total energy  :   -34.8830178 Eh     change       -0.1102812E-08 Eh
   gradient norm :     0.0350853 Eh/α   predicted     0.0000000E+00 (-100.00%)
   displ. norm   :     0.2550792 α      lambda       -0.4870564E-02
   maximum displ.:     0.1715401 α      in ANC's #20, #6, #14, ...

........................................................................
.............................. CYCLE    2 ..............................
........................................................................

 iter      E             dE          RMSdq      gap      omega  full diag
   1    -35.4779045 -0.354779E+02  0.148E-01    4.61       0.0  T
   2    -35.4779195 -0.150020E-04  0.876E-02    4.61       1.0  T
   3    -35.4779090  0.105023E-04  0.224E-02    4.61       1.0  T
   4    -35.4779216 -0.126628E-04  0.556E-03    4.61       3.3  T
   5    -35.4779223 -0.707671E-06  0.178E-03    4.61      10.3  T
   6    -35.4779223 -0.469818E-08  0.784E-04    4.61      23.3  T
   7    -35.4779223 -0.343267E-08  0.175E-04    4.61     104.3  T
     SCC iter.                  ...        0 min,  0.095 sec
     gradient                   ...        0 min,  0.042 sec
 * total energy  :   -34.8860873 Eh     change       -0.3069502E-02 Eh
   gradient norm :     0.0090439 Eh/α   predicted    -0.2593809E-02 ( -15.50%)
   displ. norm   :     0.1435493 α      lambda       -0.6181106E-03
   maximum displ.:     0.0983641 α      in ANC's #6, #20, #14, ...

........................................................................
.............................. CYCLE    3 ..............................
........................................................................

 iter      E             dE          RMSdq      gap      omega  full diag
   1    -35.4898627 -0.354899E+02  0.585E-02    4.65       0.0  T
   2    -35.4898657 -0.299299E-05  0.350E-02    4.65       1.0  T
   3    -35.4898622  0.348862E-05  0.134E-02    4.65       1.4  T
   4    -35.4898666 -0.440088E-05  0.214E-03    4.65       8.5  T
   5    -35.4898667 -0.655483E-07  0.754E-04    4.65      24.2  T
   6    -35.4898667 -0.121022E-08  0.329E-04    4.65      55.6  T
     SCC iter.                  ...        0 min,  0.079 sec
     gradient                   ...        0 min,  0.038 sec
 * total energy  :   -34.8864210 Eh     change       -0.3337564E-03 Eh
   gradient norm :     0.0019860 Eh/α   predicted    -0.3157264E-03 (  -5.40%)
   displ. norm   :     0.0729969 α      lambda       -0.3577544E-04
   maximum displ.:     0.0624051 α      in ANC's #6, #3, #10, ...

........................................................................
.............................. CYCLE    4 ..............................
........................................................................

 iter      E             dE          RMSdq      gap      omega  full diag
   1    -35.4900472 -0.354900E+02  0.175E-02    4.65       0.0  T
   2    -35.4900474 -0.146947E-06  0.105E-02    4.65       1.7  T
   3    -35.4900471  0.294843E-06  0.388E-03    4.65       4.7  T
   4    -35.4900475 -0.370102E-06  0.562E-04    4.65      32.5  T
   5    -35.4900475 -0.163032E-08  0.171E-04    4.65     106.5  T
     SCC iter.                  ...        0 min,  0.060 sec
     gradient                   ...        0 min,  0.035 sec
 * total energy  :   -34.8864497 Eh     change       -0.2873493E-04 Eh
   gradient norm :     0.0008287 Eh/α   predicted    -0.1793710E-04 ( -37.58%)
   displ. norm   :     0.0350315 α      lambda       -0.8132232E-05
   maximum displ.:     0.0216756 α      in ANC's #3, #6, #10, ...

........................................................................
.............................. CYCLE    5 ..............................
........................................................................

 iter      E             dE          RMSdq      gap      omega  full diag
   1    -35.4894319 -0.354894E+02  0.978E-03    4.65       0.0  T
   2    -35.4894319 -0.159551E-07  0.579E-03    4.65       3.2  T
   3    -35.4894319  0.147706E-07  0.855E-04    4.65      21.3  T
   4    -35.4894319 -0.202701E-07  0.223E-04    4.65      81.9  T
     SCC iter.                  ...        0 min,  0.059 sec
     gradient                   ...        0 min,  0.040 sec
 * total energy  :   -34.8864565 Eh     change       -0.6764665E-05 Eh
   gradient norm :     0.0006258 Eh/α   predicted    -0.4073615E-05 ( -39.78%)
   displ. norm   :     0.0243003 α      lambda       -0.2743276E-05
   maximum displ.:     0.0148689 α      in ANC's #3, #10, #14, ...

........................................................................
.............................. CYCLE    6 ..............................
........................................................................

 iter      E             dE          RMSdq      gap      omega  full diag
   1    -35.4894089 -0.354894E+02  0.634E-03    4.65       0.0  T
   2    -35.4894089 -0.580566E-08  0.375E-03    4.65       4.9  T
   3    -35.4894089  0.104682E-07  0.703E-04    4.65      26.0  T
   4    -35.4894089 -0.130772E-07  0.126E-04    4.65     144.6  T
     SCC iter.                  ...        0 min,  0.059 sec
     gradient                   ...        0 min,  0.042 sec
 * total energy  :   -34.8864590 Eh     change       -0.2444116E-05 Eh
   gradient norm :     0.0002394 Eh/α   predicted    -0.1372957E-05 ( -43.83%)
   displ. norm   :     0.0182086 α      lambda       -0.1118646E-05
   maximum displ.:     0.0128908 α      in ANC's #10, #3, #2, ...

........................................................................
.............................. CYCLE    7 ..............................
........................................................................

 iter      E             dE          RMSdq      gap      omega  full diag
   1    -35.4895980 -0.354896E+02  0.391E-03    4.65       0.0  T
   2    -35.4895980 -0.229593E-08  0.233E-03    4.65       7.8  T
   3    -35.4895980  0.252221E-09  0.183E-04    4.65      99.7  T
   4    -35.4895980 -0.696517E-09  0.783E-05    4.65     233.3  T
     SCC iter.                  ...        0 min,  0.063 sec
     gradient                   ...        0 min,  0.049 sec
 * total energy  :   -34.8864601 Eh     change       -0.1167190E-05 Eh
   gradient norm :     0.0001980 Eh/α   predicted    -0.5611740E-06 ( -51.92%)
   displ. norm   :     0.0202155 α      lambda       -0.8887387E-06
   maximum displ.:     0.0150999 α      in ANC's #10, #2, #6, ...

........................................................................
.............................. CYCLE    8 ..............................
........................................................................

 iter      E             dE          RMSdq      gap      omega  full diag
   1    -35.4895834 -0.354896E+02  0.392E-03    4.65       0.0  T
   2    -35.4895834 -0.103839E-08  0.235E-03    4.65       7.8  T
   3    -35.4895834  0.138762E-09  0.164E-04    4.65     111.7  T
   4    -35.4895834 -0.555502E-09  0.646E-05    4.65     282.5  T
     SCC iter.                  ...        0 min,  0.057 sec
     gradient                   ...        0 min,  0.037 sec
 * total energy  :   -34.8864611 Eh     change       -0.9343579E-06 Eh
   gradient norm :     0.0001614 Eh/α   predicted    -0.4447890E-06 ( -52.40%)
   displ. norm   :     0.0202155 α      lambda        0.0000000E+00
   maximum displ.:     0.0150999 α      in ANC's #10, #2, #6, ...

   *** GEOMETRY OPTIMIZATION CONVERGED AFTER 8 ITERATIONS ***

------------------------------------------------------------------------
 total energy gain   :        -0.0034433 Eh       -2.1607 kcal/mol
 total RMSD          :         0.0837016 a0        0.0443 Å
 total power (kW/mol):        -1.1300494 (step)   -8.0208 (real)
------------------------------------------------------------------------

 ANCopt (total)                0 d,  0 h,  0 min,  1.127 sec
 optimizer setup                ...        0 min,  0.001 sec (  0.071%)
 model hessian                  ...        0 min,  0.018 sec (  1.582%)
 ANC generation                 ...        0 min,  0.001 sec (  0.119%)
 coordinate transformation      ...        0 min,  0.000 sec (  0.010%)
 single point calculation       ...        0 min,  1.077 sec ( 95.534%)
 optimization log               ...        0 min,  0.001 sec (  0.102%)
 hessian update                 ...        0 min,  0.027 sec (  2.393%)
 rational function              ...        0 min,  0.001 sec (  0.061%)

================
 final structure:
================
30
 xtb: 6.7.1 (edcfbbe)
C            2.15291015840516        2.72040178800465       -0.93207375943908
C            1.59946209128124        1.38327386532235       -0.53678359126968
C            2.42975621054005        0.27939406284000       -0.43185440229241
C            1.91494975812090       -0.96170992759454       -0.08598442171979
C            2.81046613125981       -2.16144766809190        0.00708587646168
C            0.55491725315145       -1.08136143472471        0.15195887044214
C           -0.30588491236569        0.00757834692905        0.05471334127227
C           -1.78940566623111       -0.18943322120702        0.33028438352589
C           -1.96911538020443       -0.70811712453611        1.76381405558741
C           -2.35106258655719       -1.21211356748926       -0.66726079329193
C           -2.59572434849042        1.10444267071630        0.18927838375179
C            0.23967562043268        1.23534452274303       -0.29231423317721
H            2.09046257381339        2.84419929696643       -2.01402066470233
H            3.19771675729692        2.80940550582934       -0.64323057503323
H            1.58894268854344        3.52726799307560       -0.46920288398402
H            3.48946141891007        0.38589341628004       -0.61880650659655
H            2.84730664172372       -2.67426751914399       -0.95492716140541
H            2.44103188176399       -2.86590154506110        0.74912876790998
H            3.82434613541321       -1.86994906838659        0.27175740006492
H            0.16843262830978       -2.05334588821817        0.42160527294407
H           -1.54909683924610        0.00053798466000        2.47467997703777
H           -3.02649064008409       -0.83621955642006        1.98689672346236
H           -1.47385001453590       -1.66468951857168        1.90455187575972
H           -2.20602246552638       -0.86048192316667       -1.68673527397062
H           -1.85854709527029       -2.17522370018837       -0.56670309575557
H           -3.41670239584171       -1.35490623047824       -0.49907725625737
H           -3.64463506929393        0.90213145481141        0.39786148367876
H           -2.52517314661422        1.50173984237808       -0.82061611378015
H           -2.25269258670038        1.85793377925704        0.89449517425132
H           -0.38543480200200        2.10962336346408       -0.37852085347071

 Bond Distances (Angstroems)
 ---------------------------
C1-C2=1.5002         C1-H13=1.0908        C1-H14=1.0876        C1-H15=1.0878        C2-C1=1.5002         C2-C3=1.3853         
C2-C12=1.3895        C3-C2=1.3853         C3-C4=1.3874         C3-H16=1.0813        C4-C3=1.3874         C4-C5=1.5000         
C4-C6=1.3859         C5-C4=1.5000         C5-H17=1.0908        C5-H18=1.0878        C5-H19=1.0876        C6-C4=1.3859         
C6-C7=1.3915         C6-H20=1.0802        C7-C6=1.3915         C7-C8=1.5217         C7-C12=1.3876        C8-C7=1.5217         
C8-C9=1.5350         C8-C10=1.5351        C8-C11=1.5311        C9-C8=1.5350         C9-H21=1.0881        C9-H22=1.0882        
C9-H23=1.0863        C10-C8=1.5351        C10-H24=1.0881       C10-H25=1.0864       C10-H26=1.0882       C11-C8=1.5311        
C11-H27=1.0884       C11-H28=1.0875       C11-H29=1.0875       C12-C2=1.3895        C12-C7=1.3876        C12-H30=1.0782       
H13-C1=1.0908        H14-C1=1.0876        H15-C1=1.0878        H16-C3=1.0813        H17-C5=1.0908        H18-C5=1.0878        
H19-C5=1.0876        H20-C6=1.0802        H21-C9=1.0881        H22-C9=1.0882        H23-C9=1.0863        H24-C10=1.0881       
H25-C10=1.0864       H26-C10=1.0882       H27-C11=1.0884       H28-C11=1.0875       H29-C11=1.0875       H30-C12=1.0782       
 C  H  Rav=1.0867 sigma=0.0033  Rmin=1.0782  Rmax=1.0908    18
 C  C  Rav=1.4542 sigma=0.0672  Rmin=1.3853  Rmax=1.5351    12

 selected bond angles (degree)
 --------------------
H13-C1-C2=109.96               H14-C1-C2=110.94               H14-C1-H13=108.01              H15-C1-C2=110.96               
H15-C1-H13=107.95              H15-C1-H14=108.92              C3-C2-C1=120.60                C12-C2-C1=120.15               
C12-C2-C3=119.24               C4-C3-C2=120.62                H16-C3-C2=119.72               H16-C3-C4=119.66               
C5-C4-C3=120.62                C6-C4-C3=118.96                C6-C4-C5=120.41                H17-C5-C4=109.97               
H18-C5-C4=110.95               H18-C5-H17=107.98              H19-C5-C4=110.93               H19-C5-H17=108.01              
H19-C5-H18=108.91              C7-C6-C4=121.84                H20-C6-C4=118.14               H20-C6-C7=120.02               
C8-C7-C6=119.28                C12-C7-C6=117.82               C12-C7-C8=122.90               C9-C8-C7=109.09                
C10-C8-C7=108.98               C10-C8-C9=109.81               C11-C8-C7=112.79               C11-C8-C9=108.05               
C11-C8-C10=108.09              H21-C9-C8=110.17               H22-C9-C8=110.18               H22-C9-H21=108.53              
H23-C9-C8=111.42               H23-C9-H21=108.23              H23-C9-H22=108.23              H24-C10-C8=110.17              
H25-C10-C8=111.38              H25-C10-H24=108.23             H26-C10-C8=110.20              H26-C10-H24=108.53             
H26-C10-H25=108.26             

 selected dihedral angles (degree)
 ---------------------------------
C3-C2-C1-H13= 91.85           C3-C2-C1-H14=332.43           C3-C2-C1-H15=211.21           C12-C2-C1-H13=272.89          
C12-C2-C1-H14=153.47          C12-C2-C1-H15= 32.24          C4-C3-C2-C1=180.98            C4-C3-C2-C12=359.95           
H16-C3-C2-C1=  1.13           H16-C3-C2-C12=180.10          C5-C4-C3-C2=179.05            C5-C4-C3-H16=358.91           
C6-C4-C3-C2=  0.07            C6-C4-C3-H16=179.92           H17-C5-C4-C3=268.99           H17-C5-C4-C6= 87.96           
H18-C5-C4-C3=149.61           H18-C5-C4-C6=328.57           H19-C5-C4-C3= 28.41           H19-C5-C4-C6=207.37           
C7-C6-C4-C3=359.94            C7-C6-C4-C5=180.96            H20-C6-C4-C3=180.08           H20-C6-C4-C5=  1.10           
C8-C7-C6-C4=180.08            C8-C7-C6-H20=359.93           C12-C7-C6-C4=  0.02           C12-C7-C6-H20=179.88          
C9-C8-C7-C6= 59.59            C9-C8-C7-C12=239.65           C10-C8-C7-C6=299.70           C10-C8-C7-C12=119.76          
C11-C8-C7-C6=179.66           C11-C8-C7-C12=359.72          H21-C9-C8-C7= 59.13           H21-C9-C8-C10=178.51          
H21-C9-C8-C11=296.18          H22-C9-C8-C7=178.85           H22-C9-C8-C10=298.23          H22-C9-C8-C11= 55.90          
H23-C9-C8-C7=298.99           H23-C9-C8-C10= 58.36          H23-C9-C8-C11=176.04          H24-C10-C8-C7=300.73          
H24-C10-C8-C9=181.29          H24-C10-C8-C11= 63.64         H25-C10-C8-C7= 60.84          H25-C10-C8-C9=301.40          
H25-C10-C8-C11=183.75         H26-C10-C8-C7=181.01          H26-C10-C8-C9= 61.57          H26-C10-C8-C11=303.92         
           -------------------------------------------------
          |                Final Singlepoint                |
           -------------------------------------------------

          ...................................................
          :                      SETUP                      :
          :.................................................:
          :  # basis functions                  66          :
          :  # atomic orbitals                  66          :
          :  # shells                           42          :
          :  # electrons                        66          :
          :  max. iterations                   250          :
          :  Hamiltonian                  GFN2-xTB          :
          :  restarted?                      false          :
          :  GBSA solvation                  false          :
          :  PC potential                    false          :
          :  electronic temp.          300.0000000     K    :
          :  accuracy                    1.0000000          :
          :  -> integral cutoff          0.2500000E+02      :
          :  -> integral neglect         0.1000000E-07      :
          :  -> SCF convergence          0.1000000E-05 Eh   :
          :  -> wf. convergence          0.1000000E-03 e    :
          :  Broyden damping             0.4000000          :
          :  net charge                          0          :
          :  unpaired electrons                  0          :
          ...................................................

 iter      E             dE          RMSdq      gap      omega  full diag
   1    -35.4895834 -0.354896E+02  0.243E-05    4.65       0.0  T
   2    -35.4895834 -0.228795E-11  0.146E-05    4.65    1252.4  T
   3    -35.4895834 -0.788702E-12  0.867E-06    4.65    2106.0  T

   *** convergence criteria satisfied after 3 iterations ***

         #    Occupation            Energy/Eh            Energy/eV
      -------------------------------------------------------------
         1        2.0000           -0.6345282             -17.2664
       ...           ...                  ...                  ...
        27        2.0000           -0.4385790             -11.9343
        28        2.0000           -0.4292004             -11.6791
        29        2.0000           -0.4275015             -11.6329
        30        2.0000           -0.4060487             -11.0491
        31        2.0000           -0.4035858             -10.9821
        32        2.0000           -0.3797435             -10.3333
        33        2.0000           -0.3776631             -10.2767 (HOMO)
        34                         -0.2068802              -5.6295 (LUMO)
        35                         -0.2049833              -5.5779
        36                         -0.0816148              -2.2209
        37                          0.0705496               1.9198
        38                          0.0914775               2.4892
       ...                                ...                  ...
        66                          0.6630431              18.0423
      -------------------------------------------------------------
                  HL-Gap            0.1707829 Eh            4.6472 eV
             Fermi-level           -0.2922717 Eh           -7.9531 eV

 SCC (total)                   0 d,  0 h,  0 min,  0.098 sec
 SCC setup                      ...        0 min,  0.004 sec (  3.868%)
 Dispersion                     ...        0 min,  0.008 sec (  8.247%)
 classical contributions        ...        0 min,  0.003 sec (  3.026%)
 integral evaluation            ...        0 min,  0.011 sec ( 11.776%)
 iterations                     ...        0 min,  0.036 sec ( 37.066%)
 molecular gradient             ...        0 min,  0.035 sec ( 35.847%)
 printout                       ...        0 min,  0.000 sec (  0.143%)

         :::::::::::::::::::::::::::::::::::::::::::::::::::::
         ::                     SUMMARY                     ::
         :::::::::::::::::::::::::::::::::::::::::::::::::::::
         :: total energy             -34.886461055767 Eh    ::
         :: gradient norm              0.000161453668 Eh/a0 ::
         :: HOMO-LUMO gap              4.647238157884 eV    ::
         ::.................................................::
         :: SCC energy               -35.489353401756 Eh    ::
         :: -> isotropic ES            0.006100099281 Eh    ::
         :: -> anisotropic ES          0.009441351071 Eh    ::
         :: -> anisotropic XC          0.021084317175 Eh    ::
         :: -> dispersion             -0.025833575101 Eh    ::
         :: repulsion energy           0.602892345989 Eh    ::
         :: add. restraining           0.000000000000 Eh    ::
         :: total charge               0.000000000000 e     ::
         :::::::::::::::::::::::::::::::::::::::::::::::::::::

           -------------------------------------------------
          |                Property Printout                |
           -------------------------------------------------

    * Orbital Energies and Occupations

         #    Occupation            Energy/Eh            Energy/eV
      -------------------------------------------------------------
         1        2.0000           -0.6345282             -17.2664
       ...           ...                  ...                  ...
        21        2.0000           -0.4634806             -12.6119
        22        2.0000           -0.4615624             -12.5598
        23        2.0000           -0.4533207             -12.3355
        24        2.0000           -0.4471137             -12.1666
        25        2.0000           -0.4435628             -12.0700
        26        2.0000           -0.4412474             -12.0070
        27        2.0000           -0.4385790             -11.9343
        28        2.0000           -0.4292004             -11.6791
        29        2.0000           -0.4275015             -11.6329
        30        2.0000           -0.4060487             -11.0491
        31        2.0000           -0.4035858             -10.9821
        32        2.0000           -0.3797435             -10.3333
        33        2.0000           -0.3776631             -10.2767 (HOMO)
        34                         -0.2068802              -5.6295 (LUMO)
        35                         -0.2049833              -5.5779
        36                         -0.0816148              -2.2209
        37                          0.0705496               1.9198
        38                          0.0914775               2.4892
        39                          0.1021168               2.7787
        40                          0.1168112               3.1786
        41                          0.1176050               3.2002
        42                          0.1267042               3.4478
        43                          0.1549013               4.2151
        44                          0.1664562               4.5295
       ...                                ...                  ...
        66                          0.6630431              18.0423
      -------------------------------------------------------------
                  HL-Gap            0.1707829 Eh            4.6472 eV
             Fermi-level           -0.2922717 Eh           -7.9531 eV

     #   Z          covCN         q      C6AA      α(0)
     1   6 C        3.758    -0.107    22.597     6.777
     2   6 C        2.964     0.012    27.740     8.639
     3   6 C        2.930    -0.054    29.348     8.884
     4   6 C        2.964     0.012    27.739     8.639
     5   6 C        3.758    -0.107    22.590     6.776
     6   6 C        2.934    -0.051    29.271     8.873
     7   6 C        2.971     0.005    27.906     8.665
     8   6 C        3.903     0.025    20.091     6.371
     9   6 C        3.762    -0.104    22.539     6.768
    10   6 C        3.762    -0.104    22.539     6.768
    11   6 C        3.761    -0.106    22.574     6.773
    12   6 C        2.931    -0.055    29.373     8.888
    13   1 H        0.924     0.043     2.408     2.427
    14   1 H        0.925     0.039     2.463     2.454
    15   1 H        0.925     0.039     2.459     2.452
    16   1 H        0.925     0.024     2.672     2.556
    17   1 H        0.924     0.043     2.408     2.427
    18   1 H        0.925     0.039     2.466     2.456
    19   1 H        0.925     0.039     2.461     2.453
    20   1 H        0.926     0.025     2.655     2.548
    21   1 H        0.925     0.033     2.547     2.495
    22   1 H        0.925     0.035     2.519     2.482
    23   1 H        0.925     0.036     2.506     2.476
    24   1 H        0.925     0.033     2.549     2.497
    25   1 H        0.925     0.036     2.504     2.474
    26   1 H        0.925     0.035     2.518     2.482
    27   1 H        0.925     0.034     2.532     2.489
    28   1 H        0.925     0.035     2.516     2.481
    29   1 H        0.925     0.035     2.518     2.482
    30   1 H        0.926     0.032     2.555     2.499

 Mol. C6AA /au·bohr⁶  :       7869.888628
 Mol. C8AA /au·bohr⁸  :     178842.047492
 Mol. α(0) /au        :        137.450918


Wiberg/Mayer (AO) data.
largest (>0.10) Wiberg bond orders for each atom

 ---------------------------------------------------------------------------
     #   Z sym  total        # sym  WBO       # sym  WBO       # sym  WBO
 ---------------------------------------------------------------------------
     1   6 C    3.996 --     2 C    1.023    14 H    0.983    15 H    0.982
                            13 H    0.969
     2   6 C    3.989 --     3 C    1.422    12 C    1.406     1 C    1.023
                             6 C    0.106
     3   6 C    3.989 --     2 C    1.422     4 C    1.408    16 H    0.968
                             7 C    0.106
     4   6 C    3.989 --     6 C    1.422     3 C    1.408     5 C    1.023
                            12 C    0.104
     5   6 C    3.996 --     4 C    1.023    19 H    0.983    18 H    0.982
                            17 H    0.969
     6   6 C    3.991 --     4 C    1.422     7 C    1.407    20 H    0.964
                             2 C    0.106
     7   6 C    3.987 --    12 C    1.425     6 C    1.407     8 C    0.983
                             3 C    0.106
     8   6 C    3.991 --    11 C    1.000     9 C    0.988    10 C    0.988
                             7 C    0.983
     9   6 C    3.996 --     8 C    0.988    21 H    0.987    22 H    0.985
                            23 H    0.984
    10   6 C    3.996 --     8 C    0.988    24 H    0.987    26 H    0.985
                            25 H    0.984
    11   6 C    3.996 --     8 C    1.000    29 H    0.985    28 H    0.985
                            27 H    0.985
    12   6 C    3.990 --     7 C    1.425     2 C    1.406    30 H    0.964
                             4 C    0.104
    13   1 H    0.998 --     1 C    0.969
    14   1 H    0.998 --     1 C    0.983
    15   1 H    0.998 --     1 C    0.982
    16   1 H    0.999 --     3 C    0.968
    17   1 H    0.998 --     5 C    0.969
    18   1 H    0.998 --     5 C    0.982
    19   1 H    0.998 --     5 C    0.983
    20   1 H    0.999 --     6 C    0.964
    21   1 H    0.999 --     9 C    0.987
    22   1 H    0.998 --     9 C    0.985
    23   1 H    0.999 --     9 C    0.984
    24   1 H    0.999 --    10 C    0.987
    25   1 H    0.999 --    10 C    0.984
    26   1 H    0.998 --    10 C    0.985
    27   1 H    0.998 --    11 C    0.985
    28   1 H    0.999 --    11 C    0.985
    29   1 H    0.999 --    11 C    0.985
    30   1 H    0.999 --    12 C    0.964
 ---------------------------------------------------------------------------

Topologies differ in total number of bonds
Writing topology from bond orders to xtbtopo.mol

molecular dipole:
                 x           y           z       tot (Debye)
 q only:       -0.036      -0.005      -0.018
   full:       -0.013      -0.015      -0.041       0.117
molecular quadrupole (traceless):
                xx          xy          yy          xz          yz          zz
 q only:        0.708      -0.147       1.220      -0.607      -0.724      -1.928
  q+dip:        2.676      -0.176       2.271      -1.596      -1.689      -4.946
   full:        1.424      -0.143       1.468      -1.045      -1.037      -2.892

           -------------------------------------------------
          |                Geometry Summary                 |
           -------------------------------------------------

      molecular mass/u    :      162.2717643
   center of mass at/Å    :        0.1824588       0.0282239      -0.0304536
  moments of inertia/u·Å² :        0.3906952E+03   0.7268305E+03   0.1000452E+04
rotational constants/cm⁻¹ :        0.4314778E-01   0.2319335E-01   0.1685002E-01

 * 27 selected distances

     #   Z          #   Z                                           value/Å
     2   6 C        3   6 C                                       1.3852615
     3   6 C        4   6 C                                       1.3874405
     4   6 C        6   6 C                                       1.3858652
     6   6 C        7   6 C                                       1.3914838
     8   6 C        9   6 C                                       1.5350363
     8   6 C       10   6 C                                       1.5350669 (max)
     8   6 C       11   6 C                                       1.5310610
     2   6 C       12   6 C                                       1.3894848
     7   6 C       12   6 C                                       1.3876147
     1   6 C       13   1 H                                       1.0907955
     1   6 C       14   1 H                                       1.0876457
     1   6 C       15   1 H                                       1.0878153
     3   6 C       16   1 H                                       1.0813272
     5   6 C       17   1 H                                       1.0907845
     5   6 C       18   1 H                                       1.0878257
     5   6 C       19   1 H                                       1.0876467
     6   6 C       20   1 H                                       1.0802007
     9   6 C       21   1 H                                       1.0880893
     9   6 C       22   1 H                                       1.0882182
     9   6 C       23   1 H                                       1.0863360
    10   6 C       24   1 H                                       1.0881222
    10   6 C       25   1 H                                       1.0863999
    10   6 C       26   1 H                                       1.0882389
    11   6 C       27   1 H                                       1.0884166
    11   6 C       28   1 H                                       1.0875245
    11   6 C       29   1 H                                       1.0875434
    12   6 C       30   1 H                                       1.0782200 (min)

 * 2 distinct bonds (by element types)

   Z      Z             #   av. dist./Å        max./Å        min./Å
   1 H    6 C          18     1.0867306     1.0907955     1.0782200
   6 C    6 C           9     1.4364794     1.5350669     1.3852615


optimized geometry written to: xtbopt.xyz


           -------------------------------------------------
          | TOTAL ENERGY              -34.886461055767 Eh   |
          | GRADIENT NORM               0.000161453668 Eh/α |
          | HOMO-LUMO GAP               4.647238157884 eV   |
           -------------------------------------------------

------------------------------------------------------------------------
 * finished run on 2026/07/09 at 14:10:57.898     
------------------------------------------------------------------------
 total:
 * wall-time:     0 d,  0 h,  0 min,  1.536 sec
 *  cpu-time:     0 d,  0 h,  0 min, 24.360 sec
 * ratio c/w:    15.861 speedup
 SCF:
 * wall-time:     0 d,  0 h,  0 min,  0.249 sec
 *  cpu-time:     0 d,  0 h,  0 min,  3.914 sec
 * ratio c/w:    15.745 speedup
 ANC optimizer:
 * wall-time:     0 d,  0 h,  0 min,  1.232 sec
 *  cpu-time:     0 d,  0 h,  0 min, 19.691 sec
 * ratio c/w:    15.987 speedup

