      -----------------------------------------------------------      
     |                   =====================                   |     
     |                           x T B                           |     
     |                   =====================                   |     
     |                         S. Grimme                         |     
     |          Mulliken Center for Theoretical Chemistry        |     
     |                    University of Bonn                     |     
      -----------------------------------------------------------      

   * xtb version 6.7.1 (edcfbbe) compiled by 'conda@5dfe00f5fb80' on 2026-06-10

   xtb is free software: you can redistribute it and/or modify it under
   the terms of the GNU Lesser General Public License as published by
   the Free Software Foundation, either version 3 of the License, or
   (at your option) any later version.
   
   xtb is distributed in the hope that it will be useful,
   but WITHOUT ANY WARRANTY; without even the implied warranty of
   MERCHANTABILITY or FITNESS FOR A PARTICULAR PURPOSE.  See the
   GNU Lesser General Public License for more details.
   
   Cite this work as:
   * C. Bannwarth, E. Caldeweyher, S. Ehlert, A. Hansen, P. Pracht,
     J. Seibert, S. Spicher, S. Grimme, WIREs Comput. Mol. Sci., 2020, 11,
     e01493. DOI: 10.1002/wcms.1493
   
   for GFN2-xTB:
   * C. Bannwarth, S. Ehlert and S. Grimme., J. Chem. Theory Comput., 2019,
     15, 1652-1671. DOI: 10.1021/acs.jctc.8b01176
   for GFN1-xTB:
   * S. Grimme, C. Bannwarth, P. Shushkov, J. Chem. Theory Comput., 2017,
     13, 1989-2009. DOI: 10.1021/acs.jctc.7b00118
   for GFN0-xTB:
   * P. Pracht, E. Caldeweyher, S. Ehlert, S. Grimme, ChemRxiv, 2019, preprint.
     DOI: 10.26434/chemrxiv.8326202.v1
   for GFN-FF:
   * S. Spicher and S. Grimme, Angew. Chem. Int. Ed., 2020, 59, 15665-15673.
     DOI: 10.1002/anie.202004239
   
   for ALPB and GBSA implicit solvation:
   * S. Ehlert, M. Stahn, S. Spicher, S. Grimme, J. Chem. Theory Comput.,
     2021, 17, 4250-4261. DOI: 10.1021/acs.jctc.1c00471
   
   for ddCOSMO and CPCM-X implicit solvation:
   * M. Stahn, S. Ehlert, S. Grimme, J. Phys. Chem. A,
     2023, XX, XXXX-XXXX. DOI: 10.1021/acs.jpca.3c04382
   
   for DFT-D4:
   * E. Caldeweyher, C. Bannwarth and S. Grimme, J. Chem. Phys., 2017,
     147, 034112. DOI: 10.1063/1.4993215
   * E. Caldeweyher, S. Ehlert, A. Hansen, H. Neugebauer, S. Spicher,
     C. Bannwarth and S. Grimme, J. Chem. Phys., 2019, 150, 154122.
     DOI: 10.1063/1.5090222
   * E. Caldeweyher, J.-M. Mewes, S. Ehlert and S. Grimme, Phys. Chem. Chem. Phys.
     2020, 22, 8499-8512. DOI: 10.1039/D0CP00502A
   
   for sTDA-xTB:
   * S. Grimme and C. Bannwarth, J. Chem. Phys., 2016, 145, 054103.
     DOI: 10.1063/1.4959605
   
   in the mass-spec context:
   * V. Asgeirsson, C. Bauer and S. Grimme, Chem. Sci., 2017, 8, 4879.
     DOI: 10.1039/c7sc00601b
   * J. Koopman and S. Grimme, ACS Omega 2019, 4, 12, 15120-15133.
     DOI: 10.1021/acsomega.9b02011
   
   for metadynamics refer to:
   * S. Grimme, J. Chem. Theory Comput., 2019, 155, 2847-2862
     DOI: 10.1021/acs.jctc.9b00143
   
   for SPH calculations refer to:
   * S. Spicher and S. Grimme, J. Chem. Theory Comput., 2021, 17, 1701-1714
     DOI: 10.1021/acs.jctc.0c01306
   
   for ONIOM refer to:
   * C. Plett, A. Katbashev, S. Ehlert, S. Grimme, M. Bursch,
     Phys. Chem. Chem. Phys., 2023, 25, 17860-17868. DOI: 10.1039/D3CP02178E
   
   for DIPRO refer to:
   * J. Kohn, N. Gildemeister, S. Grimme, D. Fazzi, A. Hansen,
     J. Chem. Phys., 2023, just accepted.
   
   for PTB refer to:
   * S. Grimme, M. Mueller, A. Hansen, J. Chem. Phys., 2023, 158, 124111.
     DOI: 10.1063/5.0137838
   
   with help from (in alphabetical order)
   P. Atkinson, C. Bannwarth, F. Bohle, G. Brandenburg, E. Caldeweyher
   M. Checinski, S. Dohm, S. Ehlert, S. Ehrlich, I. Gerasimov, C. Hölzer
   A. Katbashev, J. Kohn, J. Koopman, C. Lavigne, S. Lehtola, F. März, M. Müller,
   F. Musil, H. Neugebauer, J. Pisarek, C. Plett, P. Pracht, F. Pultar,
   J. Seibert, P. Shushkov, S. Spicher, M. Stahn, M. Steiner, T. Strunk,
   J. Stückrath, T. Rose, and J. Unsleber
   
 * started run on 2026/07/07 at 17:04:04.819     
   ID    Z sym.   atoms
    1    8 O      1, 3, 10
    2    6 C      2, 4-9, 11-14
    3    1 H      15-32

           -------------------------------------------------
          |                Calculation Setup                |
           -------------------------------------------------

          program call               : /home/ws/xd2484/miniforge3/envs/p3z_dft/bin/xtb xtb_input.xyz --gfn 2 --opt tight --cycles 500 --chrg 0 --uhf 0
          hostname                   : gpu10
          coordinate file            : xtb_input.xyz
          omp threads                :                    16


           -------------------------------------------------
          |                 G F N 2 - x T B                 |
           -------------------------------------------------

        Reference                      10.1021/acs.jctc.8b01176
      * Hamiltonian:
        H0-scaling (s, p, d)           1.850000    2.230000    2.230000
        zeta-weighting                 0.500000
      * Dispersion:
        s8                             2.700000
        a1                             0.520000
        a2                             5.000000
        s9                             5.000000
      * Repulsion:
        kExp                           1.500000    1.000000
        rExp                           1.000000
      * Coulomb:
        alpha                          2.000000
        third order                    shell-resolved
        anisotropic                    true
        a3                             3.000000
        a5                             4.000000
        cn-shift                       1.200000
        cn-exp                         4.000000
        max-rad                        5.000000


          ...................................................
          :                      SETUP                      :
          :.................................................:
          :  # basis functions                  74          :
          :  # atomic orbitals                  74          :
          :  # shells                           46          :
          :  # electrons                        80          :
          :  max. iterations                   250          :
          :  Hamiltonian                  GFN2-xTB          :
          :  restarted?                      false          :
          :  GBSA solvation                  false          :
          :  PC potential                    false          :
          :  electronic temp.          300.0000000     K    :
          :  accuracy                    1.0000000          :
          :  -> integral cutoff          0.2500000E+02      :
          :  -> integral neglect         0.1000000E-07      :
          :  -> SCF convergence          0.1000000E-05 Eh   :
          :  -> wf. convergence          0.1000000E-03 e    :
          :  Broyden damping             0.4000000          :
          :  net charge                          0          :
          :  unpaired electrons                  0          :
          ...................................................

 iter      E             dE          RMSdq      gap      omega  full diag
   1    -45.3782186 -0.453782E+02  0.354E+00    5.23       0.0  T
   2    -45.4610658 -0.828472E-01  0.190E+00    4.18       1.0  T
   3    -45.4639016 -0.283576E-02  0.104E+00    4.48       1.0  T
   4    -45.4682462 -0.434465E-02  0.176E-01    4.14       1.0  T
   5    -45.4687592 -0.512993E-03  0.681E-02    4.25       1.0  T
   6    -45.4687717 -0.125422E-04  0.252E-02    4.26       1.0  T
   7    -45.4687736 -0.180530E-05  0.835E-03    4.27       2.1  T
   8    -45.4687739 -0.327772E-06  0.304E-03    4.26       5.8  T
   9    -45.4687739 -0.358297E-07  0.116E-03    4.26      15.2  T
  10    -45.4687739 -0.343503E-08  0.364E-04    4.26      48.6  T
  11    -45.4687739 -0.681929E-09  0.159E-04    4.26     111.5  T

   *** convergence criteria satisfied after 11 iterations ***

         #    Occupation            Energy/Eh            Energy/eV
      -------------------------------------------------------------
         1        2.0000           -0.7407763             -20.1575
       ...           ...                  ...                  ...
        34        2.0000           -0.4489238             -12.2158
        35        2.0000           -0.4475546             -12.1786
        36        2.0000           -0.4430287             -12.0554
        37        2.0000           -0.4291123             -11.6767
        38        2.0000           -0.4270099             -11.6195
        39        2.0000           -0.4191208             -11.4049
        40        2.0000           -0.4045471             -11.0083 (HOMO)
        41                         -0.2479072              -6.7459 (LUMO)
        42                         -0.0261801              -0.7124
        43                          0.0214568               0.5839
        44                          0.0480465               1.3074
        45                          0.0541917               1.4746
       ...                                ...                  ...
        74                          0.5664375              15.4136
      -------------------------------------------------------------
                  HL-Gap            0.1566398 Eh            4.2624 eV
             Fermi-level           -0.3262271 Eh           -8.8771 eV

 SCC (total)                   0 d,  0 h,  0 min,  0.364 sec
 SCC setup                      ...        0 min,  0.007 sec (  1.858%)
 Dispersion                     ...        0 min,  0.015 sec (  4.068%)
 classical contributions        ...        0 min,  0.007 sec (  2.000%)
 integral evaluation            ...        0 min,  0.023 sec (  6.436%)
 iterations                     ...        0 min,  0.261 sec ( 71.571%)
 molecular gradient             ...        0 min,  0.051 sec ( 14.004%)
 printout                       ...        0 min,  0.000 sec (  0.057%)

         :::::::::::::::::::::::::::::::::::::::::::::::::::::
         ::                     SUMMARY                     ::
         :::::::::::::::::::::::::::::::::::::::::::::::::::::
         :: total energy             -44.975883938630 Eh    ::
         :: gradient norm              0.067449598123 Eh/a0 ::
         :: HOMO-LUMO gap              4.262387101238 eV    ::
         ::.................................................::
         :: SCC energy               -45.468297377798 Eh    ::
         :: -> isotropic ES            0.070158712276 Eh    ::
         :: -> anisotropic ES          0.004181432453 Eh    ::
         :: -> anisotropic XC          0.011882436778 Eh    ::
         :: -> dispersion             -0.026792903609 Eh    ::
         :: repulsion energy           0.492413439168 Eh    ::
         :: add. restraining           0.000000000000 Eh    ::
         :: total charge               0.000000000000 e     ::
         :::::::::::::::::::::::::::::::::::::::::::::::::::::

      ----------------------------------------------------------- 
     |                   =====================                   |
     |                        A N C O P T                        |
     |                   =====================                   |
     |               Approximate Normal Coordinate               |
     |                Rational Function Optimizer                |
      ----------------------------------------------------------- 
      ----------------------------------------------------------- 
     |                   =====================                   |
     |                        A N C O P T                        |
     |                   =====================                   |
     |               Approximate Normal Coordinate               |
     |                Rational Function Optimizer                |
      ----------------------------------------------------------- 

          ...................................................
          :                      SETUP                      :
          :.................................................:
          :   optimization level             tight          :
          :   max. optcycles                   500          :
          :   ANC micro-cycles                  20          :
          :   degrees of freedom                90          :
          :.................................................:
          :   RF solver                   davidson          :
          :   write xtbopt.log                true          :
          :   linear?                        false          :
          :   energy convergence         0.1000000E-05 Eh   :
          :   grad. convergence          0.8000000E-03 Eh/α :
          :   maxmium RF displ.          1.0000000          :
          :   Hlow (freq-cutoff)         0.1000000E-01      :
          :   Hmax (freq-cutoff)         5.0000000          :
          :   S6 in model hess.         20.0000000          :
          ...................................................

generating ANC from exact Hessian ...
Using Lindh-Hessian (1995)
 Shifting diagonal of input Hessian by    9.3561111622761685E-003
 Lowest  eigenvalues of input Hessian
    0.000000    0.000000    0.000000    0.000000    0.000000    0.000000
    0.010000    0.010295    0.010781    0.013095    0.014179    0.018159
    0.020154    0.020535    0.022383    0.024154    0.026598    0.030028
 Highest eigenvalues
    1.259049    1.269442    1.296867    1.426180    1.673411    2.222418


........................................................................
.............................. CYCLE    1 ..............................
........................................................................

 iter      E             dE          RMSdq      gap      omega  full diag
   1    -45.4687739 -0.454688E+02  0.460E-05    4.26       0.0  T
   2    -45.4687739 -0.753886E-11  0.285E-05    4.26     620.8  T
   3    -45.4687739 -0.987654E-12  0.131E-05    4.26    1352.4  T
     SCC iter.                  ...        0 min,  0.084 sec
     gradient                   ...        0 min,  0.056 sec
 * total energy  :   -44.9758839 Eh     change       -0.1619611E-09 Eh
   gradient norm :     0.0674499 Eh/α   predicted     0.0000000E+00 (-100.00%)
   displ. norm   :     0.2616452 α      lambda       -0.7963154E-02
   maximum displ.:     0.1339763 α      in ANC's #7, #9, #19, ...

........................................................................
.............................. CYCLE    2 ..............................
........................................................................

 iter      E             dE          RMSdq      gap      omega  full diag
   1    -45.4874871 -0.454875E+02  0.205E-01    4.53       0.0  T
   2    -45.4875740 -0.869006E-04  0.123E-01    4.48       1.0  T
   3    -45.4875621  0.119260E-04  0.479E-02    4.51       1.0  T
   4    -45.4875908 -0.287249E-04  0.433E-03    4.49       4.1  T
   5    -45.4875909 -0.886700E-07  0.274E-03    4.49       6.4  T
   6    -45.4875909 -0.161636E-07  0.628E-04    4.49      28.1  T
   7    -45.4875909 -0.149172E-08  0.253E-04    4.49      69.9  T
     SCC iter.                  ...        0 min,  0.111 sec
     gradient                   ...        0 min,  0.043 sec
 * total energy  :   -44.9808856 Eh     change       -0.5001630E-02 Eh
   gradient norm :     0.0236048 Eh/α   predicted    -0.4254780E-02 ( -14.93%)
   displ. norm   :     0.1799222 α      lambda       -0.1342668E-02
   maximum displ.:     0.1261936 α      in ANC's #7, #9, #5, ...

........................................................................
.............................. CYCLE    3 ..............................
........................................................................

 iter      E             dE          RMSdq      gap      omega  full diag
   1    -45.4944243 -0.454944E+02  0.818E-02    4.57       0.0  T
   2    -45.4944604 -0.360989E-04  0.484E-02    4.55       1.0  T
   3    -45.4944625 -0.212225E-05  0.239E-02    4.56       1.0  T
   4    -45.4944648 -0.230187E-05  0.311E-03    4.55       5.7  T
   5    -45.4944649 -0.113983E-06  0.119E-03    4.55      14.9  T
   6    -45.4944649 -0.229815E-08  0.371E-04    4.55      47.6  T
   7    -45.4944649 -0.379437E-09  0.124E-04    4.55     142.5  T
     SCC iter.                  ...        0 min,  0.234 sec
     gradient                   ...        0 min,  0.062 sec
 * total energy  :   -44.9817249 Eh     change       -0.8393645E-03 Eh
   gradient norm :     0.0116708 Eh/α   predicted    -0.6930664E-03 ( -17.43%)
   displ. norm   :     0.1391290 α      lambda       -0.3831597E-03
   maximum displ.:     0.0970416 α      in ANC's #7, #9, #11, ...

........................................................................
.............................. CYCLE    4 ..............................
........................................................................

 iter      E             dE          RMSdq      gap      omega  full diag
   1    -45.4954566 -0.454955E+02  0.483E-02    4.55       0.0  T
   2    -45.4954760 -0.193432E-04  0.268E-02    4.55       1.0  T
   3    -45.4954766 -0.636368E-06  0.141E-02    4.55       1.3  T
   4    -45.4954768 -0.236612E-06  0.299E-03    4.55       5.9  T
   5    -45.4954770 -0.150636E-06  0.823E-04    4.55      21.5  T
   6    -45.4954770 -0.959680E-09  0.343E-04    4.55      51.6  T
     SCC iter.                  ...        0 min,  0.118 sec
     gradient                   ...        0 min,  0.056 sec
 * total energy  :   -44.9819909 Eh     change       -0.2659276E-03 Eh
   gradient norm :     0.0061487 Eh/α   predicted    -0.1952902E-03 ( -26.56%)
   displ. norm   :     0.1229918 α      lambda       -0.2002618E-03
   maximum displ.:     0.0741382 α      in ANC's #7, #9, #11, ...

........................................................................
.............................. CYCLE    5 ..............................
........................................................................

 iter      E             dE          RMSdq      gap      omega  full diag
   1    -45.4945680 -0.454946E+02  0.401E-02    4.54       0.0  T
   2    -45.4945767 -0.861746E-05  0.231E-02    4.54       1.0  T
   3    -45.4945769 -0.232050E-06  0.104E-02    4.54       1.7  T
   4    -45.4945771 -0.159103E-06  0.177E-03    4.54      10.0  T
   5    -45.4945771 -0.485958E-07  0.792E-04    4.54      22.3  T
   6    -45.4945771 -0.896272E-09  0.299E-04    4.54      59.1  T
     SCC iter.                  ...        0 min,  0.117 sec
     gradient                   ...        0 min,  0.059 sec
 * total energy  :   -44.9821088 Eh     change       -0.1179601E-03 Eh
   gradient norm :     0.0076478 Eh/α   predicted    -0.1016473E-03 ( -13.83%)
   displ. norm   :     0.0432319 α      lambda       -0.7306336E-04
   maximum displ.:     0.0264437 α      in ANC's #9, #12, #7, ...

........................................................................
.............................. CYCLE    6 ..............................
........................................................................

 iter      E             dE          RMSdq      gap      omega  full diag
   1    -45.4942363 -0.454942E+02  0.166E-02    4.54       0.0  T
   2    -45.4942366 -0.241680E-06  0.100E-02    4.54       1.8  T
   3    -45.4942365  0.179517E-07  0.186E-03    4.53       9.5  T
   4    -45.4942366 -0.612850E-07  0.501E-04    4.54      35.3  T
   5    -45.4942366 -0.114039E-08  0.267E-04    4.54      66.3  T
     SCC iter.                  ...        0 min,  0.088 sec
     gradient                   ...        0 min,  0.052 sec
 * total energy  :   -44.9821630 Eh     change       -0.5421774E-04 Eh
   gradient norm :     0.0053725 Eh/α   predicted    -0.3663186E-04 ( -32.44%)
   displ. norm   :     0.0692025 α      lambda       -0.7693682E-04
   maximum displ.:     0.0406683 α      in ANC's #9, #11, #12, ...

........................................................................
.............................. CYCLE    7 ..............................
........................................................................

 iter      E             dE          RMSdq      gap      omega  full diag
   1    -45.4939539 -0.454940E+02  0.256E-02    4.54       0.0  T
   2    -45.4939549 -0.952017E-06  0.155E-02    4.54       1.1  T
   3    -45.4939549  0.206701E-07  0.390E-03    4.54       4.5  T
   4    -45.4939551 -0.175877E-06  0.966E-04    4.54      18.3  T
   5    -45.4939551 -0.521553E-08  0.480E-04    4.54      36.8  T
     SCC iter.                  ...        0 min,  0.098 sec
     gradient                   ...        0 min,  0.064 sec
 * total energy  :   -44.9822158 Eh     change       -0.5271936E-04 Eh
   gradient norm :     0.0030611 Eh/α   predicted    -0.3865429E-04 ( -26.68%)
   displ. norm   :     0.0737590 α      lambda       -0.4893871E-04
   maximum displ.:     0.0393560 α      in ANC's #9, #11, #10, ...

........................................................................
.............................. CYCLE    8 ..............................
........................................................................

 iter      E             dE          RMSdq      gap      omega  full diag
   1    -45.4939815 -0.454940E+02  0.287E-02    4.55       0.0  T
   2    -45.4939823 -0.827613E-06  0.172E-02    4.55       1.0  T
   3    -45.4939824 -0.312722E-07  0.322E-03    4.54       5.5  T
   4    -45.4939825 -0.124607E-06  0.105E-03    4.54      16.8  T
   5    -45.4939825 -0.514441E-08  0.513E-04    4.54      34.4  T
   6    -45.4939825 -0.543857E-09  0.154E-04    4.55     114.5  T
     SCC iter.                  ...        0 min,  0.122 sec
     gradient                   ...        0 min,  0.045 sec
 * total energy  :   -44.9822522 Eh     change       -0.3646568E-04 Eh
   gradient norm :     0.0022987 Eh/α   predicted    -0.2460437E-04 ( -32.53%)
   displ. norm   :     0.1009700 α      lambda       -0.5335641E-04
   maximum displ.:     0.0478803 α      in ANC's #10, #9, #4, ...

........................................................................
.............................. CYCLE    9 ..............................
........................................................................

 iter      E             dE          RMSdq      gap      omega  full diag
   1    -45.4943150 -0.454943E+02  0.415E-02    4.56       0.0  T
   2    -45.4943161 -0.104446E-05  0.247E-02    4.56       1.0  T
   3    -45.4943162 -0.132256E-06  0.343E-03    4.55       5.2  T
   4    -45.4943163 -0.148815E-06  0.145E-03    4.55      12.2  T
   5    -45.4943163 -0.573541E-08  0.656E-04    4.55      27.0  T
   6    -45.4943163 -0.138188E-08  0.175E-04    4.55     101.1  T
     SCC iter.                  ...        0 min,  0.089 sec
     gradient                   ...        0 min,  0.042 sec
 * total energy  :   -44.9822905 Eh     change       -0.3826275E-04 Eh
   gradient norm :     0.0021258 Eh/α   predicted    -0.2695241E-04 ( -29.56%)
   displ. norm   :     0.1194826 α      lambda       -0.4300288E-04
   maximum displ.:     0.0592129 α      in ANC's #4, #10, #9, ...

........................................................................
.............................. CYCLE   10 ..............................
........................................................................

 iter      E             dE          RMSdq      gap      omega  full diag
   1    -45.4943230 -0.454943E+02  0.472E-02    4.56       0.0  T
   2    -45.4943237 -0.781767E-06  0.282E-02    4.56       1.0  T
   3    -45.4943240 -0.286709E-06  0.283E-03    4.56       6.3  T
   4    -45.4943241 -0.647687E-07  0.161E-03    4.56      11.0  T
   5    -45.4943241 -0.323742E-08  0.361E-04    4.56      49.0  T
   6    -45.4943241 -0.984109E-09  0.124E-04    4.56     142.2  T
     SCC iter.                  ...        0 min,  0.095 sec
     gradient                   ...        0 min,  0.047 sec
 * total energy  :   -44.9823202 Eh     change       -0.2970315E-04 Eh
   gradient norm :     0.0026733 Eh/α   predicted    -0.2181374E-04 ( -26.56%)
   displ. norm   :     0.1481006 α      lambda       -0.5709223E-04
   maximum displ.:     0.0836367 α      in ANC's #4, #10, #9, ...

........................................................................
.............................. CYCLE   11 ..............................
........................................................................

 iter      E             dE          RMSdq      gap      omega  full diag
   1    -45.4950327 -0.454950E+02  0.598E-02    4.56       0.0  T
   2    -45.4950338 -0.109008E-05  0.354E-02    4.56       1.0  T
   3    -45.4950342 -0.394102E-06  0.378E-03    4.56       4.7  T
   4    -45.4950343 -0.156648E-06  0.208E-03    4.56       8.5  T
   5    -45.4950343 -0.810454E-08  0.529E-04    4.56      33.4  T
   6    -45.4950343 -0.151832E-08  0.167E-04    4.56     105.8  T
     SCC iter.                  ...        0 min,  0.098 sec
     gradient                   ...        0 min,  0.037 sec
 * total energy  :   -44.9823425 Eh     change       -0.2229578E-04 Eh
   gradient norm :     0.0042358 Eh/α   predicted    -0.2917336E-04 (  30.85%)
   displ. norm   :     0.0965806 α      lambda       -0.3972809E-04
   maximum displ.:     0.0545116 α      in ANC's #4, #9, #10, ...

........................................................................
.............................. CYCLE   12 ..............................
........................................................................

 iter      E             dE          RMSdq      gap      omega  full diag
   1    -45.4945508 -0.454946E+02  0.334E-02    4.56       0.0  T
   2    -45.4945513 -0.559493E-06  0.200E-02    4.56       1.0  T
   3    -45.4945515 -0.166912E-06  0.246E-03    4.56       7.2  T
   4    -45.4945516 -0.554857E-07  0.130E-03    4.56      13.6  T
   5    -45.4945516 -0.294181E-08  0.476E-04    4.56      37.1  T
   6    -45.4945516 -0.104490E-08  0.127E-04    4.56     139.7  T
     SCC iter.                  ...        0 min,  0.077 sec
     gradient                   ...        0 min,  0.043 sec
 * total energy  :   -44.9823642 Eh     change       -0.2176395E-04 Eh
   gradient norm :     0.0031643 Eh/α   predicted    -0.2007162E-04 (  -7.78%)
   displ. norm   :     0.0443722 α      lambda       -0.3197354E-04
   maximum displ.:     0.0220562 α      in ANC's #5, #6, #8, ...

........................................................................
.............................. CYCLE   13 ..............................
........................................................................

 iter      E             dE          RMSdq      gap      omega  full diag
   1    -45.4953205 -0.454953E+02  0.157E-02    4.58       0.0  T
   2    -45.4953210 -0.491647E-06  0.951E-03    4.57       1.9  T
   3    -45.4953209  0.620173E-07  0.346E-03    4.58       5.1  T
   4    -45.4953210 -0.145402E-06  0.439E-04    4.58      40.3  T
   5    -45.4953210 -0.691344E-09  0.250E-04    4.58      70.7  T
     SCC iter.                  ...        0 min,  0.084 sec
     gradient                   ...        0 min,  0.041 sec
 * total energy  :   -44.9823792 Eh     change       -0.1490966E-04 Eh
   gradient norm :     0.0027993 Eh/α   predicted    -0.1602256E-04 (   7.46%)
   displ. norm   :     0.1034940 α      lambda       -0.2399004E-04
   maximum displ.:     0.0587327 α      in ANC's #4, #10, #9, ...

........................................................................
.............................. CYCLE   14 ..............................
........................................................................

 iter      E             dE          RMSdq      gap      omega  full diag
   1    -45.4945471 -0.454945E+02  0.365E-02    4.56       0.0  T
   2    -45.4945477 -0.570385E-06  0.216E-02    4.56       1.0  T
   3    -45.4945477 -0.461437E-07  0.317E-03    4.56       5.6  T
   4    -45.4945479 -0.173802E-06  0.130E-03    4.56      13.6  T
   5    -45.4945479 -0.248301E-08  0.514E-04    4.56      34.4  T
   6    -45.4945479 -0.638977E-09  0.993E-05    4.56     178.0  T
     SCC iter.                  ...        0 min,  0.092 sec
     gradient                   ...        0 min,  0.043 sec
 * total energy  :   -44.9823963 Eh     change       -0.1714295E-04 Eh
   gradient norm :     0.0015599 Eh/α   predicted    -0.1212500E-04 ( -29.27%)
   displ. norm   :     0.1540184 α      lambda       -0.1447027E-04
   maximum displ.:     0.0875952 α      in ANC's #4, #10, #9, ...

........................................................................
.............................. CYCLE   15 ..............................
........................................................................

 iter      E             dE          RMSdq      gap      omega  full diag
   1    -45.4936363 -0.454936E+02  0.523E-02    4.54       0.0  T
   2    -45.4936373 -0.102438E-05  0.310E-02    4.55       1.0  T
   3    -45.4936374 -0.812130E-07  0.444E-03    4.54       4.0  T
   4    -45.4936377 -0.352066E-06  0.182E-03    4.55       9.7  T
   5    -45.4936377 -0.456530E-08  0.577E-04    4.55      30.6  T
   6    -45.4936377 -0.108094E-08  0.150E-04    4.55     118.0  T
     SCC iter.                  ...        0 min,  0.090 sec
     gradient                   ...        0 min,  0.041 sec
 * total energy  :   -44.9824038 Eh     change       -0.7543681E-05 Eh
   gradient norm :     0.0035328 Eh/α   predicted    -0.7312942E-05 (  -3.06%)
   displ. norm   :     0.0236057 α      lambda       -0.1074143E-04
   maximum displ.:     0.0097370 α      in ANC's #11, #1, #10, ...

........................................................................
.............................. CYCLE   16 ..............................
........................................................................

 iter      E             dE          RMSdq      gap      omega  full diag
   1    -45.4942949 -0.454943E+02  0.909E-03    4.56       0.0  T
   2    -45.4942951 -0.177389E-06  0.543E-03    4.56       3.3  T
   3    -45.4942951  0.138524E-07  0.210E-03    4.56       8.4  T
   4    -45.4942952 -0.523288E-07  0.371E-04    4.56      47.7  T
   5    -45.4942952 -0.261458E-09  0.194E-04    4.56      91.1  T
     SCC iter.                  ...        0 min,  0.072 sec
     gradient                   ...        0 min,  0.039 sec
 * total energy  :   -44.9824110 Eh     change       -0.7139495E-05 Eh
   gradient norm :     0.0015473 Eh/α   predicted    -0.5374824E-05 ( -24.72%)
   displ. norm   :     0.0354085 α      lambda        0.0000000E+00
   maximum displ.:     0.0146054 α      in ANC's #11, #1, #10, ...

........................................................................
.............................. CYCLE   17 ..............................
........................................................................

 iter      E             dE          RMSdq      gap      omega  full diag
   1    -45.4952429 -0.454952E+02  0.136E-02    4.58       0.0  T
   2    -45.4952432 -0.382769E-06  0.811E-03    4.58       2.2  T
   3    -45.4952432  0.309881E-07  0.309E-03    4.58       5.7  T
   4    -45.4952433 -0.114969E-06  0.559E-04    4.58      31.6  T
   5    -45.4952433 -0.572705E-09  0.288E-04    4.58      61.3  T
     SCC iter.                  ...        0 min,  0.060 sec
     gradient                   ...        0 min,  0.036 sec
 * total energy  :   -44.9824089 Eh     change        0.2109810E-05 Eh
   gradient norm :     0.0026628 Eh/α   predicted    -0.2704599E-08 (-100.13%)
   displ. norm   :     0.0483027 α      lambda       -0.1194733E-04
   maximum displ.:     0.0286751 α      in ANC's #4, #9, #10, ...

........................................................................
.............................. CYCLE   18 ..............................
........................................................................

 iter      E             dE          RMSdq      gap      omega  full diag
   1    -45.4949057 -0.454949E+02  0.172E-02    4.57       0.0  T
   2    -45.4949058 -0.124266E-06  0.103E-02    4.57       1.7  T
   3    -45.4949059 -0.361033E-07  0.115E-03    4.57      15.3  T
   4    -45.4949059 -0.126232E-07  0.609E-04    4.57      29.0  T
   5    -45.4949059 -0.523606E-09  0.206E-04    4.57      85.7  T
     SCC iter.                  ...        0 min,  0.114 sec
     gradient                   ...        0 min,  0.041 sec
 * total energy  :   -44.9824178 Eh     change       -0.8957440E-05 Eh
   gradient norm :     0.0012246 Eh/α   predicted    -0.5989744E-05 ( -33.13%)
   displ. norm   :     0.1653685 α      lambda       -0.1370013E-04
   maximum displ.:     0.1003506 α      in ANC's #4, #9, #10, ...

........................................................................
.............................. CYCLE   19 ..............................
........................................................................

 iter      E             dE          RMSdq      gap      omega  full diag
   1    -45.4936591 -0.454937E+02  0.559E-02    4.55       0.0  T
   2    -45.4936603 -0.120640E-05  0.332E-02    4.55       1.0  T
   3    -45.4936605 -0.215667E-06  0.424E-03    4.55       4.2  T
   4    -45.4936608 -0.262391E-06  0.195E-03    4.55       9.1  T
   5    -45.4936608 -0.617425E-08  0.757E-04    4.55      23.4  T
   6    -45.4936608 -0.180759E-08  0.160E-04    4.55     110.5  T
     SCC iter.                  ...        0 min,  0.085 sec
     gradient                   ...        0 min,  0.039 sec
 * total energy  :   -44.9824235 Eh     change       -0.5693278E-05 Eh
   gradient norm :     0.0038244 Eh/α   predicted    -0.6935516E-05 (  21.82%)
   displ. norm   :     0.0244828 α      lambda       -0.1125172E-04
   maximum displ.:     0.0133285 α      in ANC's #5, #10, #1, ...

........................................................................
.............................. CYCLE   20 ..............................
........................................................................

 iter      E             dE          RMSdq      gap      omega  full diag
   1    -45.4941560 -0.454942E+02  0.859E-03    4.56       0.0  T
   2    -45.4941561 -0.789889E-07  0.509E-03    4.56       3.5  T
   3    -45.4941561  0.351083E-08  0.119E-03    4.56      14.8  T
   4    -45.4941561 -0.209771E-07  0.336E-04    4.56      52.6  T
   5    -45.4941561 -0.307800E-09  0.185E-04    4.56      95.4  T
     SCC iter.                  ...        0 min,  0.066 sec
     gradient                   ...        0 min,  0.041 sec
 * total energy  :   -44.9824325 Eh     change       -0.8972677E-05 Eh
   gradient norm :     0.0020312 Eh/α   predicted    -0.5633609E-05 ( -37.21%)
   displ. norm   :     0.1021932 α      lambda       -0.2252031E-04
   maximum displ.:     0.0450863 α      in ANC's #4, #8, #9, ...
 * RMSD in coord.:     0.2311522 α      energy gain  -0.6548560E-02 Eh

generating ANC from exact Hessian ...
Using Lindh-Hessian (1995)
 Shifting diagonal of input Hessian by    9.3100307553686586E-003
 Lowest  eigenvalues of input Hessian
    0.000000    0.000000    0.000000    0.000000    0.000000    0.000000
    0.010000    0.010425    0.010743    0.013258    0.014182    0.018355
    0.020507    0.021674    0.025275    0.025342    0.026330    0.030225
 Highest eigenvalues
    1.271432    1.273933    1.309559    1.510031    1.821801    2.374340


........................................................................
.............................. CYCLE   21 ..............................
........................................................................

 iter      E             dE          RMSdq      gap      omega  full diag
   1    -45.4946746 -0.454947E+02  0.204E-02    4.57       0.0  T
   2    -45.4946747 -0.156543E-06  0.121E-02    4.57       1.5  T
   3    -45.4946747  0.403558E-07  0.182E-03    4.57       9.7  T
   4    -45.4946748 -0.722149E-07  0.405E-04    4.57      43.6  T
   5    -45.4946748 -0.350148E-09  0.216E-04    4.57      81.8  T
     SCC iter.                  ...        0 min,  0.072 sec
     gradient                   ...        0 min,  0.035 sec
 * total energy  :   -44.9824500 Eh     change       -0.1750688E-04 Eh
   gradient norm :     0.0011250 Eh/α   predicted     0.0000000E+00 (-100.00%)
   displ. norm   :     0.0175948 α      lambda       -0.3032812E-05
   maximum displ.:     0.0114926 α      in ANC's #5, #8, #7, ...

........................................................................
.............................. CYCLE   22 ..............................
........................................................................

 iter      E             dE          RMSdq      gap      omega  full diag
   1    -45.4947433 -0.454947E+02  0.392E-03    4.56       0.0  T
   2    -45.4947433 -0.553310E-07  0.239E-03    4.57       7.4  T
   3    -45.4947433 -0.127073E-09  0.103E-03    4.57      17.2  T
   4    -45.4947433 -0.867551E-08  0.147E-04    4.57     120.5  T
   5    -45.4947433 -0.861178E-10  0.778E-05    4.57     227.2  T
     SCC iter.                  ...        0 min,  0.053 sec
     gradient                   ...        0 min,  0.032 sec
 * total energy  :   -44.9824540 Eh     change       -0.4021945E-05 Eh
   gradient norm :     0.0004158 Eh/α   predicted    -0.1732607E-05 ( -56.92%)
   displ. norm   :     0.0620082 α      lambda       -0.7569061E-05
   maximum displ.:     0.0405629 α      in ANC's #5, #8, #7, ...

........................................................................
.............................. CYCLE   23 ..............................
........................................................................

 iter      E             dE          RMSdq      gap      omega  full diag
   1    -45.4947996 -0.454948E+02  0.119E-02    4.56       0.0  T
   2    -45.4947997 -0.993156E-07  0.705E-03    4.56       2.5  T
   3    -45.4947997  0.300405E-07  0.160E-03    4.56      11.1  T
   4    -45.4947997 -0.495479E-07  0.264E-04    4.56      66.9  T
   5    -45.4947997 -0.235936E-09  0.124E-04    4.56     142.2  T
     SCC iter.                  ...        0 min,  0.064 sec
     gradient                   ...        0 min,  0.037 sec
 * total energy  :   -44.9824633 Eh     change       -0.9309074E-05 Eh
   gradient norm :     0.0015222 Eh/α   predicted    -0.3794644E-05 ( -59.24%)
   displ. norm   :     0.1829200 α      lambda       -0.1864068E-04
   maximum displ.:     0.1164471 α      in ANC's #5, #7, #8, ...

........................................................................
.............................. CYCLE   24 ..............................
........................................................................

 iter      E             dE          RMSdq      gap      omega  full diag
   1    -45.4945100 -0.454945E+02  0.339E-02    4.55       0.0  T
   2    -45.4945104 -0.339505E-06  0.201E-02    4.55       1.0  T
   3    -45.4945103  0.923401E-07  0.274E-03    4.55       6.4  T
   4    -45.4945105 -0.168306E-06  0.613E-04    4.55      28.9  T
   5    -45.4945105 -0.105528E-08  0.285E-04    4.55      62.0  T
     SCC iter.                  ...        0 min,  0.064 sec
     gradient                   ...        0 min,  0.037 sec
 * total energy  :   -44.9824866 Eh     change       -0.2324031E-04 Eh
   gradient norm :     0.0032766 Eh/α   predicted    -0.9459713E-05 ( -59.30%)
   displ. norm   :     0.3589246 α      lambda       -0.4991630E-04
   maximum displ.:     0.2243689 α      in ANC's #5, #7, #8, ...

........................................................................
.............................. CYCLE   25 ..............................
........................................................................

 iter      E             dE          RMSdq      gap      omega  full diag
   1    -45.4928881 -0.454929E+02  0.666E-02    4.54       0.0  T
   2    -45.4928890 -0.932004E-06  0.395E-02    4.55       1.0  T
   3    -45.4928889  0.851971E-07  0.372E-03    4.55       4.8  T
   4    -45.4928892 -0.286102E-06  0.112E-03    4.55      15.7  T
   5    -45.4928892 -0.429415E-08  0.539E-04    4.55      32.8  T
   6    -45.4928892 -0.745516E-09  0.156E-04    4.55     113.2  T
     SCC iter.                  ...        0 min,  0.082 sec
     gradient                   ...        0 min,  0.044 sec
 * total energy  :   -44.9825185 Eh     change       -0.3194721E-04 Eh
   gradient norm :     0.0058195 Eh/α   predicted    -0.2817494E-04 ( -11.81%)
   displ. norm   :     0.1225900 α      lambda       -0.3177469E-04
   maximum displ.:     0.0714988 α      in ANC's #5, #7, #8, ...

........................................................................
.............................. CYCLE   26 ..............................
........................................................................

 iter      E             dE          RMSdq      gap      omega  full diag
   1    -45.4930441 -0.454930E+02  0.223E-02    4.55       0.0  T
   2    -45.4930442 -0.986339E-07  0.132E-02    4.55       1.3  T
   3    -45.4930442  0.468768E-08  0.105E-03    4.55      16.9  T
   4    -45.4930442 -0.215374E-07  0.324E-04    4.55      54.6  T
   5    -45.4930442 -0.433459E-09  0.167E-04    4.55     106.1  T
     SCC iter.                  ...        0 min,  0.073 sec
     gradient                   ...        0 min,  0.040 sec
 * total energy  :   -44.9825477 Eh     change       -0.2914559E-04 Eh
   gradient norm :     0.0051551 Eh/α   predicted    -0.1612862E-04 ( -44.66%)
   displ. norm   :     0.3551283 α      lambda       -0.2097671E-03
   maximum displ.:     0.2077744 α      in ANC's #7, #5, #8, ...

........................................................................
.............................. CYCLE   27 ..............................
........................................................................

 iter      E             dE          RMSdq      gap      omega  full diag
   1    -45.4965247 -0.454965E+02  0.688E-02    4.61       0.0  T
   2    -45.4965282 -0.353115E-05  0.409E-02    4.60       1.0  T
   3    -45.4965270  0.114938E-05  0.965E-03    4.60       1.8  T
   4    -45.4965288 -0.175484E-05  0.122E-03    4.60      14.5  T
   5    -45.4965288 -0.513169E-08  0.626E-04    4.60      28.3  T
   6    -45.4965288 -0.918092E-09  0.192E-04    4.60      92.1  T
     SCC iter.                  ...        0 min,  0.082 sec
     gradient                   ...        0 min,  0.037 sec
 * total energy  :   -44.9826617 Eh     change       -0.1140188E-03 Eh
   gradient norm :     0.0059831 Eh/α   predicted    -0.1181121E-03 (   3.59%)
   displ. norm   :     0.6929153 α      lambda       -0.1933626E-03
   maximum displ.:     0.3878595 α      in ANC's #5, #7, #8, ...

........................................................................
.............................. CYCLE   28 ..............................
........................................................................

 iter      E             dE          RMSdq      gap      omega  full diag
   1    -45.4872726 -0.454873E+02  0.132E-01    4.61       0.0  T
   2    -45.4872826 -0.997142E-05  0.774E-02    4.61       1.0  T
   3    -45.4872831 -0.567318E-06  0.815E-03    4.61       2.2  T
   4    -45.4872835 -0.338981E-06  0.253E-03    4.61       7.0  T
   5    -45.4872835 -0.165277E-07  0.132E-03    4.61      13.4  T
   6    -45.4872835 -0.531369E-08  0.250E-04    4.61      70.8  T
   7    -45.4872835 -0.425906E-09  0.105E-04    4.61     168.7  T
     SCC iter.                  ...        0 min,  0.100 sec
     gradient                   ...        0 min,  0.037 sec
 * total energy  :   -44.9823677 Eh     change        0.2939947E-03 Eh
   gradient norm :     0.0182874 Eh/α   predicted    -0.1431241E-03 (-148.68%)
   displ. norm   :     0.3996200 α      lambda       -0.8857295E-03
   maximum displ.:     0.2317706 α      in ANC's #5, #7, #8, ...

........................................................................
.............................. CYCLE   29 ..............................
........................................................................

 iter      E             dE          RMSdq      gap      omega  full diag
   1    -45.4952862 -0.454953E+02  0.813E-02    4.60       0.0  T
   2    -45.4952928 -0.658287E-05  0.468E-02    4.60       1.0  T
   3    -45.4952931 -0.347453E-06  0.727E-03    4.60       2.4  T
   4    -45.4952932 -0.115042E-06  0.177E-03    4.60      10.0  T
   5    -45.4952932 -0.647710E-08  0.876E-04    4.60      20.2  T
   6    -45.4952932 -0.221465E-08  0.188E-04    4.60      93.9  T
     SCC iter.                  ...        0 min,  0.071 sec
     gradient                   ...        0 min,  0.035 sec
 * total energy  :   -44.9827499 Eh     change       -0.3822112E-03 Eh
   gradient norm :     0.0059794 Eh/α   predicted    -0.5136303E-03 (  34.38%)
   displ. norm   :     0.0521510 α      lambda       -0.3697032E-04
   maximum displ.:     0.0328613 α      in ANC's #7, #3, #4, ...

........................................................................
.............................. CYCLE   30 ..............................
........................................................................

 iter      E             dE          RMSdq      gap      omega  full diag
   1    -45.4952391 -0.454952E+02  0.113E-02    4.59       0.0  T
   2    -45.4952392 -0.123018E-06  0.671E-03    4.59       2.6  T
   3    -45.4952392  0.128856E-07  0.131E-03    4.59      13.5  T
   4    -45.4952392 -0.259272E-07  0.265E-04    4.59      66.8  T
   5    -45.4952392 -0.624581E-09  0.140E-04    4.59     126.7  T
     SCC iter.                  ...        0 min,  0.078 sec
     gradient                   ...        0 min,  0.043 sec
 * total energy  :   -44.9827835 Eh     change       -0.3361019E-04 Eh
   gradient norm :     0.0043391 Eh/α   predicted    -0.1854890E-04 ( -44.81%)
   displ. norm   :     0.3357730 α      lambda       -0.1717877E-03
   maximum displ.:     0.2144230 α      in ANC's #7, #3, #4, ...

........................................................................
.............................. CYCLE   31 ..............................
........................................................................

 iter      E             dE          RMSdq      gap      omega  full diag
   1    -45.4936190 -0.454936E+02  0.662E-02    4.56       0.0  T
   2    -45.4936208 -0.180192E-05  0.394E-02    4.57       1.0  T
   3    -45.4936206  0.231718E-06  0.496E-03    4.57       3.6  T
   4    -45.4936211 -0.484376E-06  0.121E-03    4.57      14.6  T
   5    -45.4936211 -0.837804E-08  0.662E-04    4.57      26.7  T
   6    -45.4936211 -0.102808E-08  0.169E-04    4.57     104.8  T
     SCC iter.                  ...        0 min,  0.111 sec
     gradient                   ...        0 min,  0.043 sec
 * total energy  :   -44.9828981 Eh     change       -0.1146065E-03 Eh
   gradient norm :     0.0042230 Eh/α   predicted    -0.9558172E-04 ( -16.60%)
   displ. norm   :     0.2346644 α      lambda       -0.6818668E-04
   maximum displ.:     0.1404988 α      in ANC's #7, #3, #4, ...

........................................................................
.............................. CYCLE   32 ..............................
........................................................................

 iter      E             dE          RMSdq      gap      omega  full diag
   1    -45.4927860 -0.454928E+02  0.453E-02    4.56       0.0  T
   2    -45.4927862 -0.196241E-06  0.270E-02    4.57       1.0  T
   3    -45.4927862 -0.395837E-07  0.123E-03    4.57      14.3  T
   4    -45.4927862 -0.157218E-07  0.610E-04    4.57      29.0  T
   5    -45.4927862 -0.521020E-09  0.227E-04    4.57      77.7  T
     SCC iter.                  ...        0 min,  0.077 sec
     gradient                   ...        0 min,  0.041 sec
 * total energy  :   -44.9829475 Eh     change       -0.4932896E-04 Eh
   gradient norm :     0.0056023 Eh/α   predicted    -0.3598869E-04 ( -27.04%)
   displ. norm   :     0.2425380 α      lambda       -0.1014989E-03
   maximum displ.:     0.1221531 α      in ANC's #7, #3, #4, ...

........................................................................
.............................. CYCLE   33 ..............................
........................................................................

 iter      E             dE          RMSdq      gap      omega  full diag
   1    -45.4934431 -0.454934E+02  0.477E-02    4.57       0.0  T
   2    -45.4934435 -0.366272E-06  0.283E-02    4.57       1.0  T
   3    -45.4934435 -0.406514E-07  0.146E-03    4.57      12.1  T
   4    -45.4934436 -0.223827E-07  0.647E-04    4.57      27.3  T
   5    -45.4934436 -0.941043E-09  0.297E-04    4.57      59.5  T
     SCC iter.                  ...        0 min,  0.073 sec
     gradient                   ...        0 min,  0.033 sec
 * total energy  :   -44.9830249 Eh     change       -0.7744359E-04 Eh
   gradient norm :     0.0038774 Eh/α   predicted    -0.5373677E-04 ( -30.61%)
   displ. norm   :     0.2567875 α      lambda       -0.1165251E-03
   maximum displ.:     0.1290614 α      in ANC's #3, #4, #7, ...

........................................................................
.............................. CYCLE   34 ..............................
........................................................................

 iter      E             dE          RMSdq      gap      omega  full diag
   1    -45.4948067 -0.454948E+02  0.529E-02    4.58       0.0  T
   2    -45.4948076 -0.954843E-06  0.313E-02    4.58       1.0  T
   3    -45.4948077 -0.530652E-07  0.221E-03    4.58       8.0  T
   4    -45.4948077 -0.394239E-07  0.772E-04    4.58      22.9  T
   5    -45.4948077 -0.150926E-08  0.387E-04    4.58      45.6  T
     SCC iter.                  ...        0 min,  0.088 sec
     gradient                   ...        0 min,  0.049 sec
 * total energy  :   -44.9831132 Eh     change       -0.8826705E-04 Eh
   gradient norm :     0.0028612 Eh/α   predicted    -0.6210971E-04 ( -29.63%)
   displ. norm   :     0.3308386 α      lambda       -0.1130817E-03
   maximum displ.:     0.1646031 α      in ANC's #4, #3, #5, ...

........................................................................
.............................. CYCLE   35 ..............................
........................................................................

 iter      E             dE          RMSdq      gap      omega  full diag
   1    -45.4942355 -0.454942E+02  0.666E-02    4.58       0.0  T
   2    -45.4942363 -0.822698E-06  0.395E-02    4.58       1.0  T
   3    -45.4942364 -0.967097E-07  0.213E-03    4.58       8.3  T
   4    -45.4942365 -0.425201E-07  0.979E-04    4.58      18.1  T
   5    -45.4942365 -0.265518E-08  0.459E-04    4.58      38.5  T
     SCC iter.                  ...        0 min,  0.078 sec
     gradient                   ...        0 min,  0.040 sec
 * total energy  :   -44.9831917 Eh     change       -0.7849188E-04 Eh
   gradient norm :     0.0050461 Eh/α   predicted    -0.6273190E-04 ( -20.08%)
   displ. norm   :     0.2779360 α      lambda       -0.1790722E-03
   maximum displ.:     0.1507409 α      in ANC's #3, #4, #6, ...

........................................................................
.............................. CYCLE   36 ..............................
........................................................................

 iter      E             dE          RMSdq      gap      omega  full diag
   1    -45.4987095 -0.454987E+02  0.675E-02    4.58       0.0  T
   2    -45.4987134 -0.386288E-05  0.391E-02    4.58       1.0  T
   3    -45.4987136 -0.216657E-06  0.588E-03    4.59       3.0  T
   4    -45.4987137 -0.111049E-06  0.154E-03    4.59      11.5  T
   5    -45.4987137 -0.466135E-08  0.721E-04    4.59      24.5  T
   6    -45.4987137 -0.200460E-08  0.155E-04    4.59     113.7  T
     SCC iter.                  ...        0 min,  0.112 sec
     gradient                   ...        0 min,  0.042 sec
 * total energy  :   -44.9831854 Eh     change        0.6235902E-05 Eh
   gradient norm :     0.0093081 Eh/α   predicted    -0.9645617E-04 (*******%)
   displ. norm   :     0.2764636 α      lambda       -0.2262795E-03
   maximum displ.:     0.1310905 α      in ANC's #3, #4, #5, ...

........................................................................
.............................. CYCLE   37 ..............................
........................................................................

 iter      E             dE          RMSdq      gap      omega  full diag
   1    -45.4945824 -0.454946E+02  0.609E-02    4.58       0.0  T
   2    -45.4945846 -0.219934E-05  0.355E-02    4.58       1.0  T
   3    -45.4945847 -0.708810E-07  0.467E-03    4.58       3.8  T
   4    -45.4945849 -0.155370E-06  0.121E-03    4.58      14.6  T
   5    -45.4945849 -0.222364E-08  0.606E-04    4.58      29.2  T
   6    -45.4945849 -0.601119E-09  0.105E-04    4.58     168.3  T
     SCC iter.                  ...        0 min,  0.090 sec
     gradient                   ...        0 min,  0.043 sec
 * total energy  :   -44.9832825 Eh     change       -0.9704221E-04 Eh
   gradient norm :     0.0068589 Eh/α   predicted    -0.1218028E-03 (  25.52%)
   displ. norm   :     0.1624907 α      lambda       -0.8164220E-04
   maximum displ.:     0.0899285 α      in ANC's #4, #3, #5, ...

........................................................................
.............................. CYCLE   38 ..............................
........................................................................

 iter      E             dE          RMSdq      gap      omega  full diag
   1    -45.4952400 -0.454952E+02  0.392E-02    4.58       0.0  T
   2    -45.4952411 -0.109035E-05  0.230E-02    4.58       1.0  T
   3    -45.4952411 -0.923821E-08  0.329E-03    4.58       5.4  T
   4    -45.4952412 -0.840840E-07  0.768E-04    4.58      23.0  T
   5    -45.4952412 -0.280616E-08  0.382E-04    4.58      46.2  T
     SCC iter.                  ...        0 min,  0.063 sec
     gradient                   ...        0 min,  0.043 sec
 * total energy  :   -44.9833198 Eh     change       -0.3734085E-04 Eh
   gradient norm :     0.0032039 Eh/α   predicted    -0.4190068E-04 (  12.21%)
   displ. norm   :     0.0945808 α      lambda       -0.3631891E-04
   maximum displ.:     0.0496300 α      in ANC's #3, #4, #5, ...

........................................................................
.............................. CYCLE   39 ..............................
........................................................................

 iter      E             dE          RMSdq      gap      omega  full diag
   1    -45.4954501 -0.454955E+02  0.202E-02    4.57       0.0  T
   2    -45.4954502 -0.691705E-07  0.120E-02    4.57       1.5  T
   3    -45.4954502 -0.740622E-08  0.676E-04    4.57      26.2  T
   4    -45.4954502 -0.504271E-08  0.289E-04    4.57      61.1  T
     SCC iter.                  ...        0 min,  0.052 sec
     gradient                   ...        0 min,  0.037 sec
 * total energy  :   -44.9833509 Eh     change       -0.3106485E-04 Eh
   gradient norm :     0.0021943 Eh/α   predicted    -0.1832658E-04 ( -41.01%)
   displ. norm   :     0.2909777 α      lambda       -0.7994056E-04
   maximum displ.:     0.1509859 α      in ANC's #3, #4, #5, ...

........................................................................
.............................. CYCLE   40 ..............................
........................................................................

 iter      E             dE          RMSdq      gap      omega  full diag
   1    -45.4943496 -0.454943E+02  0.585E-02    4.56       0.0  T
   2    -45.4943501 -0.468179E-06  0.347E-02    4.56       1.0  T
   3    -45.4943501 -0.598711E-07  0.171E-03    4.56      10.3  T
   4    -45.4943502 -0.327835E-07  0.783E-04    4.56      22.6  T
   5    -45.4943502 -0.146956E-08  0.354E-04    4.56      49.9  T
     SCC iter.                  ...        0 min,  0.133 sec
     gradient                   ...        0 min,  0.056 sec
 * total energy  :   -44.9833971 Eh     change       -0.4628113E-04 Eh
   gradient norm :     0.0026908 Eh/α   predicted    -0.4336542E-04 (  -6.30%)
   displ. norm   :     0.0702269 α      lambda       -0.3313808E-04
   maximum displ.:     0.0563764 α      in ANC's #2, #3, #8, ...

........................................................................
.............................. CYCLE   41 ..............................
........................................................................

 iter      E             dE          RMSdq      gap      omega  full diag
   1    -45.4956499 -0.454956E+02  0.157E-02    4.56       0.0  T
   2    -45.4956502 -0.246253E-06  0.904E-03    4.56       2.0  T
   3    -45.4956502 -0.133789E-07  0.150E-03    4.56      11.8  T
   4    -45.4956502 -0.737466E-08  0.403E-04    4.56      43.8  T
   5    -45.4956502 -0.856069E-09  0.213E-04    4.56      83.0  T
     SCC iter.                  ...        0 min,  0.089 sec
     gradient                   ...        0 min,  0.043 sec
 * total energy  :   -44.9834173 Eh     change       -0.2011587E-04 Eh
   gradient norm :     0.0021958 Eh/α   predicted    -0.1664929E-04 ( -17.23%)
   displ. norm   :     0.1534297 α      lambda       -0.3719485E-04
   maximum displ.:     0.0752732 α      in ANC's #3, #2, #4, ...

........................................................................
.............................. CYCLE   42 ..............................
........................................................................

 iter      E             dE          RMSdq      gap      omega  full diag
   1    -45.4954918 -0.454955E+02  0.303E-02    4.56       0.0  T
   2    -45.4954918 -0.900402E-07  0.180E-02    4.56       1.0  T
   3    -45.4954919 -0.137158E-07  0.950E-04    4.56      18.6  T
   4    -45.4954919 -0.125253E-07  0.423E-04    4.56      41.8  T
     SCC iter.                  ...        0 min,  0.051 sec
     gradient                   ...        0 min,  0.037 sec
 * total energy  :   -44.9834484 Eh     change       -0.3118301E-04 Eh
   gradient norm :     0.0025553 Eh/α   predicted    -0.1902891E-04 ( -38.98%)
   displ. norm   :     0.2545643 α      lambda       -0.7039874E-04
   maximum displ.:     0.1306122 α      in ANC's #3, #2, #4, ...
 * RMSD in coord.:     0.6144324 α      energy gain  -0.1015946E-02 Eh

generating ANC from exact Hessian ...
Using Lindh-Hessian (1995)
 Shifting diagonal of input Hessian by    9.2722364890213838E-003
 Lowest  eigenvalues of input Hessian
    0.000000    0.000000    0.000000    0.000000    0.000000    0.000000
    0.010000    0.010341    0.010769    0.013159    0.014264    0.018030
    0.020876    0.021970    0.025256    0.025582    0.026304    0.029637
 Highest eigenvalues
    1.273941    1.275998    1.298042    1.511489    1.815537    2.369694


........................................................................
.............................. CYCLE   43 ..............................
........................................................................

 iter      E             dE          RMSdq      gap      omega  full diag
   1    -45.4948892 -0.454949E+02  0.486E-02    4.56       0.0  T
   2    -45.4948894 -0.238302E-06  0.288E-02    4.56       1.0  T
   3    -45.4948894 -0.389854E-07  0.144E-03    4.56      12.3  T
   4    -45.4948895 -0.289571E-07  0.678E-04    4.56      26.1  T
   5    -45.4948895 -0.500016E-09  0.223E-04    4.56      79.3  T
     SCC iter.                  ...        0 min,  0.065 sec
     gradient                   ...        0 min,  0.050 sec
 * total energy  :   -44.9835030 Eh     change       -0.5453744E-04 Eh
   gradient norm :     0.0026012 Eh/α   predicted     0.0000000E+00 (-100.00%)
   displ. norm   :     0.0347460 α      lambda       -0.2600902E-04
   maximum displ.:     0.0276722 α      in ANC's #2, #6, #7, ...

........................................................................
.............................. CYCLE   44 ..............................
........................................................................

 iter      E             dE          RMSdq      gap      omega  full diag
   1    -45.4955125 -0.454955E+02  0.856E-03    4.56       0.0  T
   2    -45.4955126 -0.531105E-07  0.498E-03    4.56       3.5  T
   3    -45.4955126 -0.356693E-08  0.676E-04    4.56      26.1  T
   4    -45.4955126 -0.214829E-08  0.210E-04    4.56      84.2  T
     SCC iter.                  ...        0 min,  0.073 sec
     gradient                   ...        0 min,  0.043 sec
 * total energy  :   -44.9835245 Eh     change       -0.2149941E-04 Eh
   gradient norm :     0.0013464 Eh/α   predicted    -0.1307066E-04 ( -39.20%)
   displ. norm   :     0.1201293 α      lambda       -0.3788466E-04
   maximum displ.:     0.0924514 α      in ANC's #2, #6, #1, ...

........................................................................
.............................. CYCLE   45 ..............................
........................................................................

 iter      E             dE          RMSdq      gap      omega  full diag
   1    -45.4964480 -0.454964E+02  0.261E-02    4.57       0.0  T
   2    -45.4964484 -0.372210E-06  0.154E-02    4.57       1.1  T
   3    -45.4964484 -0.178775E-07  0.169E-03    4.57      10.5  T
   4    -45.4964484 -0.240763E-07  0.585E-04    4.57      30.2  T
   5    -45.4964484 -0.207611E-08  0.309E-04    4.57      57.3  T
     SCC iter.                  ...        0 min,  0.159 sec
     gradient                   ...        0 min,  0.058 sec
 * total energy  :   -44.9835603 Eh     change       -0.3583711E-04 Eh
   gradient norm :     0.0020597 Eh/α   predicted    -0.1906418E-04 ( -46.80%)
   displ. norm   :     0.0543540 α      lambda       -0.1727999E-04
   maximum displ.:     0.0433325 α      in ANC's #2, #1, #6, ...

........................................................................
.............................. CYCLE   46 ..............................
........................................................................

 iter      E             dE          RMSdq      gap      omega  full diag
   1    -45.4962700 -0.454963E+02  0.115E-02    4.57       0.0  T
   2    -45.4962701 -0.331600E-07  0.679E-03    4.57       2.6  T
   3    -45.4962701 -0.136012E-08  0.540E-04    4.57      32.8  T
   4    -45.4962701 -0.431467E-08  0.213E-04    4.57      83.0  T
     SCC iter.                  ...        0 min,  0.053 sec
     gradient                   ...        0 min,  0.042 sec
 * total energy  :   -44.9835759 Eh     change       -0.1554703E-04 Eh
   gradient norm :     0.0018205 Eh/α   predicted    -0.8668428E-05 ( -44.24%)
   displ. norm   :     0.1097439 α      lambda       -0.2315734E-04
   maximum displ.:     0.0860892 α      in ANC's #2, #1, #6, ...

........................................................................
.............................. CYCLE   47 ..............................
........................................................................

 iter      E             dE          RMSdq      gap      omega  full diag
   1    -45.4956285 -0.454956E+02  0.229E-02    4.57       0.0  T
   2    -45.4956286 -0.901406E-07  0.136E-02    4.57       1.3  T
   3    -45.4956286 -0.702683E-08  0.941E-04    4.57      18.8  T
   4    -45.4956286 -0.128655E-07  0.385E-04    4.57      45.9  T
     SCC iter.                  ...        0 min,  0.062 sec
     gradient                   ...        0 min,  0.050 sec
 * total energy  :   -44.9836018 Eh     change       -0.2589275E-04 Eh
   gradient norm :     0.0010932 Eh/α   predicted    -0.1164089E-04 ( -55.04%)
   displ. norm   :     0.0856177 α      lambda       -0.1246721E-04
   maximum displ.:     0.0694328 α      in ANC's #2, #1, #6, ...

........................................................................
.............................. CYCLE   48 ..............................
........................................................................

 iter      E             dE          RMSdq      gap      omega  full diag
   1    -45.4954453 -0.454954E+02  0.171E-02    4.57       0.0  T
   2    -45.4954453 -0.282649E-07  0.102E-02    4.57       1.7  T
   3    -45.4954453 -0.717513E-08  0.510E-04    4.57      34.6  T
   4    -45.4954453 -0.242652E-08  0.268E-04    4.57      66.0  T
     SCC iter.                  ...        0 min,  0.071 sec
     gradient                   ...        0 min,  0.047 sec
 * total energy  :   -44.9836177 Eh     change       -0.1596322E-04 Eh
   gradient norm :     0.0011788 Eh/α   predicted    -0.6255937E-05 ( -60.81%)
   displ. norm   :     0.0827349 α      lambda       -0.1280501E-04
   maximum displ.:     0.0654354 α      in ANC's #2, #1, #6, ...

........................................................................
.............................. CYCLE   49 ..............................
........................................................................

 iter      E             dE          RMSdq      gap      omega  full diag
   1    -45.4955071 -0.454955E+02  0.155E-02    4.57       0.0  T
   2    -45.4955072 -0.471746E-07  0.916E-03    4.57       1.9  T
   3    -45.4955072 -0.530229E-08  0.518E-04    4.57      34.1  T
   4    -45.4955072 -0.232447E-08  0.236E-04    4.57      74.8  T
     SCC iter.                  ...        0 min,  0.064 sec
     gradient                   ...        0 min,  0.050 sec
 * total energy  :   -44.9836350 Eh     change       -0.1728359E-04 Eh
   gradient norm :     0.0011467 Eh/α   predicted    -0.6422621E-05 ( -62.84%)
   displ. norm   :     0.1269717 α      lambda       -0.1964263E-04
   maximum displ.:     0.0965877 α      in ANC's #2, #1, #6, ...

........................................................................
.............................. CYCLE   50 ..............................
........................................................................

 iter      E             dE          RMSdq      gap      omega  full diag
   1    -45.4956565 -0.454957E+02  0.236E-02    4.57       0.0  T
   2    -45.4956566 -0.137401E-06  0.139E-02    4.57       1.3  T
   3    -45.4956566 -0.909231E-08  0.967E-04    4.57      18.3  T
   4    -45.4956566 -0.106782E-07  0.396E-04    4.57      44.6  T
     SCC iter.                  ...        0 min,  0.073 sec
     gradient                   ...        0 min,  0.069 sec
 * total energy  :   -44.9836611 Eh     change       -0.2605663E-04 Eh
   gradient norm :     0.0012147 Eh/α   predicted    -0.9893712E-05 ( -62.03%)
   displ. norm   :     0.2011713 α      lambda       -0.2660797E-04
   maximum displ.:     0.1483626 α      in ANC's #2, #1, #3, ...

........................................................................
.............................. CYCLE   51 ..............................
........................................................................

 iter      E             dE          RMSdq      gap      omega  full diag
   1    -45.4955115 -0.454955E+02  0.360E-02    4.57       0.0  T
   2    -45.4955116 -0.141338E-06  0.213E-02    4.57       1.0  T
   3    -45.4955116 -0.312235E-07  0.968E-04    4.57      18.3  T
   4    -45.4955116 -0.635315E-08  0.506E-04    4.57      34.9  T
     SCC iter.                  ...        0 min,  0.056 sec
     gradient                   ...        0 min,  0.038 sec
 * total energy  :   -44.9836953 Eh     change       -0.3425413E-04 Eh
   gradient norm :     0.0015058 Eh/α   predicted    -0.1354429E-04 ( -60.46%)
   displ. norm   :     0.2817585 α      lambda       -0.3121191E-04
   maximum displ.:     0.2055947 α      in ANC's #2, #1, #3, ...

........................................................................
.............................. CYCLE   52 ..............................
........................................................................

 iter      E             dE          RMSdq      gap      omega  full diag
   1    -45.4951316 -0.454951E+02  0.506E-02    4.56       0.0  T
   2    -45.4951318 -0.168719E-06  0.299E-02    4.56       1.0  T
   3    -45.4951318 -0.548124E-07  0.130E-03    4.56      13.6  T
   4    -45.4951319 -0.149563E-07  0.702E-04    4.56      25.2  T
   5    -45.4951319 -0.800668E-09  0.179E-04    4.56      98.5  T
     SCC iter.                  ...        0 min,  0.067 sec
     gradient                   ...        0 min,  0.040 sec
 * total energy  :   -44.9837325 Eh     change       -0.3719340E-04 Eh
   gradient norm :     0.0017583 Eh/α   predicted    -0.1616105E-04 ( -56.55%)
   displ. norm   :     0.3645016 α      lambda       -0.3179221E-04
   maximum displ.:     0.2666880 α      in ANC's #2, #1, #3, ...

........................................................................
.............................. CYCLE   53 ..............................
........................................................................

 iter      E             dE          RMSdq      gap      omega  full diag
   1    -45.4943739 -0.454944E+02  0.645E-02    4.56       0.0  T
   2    -45.4943742 -0.348592E-06  0.382E-02    4.56       1.0  T
   3    -45.4943743 -0.577317E-07  0.200E-03    4.56       8.8  T
   4    -45.4943743 -0.631357E-07  0.929E-04    4.56      19.0  T
   5    -45.4943743 -0.155746E-08  0.321E-04    4.56      55.1  T
     SCC iter.                  ...        0 min,  0.080 sec
     gradient                   ...        0 min,  0.049 sec
 * total energy  :   -44.9837627 Eh     change       -0.3023316E-04 Eh
   gradient norm :     0.0023015 Eh/α   predicted    -0.1683576E-04 ( -44.31%)
   displ. norm   :     0.1306830 α      lambda       -0.2194713E-04
   maximum displ.:     0.0959562 α      in ANC's #2, #3, #1, ...

........................................................................
.............................. CYCLE   54 ..............................
........................................................................

 iter      E             dE          RMSdq      gap      omega  full diag
   1    -45.4949693 -0.454950E+02  0.236E-02    4.56       0.0  T
   2    -45.4949694 -0.109502E-06  0.139E-02    4.56       1.3  T
   3    -45.4949694 -0.666919E-08  0.934E-04    4.56      18.9  T
   4    -45.4949694 -0.120895E-07  0.375E-04    4.56      47.1  T
     SCC iter.                  ...        0 min,  0.057 sec
     gradient                   ...        0 min,  0.041 sec
 * total energy  :   -44.9837804 Eh     change       -0.1768273E-04 Eh
   gradient norm :     0.0014122 Eh/α   predicted    -0.1116418E-04 ( -36.86%)
   displ. norm   :     0.3092719 α      lambda       -0.2596939E-04
   maximum displ.:     0.2221403 α      in ANC's #2, #3, #1, ...

........................................................................
.............................. CYCLE   55 ..............................
........................................................................

 iter      E             dE          RMSdq      gap      omega  full diag
   1    -45.4956411 -0.454956E+02  0.556E-02    4.56       0.0  T
   2    -45.4956416 -0.446893E-06  0.328E-02    4.56       1.0  T
   3    -45.4956416 -0.415932E-07  0.197E-03    4.56       9.0  T
   4    -45.4956417 -0.582739E-07  0.851E-04    4.56      20.8  T
   5    -45.4956417 -0.193012E-08  0.402E-04    4.56      44.0  T
     SCC iter.                  ...        0 min,  0.085 sec
     gradient                   ...        0 min,  0.044 sec
 * total energy  :   -44.9838058 Eh     change       -0.2536480E-04 Eh
   gradient norm :     0.0012142 Eh/α   predicted    -0.1353818E-04 ( -46.63%)
   displ. norm   :     0.1972265 α      lambda       -0.9791993E-05
   maximum displ.:     0.1346103 α      in ANC's #2, #3, #1, ...

........................................................................
.............................. CYCLE   56 ..............................
........................................................................

 iter      E             dE          RMSdq      gap      omega  full diag
   1    -45.4953681 -0.454954E+02  0.357E-02    4.55       0.0  T
   2    -45.4953682 -0.122045E-06  0.211E-02    4.55       1.0  T
   3    -45.4953682 -0.300988E-07  0.103E-03    4.55      17.2  T
   4    -45.4953682 -0.113231E-07  0.532E-04    4.55      33.2  T
   5    -45.4953682 -0.253486E-09  0.147E-04    4.55     119.9  T
     SCC iter.                  ...        0 min,  0.069 sec
     gradient                   ...        0 min,  0.040 sec
 * total energy  :   -44.9838167 Eh     change       -0.1090430E-04 Eh
   gradient norm :     0.0013227 Eh/α   predicted    -0.4981803E-05 ( -54.31%)
   displ. norm   :     0.1537387 α      lambda       -0.1313000E-04
   maximum displ.:     0.0884060 α      in ANC's #3, #2, #6, ...

........................................................................
.............................. CYCLE   57 ..............................
........................................................................

 iter      E             dE          RMSdq      gap      omega  full diag
   1    -45.4967036 -0.454967E+02  0.291E-02    4.55       0.0  T
   2    -45.4967038 -0.219367E-06  0.172E-02    4.55       1.0  T
   3    -45.4967039 -0.219207E-07  0.129E-03    4.55      13.7  T
   4    -45.4967039 -0.197277E-07  0.563E-04    4.55      31.4  T
   5    -45.4967039 -0.103191E-08  0.287E-04    4.55      61.6  T
     SCC iter.                  ...        0 min,  0.071 sec
     gradient                   ...        0 min,  0.042 sec
 * total energy  :   -44.9838260 Eh     change       -0.9353122E-05 Eh
   gradient norm :     0.0013146 Eh/α   predicted    -0.6635285E-05 ( -29.06%)
   displ. norm   :     0.1951453 α      lambda       -0.9557944E-05
   maximum displ.:     0.1196099 α      in ANC's #2, #3, #6, ...

........................................................................
.............................. CYCLE   58 ..............................
........................................................................

 iter      E             dE          RMSdq      gap      omega  full diag
   1    -45.4953543 -0.454954E+02  0.354E-02    4.55       0.0  T
   2    -45.4953544 -0.179896E-06  0.209E-02    4.55       1.0  T
   3    -45.4953545 -0.388367E-07  0.112E-03    4.55      15.8  T
   4    -45.4953545 -0.106270E-07  0.577E-04    4.55      30.6  T
   5    -45.4953545 -0.307111E-09  0.191E-04    4.55      92.3  T
     SCC iter.                  ...        0 min,  0.072 sec
     gradient                   ...        0 min,  0.038 sec
 * total energy  :   -44.9838329 Eh     change       -0.6826081E-05 Eh
   gradient norm :     0.0009497 Eh/α   predicted    -0.4861729E-05 ( -28.78%)
   displ. norm   :     0.0233219 α      lambda       -0.3924837E-05
   maximum displ.:     0.0144784 α      in ANC's #3, #2, #1, ...

........................................................................
.............................. CYCLE   59 ..............................
........................................................................

 iter      E             dE          RMSdq      gap      omega  full diag
   1    -45.4956316 -0.454956E+02  0.709E-03    4.55       0.0  T
   2    -45.4956316 -0.131358E-07  0.417E-03    4.55       4.2  T
   3    -45.4956316 -0.787125E-09  0.336E-04    4.55      52.6  T
   4    -45.4956316 -0.169620E-08  0.125E-04    4.55     141.9  T
     SCC iter.                  ...        0 min,  0.056 sec
     gradient                   ...        0 min,  0.044 sec
 * total energy  :   -44.9838373 Eh     change       -0.4410284E-05 Eh
   gradient norm :     0.0006631 Eh/α   predicted    -0.1964557E-05 ( -55.46%)
   displ. norm   :     0.0679568 α      lambda       -0.6151159E-05
   maximum displ.:     0.0466038 α      in ANC's #3, #4, #6, ...

........................................................................
.............................. CYCLE   60 ..............................
........................................................................

 iter      E             dE          RMSdq      gap      omega  full diag
   1    -45.4960462 -0.454960E+02  0.150E-02    4.55       0.0  T
   2    -45.4960463 -0.436433E-07  0.882E-03    4.55       2.0  T
   3    -45.4960463 -0.817512E-08  0.573E-04    4.55      30.8  T
   4    -45.4960463 -0.370644E-08  0.281E-04    4.55      62.9  T
     SCC iter.                  ...        0 min,  0.051 sec
     gradient                   ...        0 min,  0.038 sec
 * total energy  :   -44.9838435 Eh     change       -0.6201740E-05 Eh
   gradient norm :     0.0007464 Eh/α   predicted    -0.3086068E-05 ( -50.24%)
   displ. norm   :     0.0696532 α      lambda       -0.3371478E-05
   maximum displ.:     0.0484269 α      in ANC's #3, #4, #6, ...

........................................................................
.............................. CYCLE   61 ..............................
........................................................................

 iter      E             dE          RMSdq      gap      omega  full diag
   1    -45.4960394 -0.454960E+02  0.142E-02    4.55       0.0  T
   2    -45.4960394 -0.279700E-07  0.840E-03    4.55       2.1  T
   3    -45.4960394 -0.710432E-08  0.485E-04    4.55      36.5  T
   4    -45.4960394 -0.224833E-08  0.251E-04    4.55      70.5  T
     SCC iter.                  ...        0 min,  0.053 sec
     gradient                   ...        0 min,  0.038 sec
 * total energy  :   -44.9838469 Eh     change       -0.3399897E-05 Eh
   gradient norm :     0.0006936 Eh/α   predicted    -0.1690346E-05 ( -50.28%)
   displ. norm   :     0.0531901 α      lambda       -0.1953314E-05
   maximum displ.:     0.0362109 α      in ANC's #3, #4, #6, ...

........................................................................
.............................. CYCLE   62 ..............................
........................................................................

 iter      E             dE          RMSdq      gap      omega  full diag
   1    -45.4958685 -0.454959E+02  0.110E-02    4.55       0.0  T
   2    -45.4958686 -0.167849E-07  0.651E-03    4.55       2.7  T
   3    -45.4958686 -0.407315E-08  0.359E-04    4.55      49.3  T
   4    -45.4958686 -0.113443E-08  0.187E-04    4.55      94.4  T
     SCC iter.                  ...        0 min,  0.049 sec
     gradient                   ...        0 min,  0.041 sec
 * total energy  :   -44.9838487 Eh     change       -0.1825743E-05 Eh
   gradient norm :     0.0004514 Eh/α   predicted    -0.9795163E-06 ( -46.35%)
   displ. norm   :     0.0309100 α      lambda       -0.1033701E-05
   maximum displ.:     0.0217982 α      in ANC's #3, #4, #6, ...

........................................................................
.............................. CYCLE   63 ..............................
........................................................................

 iter      E             dE          RMSdq      gap      omega  full diag
   1    -45.4958209 -0.454958E+02  0.628E-03    4.55       0.0  T
   2    -45.4958209 -0.921086E-08  0.373E-03    4.55       4.7  T
   3    -45.4958209 -0.957797E-09  0.281E-04    4.55      62.8  T
   4    -45.4958209 -0.100491E-08  0.118E-04    4.55     149.6  T
     SCC iter.                  ...        0 min,  0.061 sec
     gradient                   ...        0 min,  0.046 sec
 * total energy  :   -44.9838497 Eh     change       -0.9940713E-06 Eh
   gradient norm :     0.0002890 Eh/α   predicted    -0.5216084E-06 ( -47.53%)
   displ. norm   :     0.0239176 α      lambda       -0.6925039E-06
   maximum displ.:     0.0153740 α      in ANC's #3, #5, #4, ...

   *** GEOMETRY OPTIMIZATION CONVERGED AFTER 63 ITERATIONS ***

------------------------------------------------------------------------
 total energy gain   :        -0.0079658 Eh       -4.9986 kcal/mol
 total RMSD          :         0.9552679 a0        0.5055 Å
 total power (kW/mol):        -0.3319702 (step)   -2.0072 (real)
------------------------------------------------------------------------

 ANCopt (total)                0 d,  0 h,  0 min, 10.419 sec
 optimizer setup                ...        0 min,  0.001 sec (  0.006%)
 model hessian                  ...        0 min,  0.086 sec (  0.824%)
 ANC generation                 ...        0 min,  0.004 sec (  0.042%)
 coordinate transformation      ...        0 min,  0.001 sec (  0.008%)
 single point calculation       ...        0 min, 10.034 sec ( 96.304%)
 optimization log               ...        0 min,  0.010 sec (  0.095%)
 hessian update                 ...        0 min,  0.263 sec (  2.528%)
 rational function              ...        0 min,  0.008 sec (  0.078%)

================
 final structure:
================
32
 xtb: 6.7.1 (edcfbbe)
O            0.46919472340398        0.40184267520265        2.48288621215225
C            0.65041317937884        0.09711590213981        1.32636246104942
O           -0.11855887634267        0.45518513817900        0.31434933260196
C           -1.27247460921355        1.26041214964233        0.60591702944883
C           -2.48107716990789        0.37295579057704        0.93103253107790
C           -3.16777913034079        0.17547554032701       -0.41705508221848
C           -3.05203086600548        1.55705815414000       -1.05550207298951
C           -1.64228358260893        2.02428354827812       -0.67536110115808
C            1.84852882680835       -0.74299102717235        0.89940767021822
O            2.57792026651829       -1.07668747676560        2.05212855313457
C            1.39491895112609       -2.01006242260575        0.12898192560296
C            2.24781886459299       -2.04362270708893       -1.13758315400422
C            2.43999816821675       -0.56718991311644       -1.46714424688538
C            2.72415508053007        0.05245822878381       -0.10387978257727
H           -1.01519281505122        1.91416280069709        1.44497886031711
H           -2.17187757517876       -0.55970412554378        1.40060080623132
H           -3.14135108642718        0.90308356198183        1.61765021999968
H           -2.61934315134424       -0.55745109151544       -1.01026315404703
H           -4.19916976158254       -0.15712828575623       -0.31569804075433
H           -3.19909049487170        1.53530742893989       -2.13380210196268
H           -3.79729323270876        2.22493087707364       -0.62080705166650
H           -0.92499978771844        1.74998724963078       -1.44884859993941
H           -1.59256728318174        3.10153389388544       -0.52976550291716
H            2.13374728192179       -0.65736943442240        2.80770302276140
H            1.53957404196593       -2.88657253244122        0.75774899118069
H            0.33940514091367       -1.92941817004010       -0.13097481046241
H            3.21367436896233       -2.50100645286121       -0.92211456544361
H            1.76853442287446       -2.59903882378598       -1.94215180384299
H            3.24835949253912       -0.39176519538116       -2.17539650477357
H            1.51693145381859       -0.15546928495634       -1.87777950387496
H            2.51906849255644        1.12190687611040       -0.07117754432578
H            3.76284666635689       -0.11222287213242        0.18430611969898

 Bond Distances (Angstroems)
 ---------------------------
O1-C2=1.2096         C2-O1=1.2096         C2-O3=1.3205         C2-C9=1.5243         O3-C2=1.3205         O3-C4=1.4370         
C4-O3=1.4370         C4-C5=1.5343         C4-C8=1.5369         C4-H15=1.0944        C5-C4=1.5343         C5-C6=1.5257         
C5-H16=1.0890        C5-H17=1.0902        C6-C5=1.5257         C6-C7=1.5264         C6-H18=1.0908        C6-H19=1.0884        
C7-C6=1.5264         C7-C8=1.5330         C7-H20=1.0885        C7-H21=1.0911        C8-C4=1.5369         C8-C7=1.5330         
C8-H22=1.0900        C8-H23=1.0882        C9-C2=1.5243         C9-O10=1.4043        C9-C11=1.5507        C9-C14=1.5511        
O10-C9=1.4043        O10-H24=0.9716       C11-C9=1.5507        C11-C12=1.5273       C11-H25=1.0884       C11-H26=1.0900       
C12-C11=1.5273       C12-C13=1.5249       C12-H27=1.0902       C12-H28=1.0888       C13-C12=1.5249       C13-C14=1.5242       
C13-H29=1.0890       C13-H30=1.0910       C14-C9=1.5511        C14-C13=1.5242       C14-H31=1.0894       C14-H32=1.0904       
H15-C4=1.0944        H16-C5=1.0890        H17-C5=1.0902        H18-C6=1.0908        H19-C6=1.0884        H20-C7=1.0885        
H21-C7=1.0911        H22-C8=1.0900        H23-C8=1.0882        H24-O10=0.9716       H25-C11=1.0884       H26-C11=1.0900       
H27-C12=1.0902       H28-C12=1.0888       H29-C13=1.0890       H30-C13=1.0910       H31-C14=1.0894       H32-C14=1.0904       
 C  H  Rav=1.0899 sigma=0.0015  Rmin=1.0882  Rmax=1.0944    17
 C  C  Rav=1.5326 sigma=0.0096  Rmin=1.5242  Rmax=1.5511    11
 O  H  Rav=0.9716 sigma=0.0000  Rmin=0.9716  Rmax=0.9716     1
 O  C  Rav=1.3429 sigma=0.0879  Rmin=1.2096  Rmax=1.4370     4

 selected bond angles (degree)
 --------------------
O3-C2-O1=125.25                C9-C2-O1=121.63                C9-C2-O3=113.11                C4-O3-C2=117.65                
C5-C4-O3=110.58                C8-C4-O3=107.61                C8-C4-C5=105.94                H15-C4-O3=107.55               
H15-C4-C5=111.61               H15-C4-C8=113.51               C6-C5-C4=104.02                H16-C5-C4=111.29               
H16-C5-C6=113.45               H17-C5-C4=109.23               H17-C5-C6=110.29               H17-C5-H16=108.47              
C7-C6-C5=102.61                H18-C6-C5=109.95               H18-C6-C7=110.03               H19-C6-C5=112.57               
H19-C6-C7=112.79               H19-C6-H18=108.77              C8-C7-C6=104.00                H20-C7-C6=112.71               
H20-C7-C8=112.08               H21-C7-C6=109.61               H21-C7-C8=110.05               H21-C7-H20=108.34              
C7-C8-C4=106.05                H22-C8-C4=107.95               H22-C8-C7=110.64               H23-C8-C4=111.68               
H23-C8-C7=112.14               H23-C8-H22=108.30              O10-C9-C2=108.02               C11-C9-C2=111.07               
C11-C9-O10=111.44              C14-C9-C2=110.01               C14-C9-O10=111.07              C14-C9-C11=105.24              
H24-O10-C9=107.36              

 selected dihedral angles (degree)
 ---------------------------------
C4-O3-C2-O1=359.33            C4-O3-C2-C9=180.49            C5-C4-O3-C2=271.63            C8-C4-O3-C2=156.36            
H15-C4-O3-C2= 33.72           C6-C5-C4-O3=268.45            C6-C5-C4-C8= 24.77            C6-C5-C4-H15=148.78           
H16-C5-C4-O3= 30.96           H16-C5-C4-C8=147.28           H16-C5-C4-H15=271.29          H17-C5-C4-O3=150.70           
H17-C5-C4-C8=267.02           H17-C5-C4-H15= 31.03          C7-C6-C5-C4=319.95            C7-C6-C5-H16=198.87           
C7-C6-C5-H17= 76.96           H18-C6-C5-C4= 76.99           H18-C6-C5-H16=315.92          H18-C6-C5-H17=194.00          
H19-C6-C5-C4=198.43           H19-C6-C5-H16= 77.35          H19-C6-C5-H17=315.44          C8-C7-C6-C5= 40.01            
C8-C7-C6-H18=283.03           C8-C7-C6-H19=161.38           H20-C7-C6-C5=161.64           H20-C7-C6-H18= 44.66          
H20-C7-C6-H19=283.01          H21-C7-C6-C5=282.38           H21-C7-C6-H18=165.40          H21-C7-C6-H19= 43.75          
C7-C8-C4-O3=118.26            C7-C8-C4-C5=359.96            C7-C8-C4-H15=237.15           H22-C8-C4-O3=359.65           
H22-C8-C4-C5=241.35           H22-C8-C4-H15=118.54          H23-C8-C4-O3=240.70           H23-C8-C4-C5=122.40           
H23-C8-C4-H15=359.59          C4-C8-C7-C6=335.31            C4-C8-C7-H20=213.27           C4-C8-C7-H21= 92.65           
H22-C8-C7-C6= 92.13           H22-C8-C7-H20=330.09          H22-C8-C7-H21=209.46          H23-C8-C7-C6=213.16           
H23-C8-C7-H20= 91.12          H23-C8-C7-H21=330.49          O10-C9-C2-O1=  1.86           O10-C9-C2-O3=180.76           
C11-C9-C2-O1=124.36           C11-C9-C2-O3=303.26           C14-C9-C2-O1=240.47           C14-C9-C2-O3= 59.37           
H24-O10-C9-C2=358.32          H24-O10-C9-C11=236.05         H24-O10-C9-C14=119.05         
           -------------------------------------------------
          |                Final Singlepoint                |
           -------------------------------------------------

          ...................................................
          :                      SETUP                      :
          :.................................................:
          :  # basis functions                  74          :
          :  # atomic orbitals                  74          :
          :  # shells                           46          :
          :  # electrons                        80          :
          :  max. iterations                   250          :
          :  Hamiltonian                  GFN2-xTB          :
          :  restarted?                      false          :
          :  GBSA solvation                  false          :
          :  PC potential                    false          :
          :  electronic temp.          300.0000000     K    :
          :  accuracy                    1.0000000          :
          :  -> integral cutoff          0.2500000E+02      :
          :  -> integral neglect         0.1000000E-07      :
          :  -> SCF convergence          0.1000000E-05 Eh   :
          :  -> wf. convergence          0.1000000E-03 e    :
          :  Broyden damping             0.4000000          :
          :  net charge                          0          :
          :  unpaired electrons                  0          :
          ...................................................

 iter      E             dE          RMSdq      gap      omega  full diag
   1    -45.4958209 -0.454958E+02  0.542E-05    4.55       0.0  T
   2    -45.4958209 -0.736833E-11  0.331E-05    4.55     534.5  T
   3    -45.4958209  0.255795E-12  0.149E-05    4.55    1183.4  T

   *** convergence criteria satisfied after 3 iterations ***

         #    Occupation            Energy/Eh            Energy/eV
      -------------------------------------------------------------
         1        2.0000           -0.7493064             -20.3897
       ...           ...                  ...                  ...
        34        2.0000           -0.4476967             -12.1824
        35        2.0000           -0.4471292             -12.1670
        36        2.0000           -0.4439508             -12.0805
        37        2.0000           -0.4365090             -11.8780
        38        2.0000           -0.4289135             -11.6713
        39        2.0000           -0.4133154             -11.2469
        40        2.0000           -0.4039664             -10.9925 (HOMO)
        41                         -0.2366987              -6.4409 (LUMO)
        42                         -0.0208981              -0.5687
        43                          0.0435150               1.1841
        44                          0.0457327               1.2445
        45                          0.0507648               1.3814
       ...                                ...                  ...
        74                          0.6297296              17.1358
      -------------------------------------------------------------
                  HL-Gap            0.1672677 Eh            4.5516 eV
             Fermi-level           -0.3203325 Eh           -8.7167 eV

 SCC (total)                   0 d,  0 h,  0 min,  0.108 sec
 SCC setup                      ...        0 min,  0.003 sec (  3.047%)
 Dispersion                     ...        0 min,  0.009 sec (  7.946%)
 classical contributions        ...        0 min,  0.004 sec (  3.580%)
 integral evaluation            ...        0 min,  0.014 sec ( 13.258%)
 iterations                     ...        0 min,  0.044 sec ( 40.314%)
 molecular gradient             ...        0 min,  0.034 sec ( 31.669%)
 printout                       ...        0 min,  0.000 sec (  0.160%)

         :::::::::::::::::::::::::::::::::::::::::::::::::::::
         ::                     SUMMARY                     ::
         :::::::::::::::::::::::::::::::::::::::::::::::::::::
         :: total energy             -44.983849706236 Eh    ::
         :: gradient norm              0.000289180531 Eh/a0 ::
         :: HOMO-LUMO gap              4.551585511576 eV    ::
         ::.................................................::
         :: SCC energy               -45.495430112324 Eh    ::
         :: -> isotropic ES            0.070901930053 Eh    ::
         :: -> anisotropic ES          0.001800230831 Eh    ::
         :: -> anisotropic XC          0.010647170656 Eh    ::
         :: -> dispersion             -0.026479309475 Eh    ::
         :: repulsion energy           0.511580406088 Eh    ::
         :: add. restraining           0.000000000000 Eh    ::
         :: total charge               0.000000000000 e     ::
         :::::::::::::::::::::::::::::::::::::::::::::::::::::

           -------------------------------------------------
          |                Property Printout                |
           -------------------------------------------------

    * Orbital Energies and Occupations

         #    Occupation            Energy/Eh            Energy/eV
      -------------------------------------------------------------
         1        2.0000           -0.7493064             -20.3897
       ...           ...                  ...                  ...
        28        2.0000           -0.4698822             -12.7861
        29        2.0000           -0.4654460             -12.6654
        30        2.0000           -0.4582183             -12.4688
        31        2.0000           -0.4566709             -12.4266
        32        2.0000           -0.4559310             -12.4065
        33        2.0000           -0.4498394             -12.2408
        34        2.0000           -0.4476967             -12.1824
        35        2.0000           -0.4471292             -12.1670
        36        2.0000           -0.4439508             -12.0805
        37        2.0000           -0.4365090             -11.8780
        38        2.0000           -0.4289135             -11.6713
        39        2.0000           -0.4133154             -11.2469
        40        2.0000           -0.4039664             -10.9925 (HOMO)
        41                         -0.2366987              -6.4409 (LUMO)
        42                         -0.0208981              -0.5687
        43                          0.0435150               1.1841
        44                          0.0457327               1.2445
        45                          0.0507648               1.3814
        46                          0.0538103               1.4643
        47                          0.0649178               1.7665
        48                          0.0826241               2.2483
        49                          0.0994041               2.7049
        50                          0.1109450               3.0190
        51                          0.1175338               3.1983
       ...                                ...                  ...
        74                          0.6297296              17.1358
      -------------------------------------------------------------
                  HL-Gap            0.1672677 Eh            4.5516 eV
             Fermi-level           -0.3203325 Eh           -8.7167 eV

     #   Z          covCN         q      C6AA      α(0)
     1   8 O        0.856    -0.429    22.277     6.328
     2   6 C        2.719     0.340    21.217     7.540
     3   8 O        1.703    -0.256    18.250     5.768
     4   6 C        3.769     0.114    18.750     6.171
     5   6 C        3.828    -0.062    21.672     6.624
     6   6 C        3.828    -0.060    21.624     6.617
     7   6 C        3.827    -0.061    21.658     6.622
     8   6 C        3.821    -0.069    21.809     6.646
     9   6 C        3.789     0.121    18.627     6.147
    10   8 O        1.656    -0.446    21.771     6.299
    11   6 C        3.824    -0.067    21.758     6.638
    12   6 C        3.828    -0.059    21.617     6.616
    13   6 C        3.827    -0.060    21.630     6.618
    14   6 C        3.827    -0.066    21.742     6.635
    15   1 H        0.924     0.047     2.354     2.399
    16   1 H        0.925     0.045     2.377     2.411
    17   1 H        0.925     0.046     2.374     2.409
    18   1 H        0.924     0.043     2.412     2.429
    19   1 H        0.925     0.039     2.469     2.457
    20   1 H        0.925     0.041     2.436     2.441
    21   1 H        0.924     0.039     2.464     2.455
    22   1 H        0.925     0.058     2.219     2.329
    23   1 H        0.925     0.042     2.417     2.431
    24   1 H        0.804     0.310     0.691     1.306
    25   1 H        0.925     0.056     2.241     2.341
    26   1 H        0.925     0.037     2.483     2.464
    27   1 H        0.925     0.046     2.369     2.407
    28   1 H        0.925     0.036     2.497     2.471
    29   1 H        0.925     0.039     2.465     2.455
    30   1 H        0.924     0.040     2.449     2.447
    31   1 H        0.925     0.032     2.561     2.503
    32   1 H        0.924     0.064     2.158     2.297

 Mol. C6AA /au·bohr⁶  :       8299.532289
 Mol. C8AA /au·bohr⁸  :     181912.014286
 Mol. α(0) /au        :        133.719812


Wiberg/Mayer (AO) data.
largest (>0.10) Wiberg bond orders for each atom

 ---------------------------------------------------------------------------
     #   Z sym  total        # sym  WBO       # sym  WBO       # sym  WBO
 ---------------------------------------------------------------------------
     1   8 O    2.033 --     2 C    1.715     3 O    0.171
     2   6 C    3.911 --     1 O    1.715     3 O    1.170     9 C    0.938
     3   8 O    2.330 --     2 C    1.170     4 C    0.915     1 O    0.171
     4   6 C    3.919 --     8 C    0.989     5 C    0.986    15 H    0.965
                             3 O    0.915
     5   6 C    3.994 --     6 C    1.008     4 C    0.986    17 H    0.977
                            16 H    0.977
     6   6 C    3.997 --     5 C    1.008     7 C    1.008    18 H    0.979
                            19 H    0.979
     7   6 C    3.996 --     6 C    1.008     8 C    1.005    21 H    0.981
                            20 H    0.980
     8   6 C    3.993 --     7 C    1.005     4 C    0.989    23 H    0.981
                            22 H    0.975
     9   6 C    3.958 --    10 O    1.005    11 C    0.953    14 C    0.949
                             2 C    0.938
    10   8 O    1.964 --     9 C    1.005    24 H    0.865
    11   6 C    3.994 --    12 C    1.007    26 H    0.978    25 H    0.977
                             9 C    0.953
    12   6 C    3.996 --    13 C    1.007    11 C    1.007    27 H    0.979
                            28 H    0.979
    13   6 C    3.997 --    14 C    1.009    12 C    1.007    30 H    0.979
                            29 H    0.978
    14   6 C    3.993 --    13 C    1.009    31 H    0.979    32 H    0.973
                             9 C    0.949
    15   1 H    0.998 --     4 C    0.965
    16   1 H    0.998 --     5 C    0.977
    17   1 H    0.997 --     5 C    0.977
    18   1 H    0.998 --     6 C    0.979
    19   1 H    0.998 --     6 C    0.979
    20   1 H    0.998 --     7 C    0.980
    21   1 H    0.998 --     7 C    0.981
    22   1 H    0.997 --     8 C    0.975
    23   1 H    0.998 --     8 C    0.981
    24   1 H    0.904 --    10 O    0.865
    25   1 H    0.997 --    11 C    0.977
    26   1 H    0.999 --    11 C    0.978
    27   1 H    0.998 --    12 C    0.979
    28   1 H    0.998 --    12 C    0.979
    29   1 H    0.998 --    13 C    0.978
    30   1 H    0.998 --    13 C    0.979
    31   1 H    0.999 --    14 C    0.979
    32   1 H    0.996 --    14 C    0.973
 ---------------------------------------------------------------------------

Topologies differ in total number of bonds
Writing topology from bond orders to xtbtopo.mol

molecular dipole:
                 x           y           z       tot (Debye)
 q only:       -0.783       0.212      -1.179
   full:       -0.920       0.378      -1.095       3.761
molecular quadrupole (traceless):
                xx          xy          yy          xz          yz          zz
 q only:        3.398      -0.892       2.543      -4.085       0.039      -5.941
  q+dip:        2.187       0.522       4.172      -5.781       1.349      -6.359
   full:        1.958       1.096       4.238      -5.537       0.924      -6.195

           -------------------------------------------------
          |                Geometry Summary                 |
           -------------------------------------------------

      molecular mass/u    :      198.2592432
   center of mass at/Å    :        0.2042505      -0.0068481       0.3076451
  moments of inertia/u·Å² :        0.4205907E+03   0.1164164E+04   0.1322114E+04
rotational constants/cm⁻¹ :        0.4008085E-01   0.1448047E-01   0.1275052E-01

 * 30 selected distances

     #   Z          #   Z                                           value/Å
     1   8 O        2   6 C                                       1.2096471
     2   6 C        3   8 O                                       1.3204933
     3   8 O        4   6 C                                       1.4369844
     4   6 C        5   6 C                                       1.5342749
     5   6 C        6   6 C                                       1.5257453
     6   6 C        7   6 C                                       1.5263627
     4   6 C        8   6 C                                       1.5368579 (max)
     7   6 C        8   6 C                                       1.5330344
     9   6 C       10   8 O                                       1.4043258
    11   6 C       12   6 C                                       1.5273350
    12   6 C       13   6 C                                       1.5249254
    13   6 C       14   6 C                                       1.5242045
     4   6 C       15   1 H                                       1.0943531
     5   6 C       16   1 H                                       1.0890149
     5   6 C       17   1 H                                       1.0901565
     6   6 C       18   1 H                                       1.0908068
     6   6 C       19   1 H                                       1.0884234
     7   6 C       20   1 H                                       1.0884993
     7   6 C       21   1 H                                       1.0910683
     8   6 C       22   1 H                                       1.0899622
     8   6 C       23   1 H                                       1.0881812
    10   8 O       24   1 H                                       0.9716019 (min)
    11   6 C       25   1 H                                       1.0883673
    11   6 C       26   1 H                                       1.0900416
    12   6 C       27   1 H                                       1.0901852
    12   6 C       28   1 H                                       1.0888212
    13   6 C       29   1 H                                       1.0889643
    13   6 C       30   1 H                                       1.0909572
    14   6 C       31   1 H                                       1.0894267
    14   6 C       32   1 H                                       1.0904363

 * 4 distinct bonds (by element types)

   Z      Z             #   av. dist./Å        max./Å        min./Å
   1 H    6 C          17     1.0898627     1.0943531     1.0881812
   6 C    6 C           8     1.5290925     1.5368579     1.5242045
   1 H    8 O           1     0.9716019     0.9716019     0.9716019
   6 C    8 O           4     1.3428626     1.4369844     1.2096471


optimized geometry written to: xtbopt.xyz


           -------------------------------------------------
          | TOTAL ENERGY              -44.983849706236 Eh   |
          | GRADIENT NORM               0.000289180531 Eh/α |
          | HOMO-LUMO GAP               4.551585511576 eV   |
           -------------------------------------------------

------------------------------------------------------------------------
 * finished run on 2026/07/07 at 17:04:15.803     
------------------------------------------------------------------------
 total:
 * wall-time:     0 d,  0 h,  0 min, 10.983 sec
 *  cpu-time:     0 d,  0 h,  2 min, 55.007 sec
 * ratio c/w:    15.934 speedup
 SCF:
 * wall-time:     0 d,  0 h,  0 min,  0.365 sec
 *  cpu-time:     0 d,  0 h,  0 min,  5.833 sec
 * ratio c/w:    15.998 speedup
 ANC optimizer:
 * wall-time:     0 d,  0 h,  0 min, 10.533 sec
 *  cpu-time:     0 d,  0 h,  2 min, 48.051 sec
 * ratio c/w:    15.955 speedup

