      -----------------------------------------------------------      
     |                   =====================                   |     
     |                           x T B                           |     
     |                   =====================                   |     
     |                         S. Grimme                         |     
     |          Mulliken Center for Theoretical Chemistry        |     
     |                    University of Bonn                     |     
      -----------------------------------------------------------      

   * xtb version 6.7.1 (edcfbbe) compiled by 'conda@5dfe00f5fb80' on 2026-06-10

   xtb is free software: you can redistribute it and/or modify it under
   the terms of the GNU Lesser General Public License as published by
   the Free Software Foundation, either version 3 of the License, or
   (at your option) any later version.
   
   xtb is distributed in the hope that it will be useful,
   but WITHOUT ANY WARRANTY; without even the implied warranty of
   MERCHANTABILITY or FITNESS FOR A PARTICULAR PURPOSE.  See the
   GNU Lesser General Public License for more details.
   
   Cite this work as:
   * C. Bannwarth, E. Caldeweyher, S. Ehlert, A. Hansen, P. Pracht,
     J. Seibert, S. Spicher, S. Grimme, WIREs Comput. Mol. Sci., 2020, 11,
     e01493. DOI: 10.1002/wcms.1493
   
   for GFN2-xTB:
   * C. Bannwarth, S. Ehlert and S. Grimme., J. Chem. Theory Comput., 2019,
     15, 1652-1671. DOI: 10.1021/acs.jctc.8b01176
   for GFN1-xTB:
   * S. Grimme, C. Bannwarth, P. Shushkov, J. Chem. Theory Comput., 2017,
     13, 1989-2009. DOI: 10.1021/acs.jctc.7b00118
   for GFN0-xTB:
   * P. Pracht, E. Caldeweyher, S. Ehlert, S. Grimme, ChemRxiv, 2019, preprint.
     DOI: 10.26434/chemrxiv.8326202.v1
   for GFN-FF:
   * S. Spicher and S. Grimme, Angew. Chem. Int. Ed., 2020, 59, 15665-15673.
     DOI: 10.1002/anie.202004239
   
   for ALPB and GBSA implicit solvation:
   * S. Ehlert, M. Stahn, S. Spicher, S. Grimme, J. Chem. Theory Comput.,
     2021, 17, 4250-4261. DOI: 10.1021/acs.jctc.1c00471
   
   for ddCOSMO and CPCM-X implicit solvation:
   * M. Stahn, S. Ehlert, S. Grimme, J. Phys. Chem. A,
     2023, XX, XXXX-XXXX. DOI: 10.1021/acs.jpca.3c04382
   
   for DFT-D4:
   * E. Caldeweyher, C. Bannwarth and S. Grimme, J. Chem. Phys., 2017,
     147, 034112. DOI: 10.1063/1.4993215
   * E. Caldeweyher, S. Ehlert, A. Hansen, H. Neugebauer, S. Spicher,
     C. Bannwarth and S. Grimme, J. Chem. Phys., 2019, 150, 154122.
     DOI: 10.1063/1.5090222
   * E. Caldeweyher, J.-M. Mewes, S. Ehlert and S. Grimme, Phys. Chem. Chem. Phys.
     2020, 22, 8499-8512. DOI: 10.1039/D0CP00502A
   
   for sTDA-xTB:
   * S. Grimme and C. Bannwarth, J. Chem. Phys., 2016, 145, 054103.
     DOI: 10.1063/1.4959605
   
   in the mass-spec context:
   * V. Asgeirsson, C. Bauer and S. Grimme, Chem. Sci., 2017, 8, 4879.
     DOI: 10.1039/c7sc00601b
   * J. Koopman and S. Grimme, ACS Omega 2019, 4, 12, 15120-15133.
     DOI: 10.1021/acsomega.9b02011
   
   for metadynamics refer to:
   * S. Grimme, J. Chem. Theory Comput., 2019, 155, 2847-2862
     DOI: 10.1021/acs.jctc.9b00143
   
   for SPH calculations refer to:
   * S. Spicher and S. Grimme, J. Chem. Theory Comput., 2021, 17, 1701-1714
     DOI: 10.1021/acs.jctc.0c01306
   
   for ONIOM refer to:
   * C. Plett, A. Katbashev, S. Ehlert, S. Grimme, M. Bursch,
     Phys. Chem. Chem. Phys., 2023, 25, 17860-17868. DOI: 10.1039/D3CP02178E
   
   for DIPRO refer to:
   * J. Kohn, N. Gildemeister, S. Grimme, D. Fazzi, A. Hansen,
     J. Chem. Phys., 2023, just accepted.
   
   for PTB refer to:
   * S. Grimme, M. Mueller, A. Hansen, J. Chem. Phys., 2023, 158, 124111.
     DOI: 10.1063/5.0137838
   
   with help from (in alphabetical order)
   P. Atkinson, C. Bannwarth, F. Bohle, G. Brandenburg, E. Caldeweyher
   M. Checinski, S. Dohm, S. Ehlert, S. Ehrlich, I. Gerasimov, C. Hölzer
   A. Katbashev, J. Kohn, J. Koopman, C. Lavigne, S. Lehtola, F. März, M. Müller,
   F. Musil, H. Neugebauer, J. Pisarek, C. Plett, P. Pracht, F. Pultar,
   J. Seibert, P. Shushkov, S. Spicher, M. Stahn, M. Steiner, T. Strunk,
   J. Stückrath, T. Rose, and J. Unsleber
   
 * started run on 2026/07/08 at 03:49:11.365     
   ID    Z sym.   atoms
    1    6 C      1, 2, 4, 6-13
    2    8 O      3, 5
    3    1 H      14-25

           -------------------------------------------------
          |                Calculation Setup                |
           -------------------------------------------------

          program call               : /home/ws/xd2484/miniforge3/envs/p3z_dft/bin/xtb xtb_input.xyz --gfn 2 --opt tight --cycles 500 --chrg 0 --uhf 0
          hostname                   : gpu10
          coordinate file            : xtb_input.xyz
          omp threads                :                    16


           -------------------------------------------------
          |                 G F N 2 - x T B                 |
           -------------------------------------------------

        Reference                      10.1021/acs.jctc.8b01176
      * Hamiltonian:
        H0-scaling (s, p, d)           1.850000    2.230000    2.230000
        zeta-weighting                 0.500000
      * Dispersion:
        s8                             2.700000
        a1                             0.520000
        a2                             5.000000
        s9                             5.000000
      * Repulsion:
        kExp                           1.500000    1.000000
        rExp                           1.000000
      * Coulomb:
        alpha                          2.000000
        third order                    shell-resolved
        anisotropic                    true
        a3                             3.000000
        a5                             4.000000
        cn-shift                       1.200000
        cn-exp                         4.000000
        max-rad                        5.000000


          ...................................................
          :                      SETUP                      :
          :.................................................:
          :  # basis functions                  64          :
          :  # atomic orbitals                  64          :
          :  # shells                           38          :
          :  # electrons                        68          :
          :  max. iterations                   250          :
          :  Hamiltonian                  GFN2-xTB          :
          :  restarted?                      false          :
          :  GBSA solvation                  false          :
          :  PC potential                    false          :
          :  electronic temp.          300.0000000     K    :
          :  accuracy                    1.0000000          :
          :  -> integral cutoff          0.2500000E+02      :
          :  -> integral neglect         0.1000000E-07      :
          :  -> SCF convergence          0.1000000E-05 Eh   :
          :  -> wf. convergence          0.1000000E-03 e    :
          :  Broyden damping             0.4000000          :
          :  net charge                          0          :
          :  unpaired electrons                  0          :
          ...................................................

 iter      E             dE          RMSdq      gap      omega  full diag
   1    -38.2606912 -0.382607E+02  0.486E+00    3.32       0.0  T
   2    -38.3168904 -0.561992E-01  0.271E+00    3.15       1.0  T
   3    -38.3148353  0.205509E-02  0.123E+00    3.26       1.0  T
   4    -38.3207581 -0.592278E-02  0.301E-01    3.14       1.0  T
   5    -38.3220068 -0.124873E-02  0.144E-01    3.15       1.0  T
   6    -38.3224000 -0.393123E-03  0.470E-02    3.15       1.0  T
   7    -38.3224077 -0.772059E-05  0.206E-02    3.16       1.0  T
   8    -38.3224104 -0.273642E-05  0.921E-03    3.16       2.2  T
   9    -38.3224113 -0.843628E-06  0.275E-03    3.16       7.3  T
  10    -38.3224113 -0.353784E-07  0.102E-03    3.16      19.6  T
  11    -38.3224113 -0.301586E-08  0.560E-04    3.16      35.7  T
  12    -38.3224113 -0.678966E-09  0.274E-04    3.16      73.0  T

   *** convergence criteria satisfied after 12 iterations ***

         #    Occupation            Energy/Eh            Energy/eV
      -------------------------------------------------------------
         1        2.0000           -0.7331303             -19.9495
       ...           ...                  ...                  ...
        28        2.0000           -0.4423075             -12.0358
        29        2.0000           -0.4351750             -11.8417
        30        2.0000           -0.4348102             -11.8318
        31        2.0000           -0.4278346             -11.6420
        32        2.0000           -0.4111566             -11.1881
        33        2.0000           -0.4091119             -11.1325
        34        2.0000           -0.3992174             -10.8633 (HOMO)
        35                         -0.2832066              -7.7064 (LUMO)
        36                         -0.2344762              -6.3804
        37                         -0.2206216              -6.0034
        38                         -0.1617212              -4.4007
        39                         -0.0986845              -2.6853
       ...                                ...                  ...
        64                          0.6840872              18.6150
      -------------------------------------------------------------
                  HL-Gap            0.1160108 Eh            3.1568 eV
             Fermi-level           -0.3412120 Eh           -9.2849 eV

 SCC (total)                   0 d,  0 h,  0 min,  0.217 sec
 SCC setup                      ...        0 min,  0.004 sec (  1.943%)
 Dispersion                     ...        0 min,  0.007 sec (  3.231%)
 classical contributions        ...        0 min,  0.004 sec (  2.043%)
 integral evaluation            ...        0 min,  0.014 sec (  6.549%)
 iterations                     ...        0 min,  0.152 sec ( 70.111%)
 molecular gradient             ...        0 min,  0.035 sec ( 16.032%)
 printout                       ...        0 min,  0.000 sec (  0.076%)

         :::::::::::::::::::::::::::::::::::::::::::::::::::::
         ::                     SUMMARY                     ::
         :::::::::::::::::::::::::::::::::::::::::::::::::::::
         :: total energy             -37.777959245265 Eh    ::
         :: gradient norm              0.048793375451 Eh/a0 ::
         :: HOMO-LUMO gap              3.156813940332 eV    ::
         ::.................................................::
         :: SCC energy               -38.322576627743 Eh    ::
         :: -> isotropic ES            0.046718579521 Eh    ::
         :: -> anisotropic ES          0.001985186434 Eh    ::
         :: -> anisotropic XC          0.017945290250 Eh    ::
         :: -> dispersion             -0.019441020877 Eh    ::
         :: repulsion energy           0.544617382478 Eh    ::
         :: add. restraining           0.000000000000 Eh    ::
         :: total charge               0.000000000000 e     ::
         :::::::::::::::::::::::::::::::::::::::::::::::::::::

      ----------------------------------------------------------- 
     |                   =====================                   |
     |                        A N C O P T                        |
     |                   =====================                   |
     |               Approximate Normal Coordinate               |
     |                Rational Function Optimizer                |
      ----------------------------------------------------------- 
      ----------------------------------------------------------- 
     |                   =====================                   |
     |                        A N C O P T                        |
     |                   =====================                   |
     |               Approximate Normal Coordinate               |
     |                Rational Function Optimizer                |
      ----------------------------------------------------------- 

          ...................................................
          :                      SETUP                      :
          :.................................................:
          :   optimization level             tight          :
          :   max. optcycles                   500          :
          :   ANC micro-cycles                  20          :
          :   degrees of freedom                69          :
          :.................................................:
          :   RF solver                   davidson          :
          :   write xtbopt.log                true          :
          :   linear?                        false          :
          :   energy convergence         0.1000000E-05 Eh   :
          :   grad. convergence          0.8000000E-03 Eh/α :
          :   maxmium RF displ.          1.0000000          :
          :   Hlow (freq-cutoff)         0.1000000E-01      :
          :   Hmax (freq-cutoff)         5.0000000          :
          :   S6 in model hess.         20.0000000          :
          ...................................................

generating ANC from exact Hessian ...
Using Lindh-Hessian (1995)
 Shifting diagonal of input Hessian by    9.3095076876107217E-003
 Lowest  eigenvalues of input Hessian
    0.000000    0.000000    0.000000    0.000000    0.000000    0.000000
    0.010000    0.010584    0.010708    0.013098    0.014330    0.015623
    0.020024    0.021219    0.022731    0.023561    0.029026    0.032376
 Highest eigenvalues
    1.681091    1.838194    1.904631    1.945080    2.021105    2.333934


........................................................................
.............................. CYCLE    1 ..............................
........................................................................

 iter      E             dE          RMSdq      gap      omega  full diag
   1    -38.3224113 -0.383224E+02  0.573E-05    3.16       0.0  T
   2    -38.3224113 -0.373745E-11  0.344E-05    3.16     581.2  T
   3    -38.3224113  0.385825E-11  0.205E-05    3.16     975.1  T
     SCC iter.                  ...        0 min,  0.032 sec
     gradient                   ...        0 min,  0.038 sec
 * total energy  :   -37.7779592 Eh     change       -0.1111509E-08 Eh
   gradient norm :     0.0487948 Eh/α   predicted     0.0000000E+00 (-100.00%)
   displ. norm   :     0.1448552 α      lambda       -0.4866743E-02
   maximum displ.:     0.0580942 α      in ANC's #43, #41, #6, ...

........................................................................
.............................. CYCLE    2 ..............................
........................................................................

 iter      E             dE          RMSdq      gap      omega  full diag
   1    -38.3505244 -0.383505E+02  0.174E-01    3.21       0.0  T
   2    -38.3505489 -0.244681E-04  0.104E-01    3.21       1.0  T
   3    -38.3505425  0.636884E-05  0.288E-02    3.21       1.0  T
   4    -38.3505530 -0.105048E-04  0.444E-03    3.21       4.5  T
   5    -38.3505531 -0.824389E-07  0.280E-03    3.21       7.1  T
   6    -38.3505531 -0.272703E-07  0.143E-03    3.21      14.0  T
   7    -38.3505531 -0.214298E-07  0.370E-04    3.21      54.1  T
   8    -38.3505531 -0.119427E-08  0.203E-04    3.21      98.7  T
     SCC iter.                  ...        0 min,  0.108 sec
     gradient                   ...        0 min,  0.033 sec
 * total energy  :   -37.7809918 Eh     change       -0.3032516E-02 Eh
   gradient norm :     0.0159987 Eh/α   predicted    -0.2484463E-02 ( -18.07%)
   displ. norm   :     0.1151301 α      lambda       -0.6708698E-03
   maximum displ.:     0.0678290 α      in ANC's #5, #10, #6, ...

........................................................................
.............................. CYCLE    3 ..............................
........................................................................

 iter      E             dE          RMSdq      gap      omega  full diag
   1    -38.3581308 -0.383581E+02  0.893E-02    3.20       0.0  T
   2    -38.3581387 -0.785564E-05  0.517E-02    3.20       1.0  T
   3    -38.3581377  0.956008E-06  0.157E-02    3.20       1.3  T
   4    -38.3581394 -0.169411E-05  0.385E-03    3.20       5.2  T
   5    -38.3581396 -0.174382E-06  0.174E-03    3.20      11.5  T
   6    -38.3581396 -0.290879E-07  0.953E-04    3.20      21.0  T
   7    -38.3581396 -0.494320E-08  0.279E-04    3.20      71.7  T
     SCC iter.                  ...        0 min,  0.086 sec
     gradient                   ...        0 min,  0.033 sec
 * total energy  :   -37.7814083 Eh     change       -0.4165723E-03 Eh
   gradient norm :     0.0067433 Eh/α   predicted    -0.3410613E-03 ( -18.13%)
   displ. norm   :     0.1176225 α      lambda       -0.1878959E-03
   maximum displ.:     0.0813831 α      in ANC's #5, #3, #6, ...

........................................................................
.............................. CYCLE    4 ..............................
........................................................................

 iter      E             dE          RMSdq      gap      omega  full diag
   1    -38.3582093 -0.383582E+02  0.810E-02    3.18       0.0  T
   2    -38.3582142 -0.489709E-05  0.472E-02    3.18       1.0  T
   3    -38.3582131  0.110250E-05  0.118E-02    3.18       1.7  T
   4    -38.3582142 -0.106739E-05  0.477E-03    3.18       4.2  T
   5    -38.3582146 -0.417143E-06  0.995E-04    3.18      20.1  T
   6    -38.3582146 -0.744958E-08  0.589E-04    3.18      33.9  T
     SCC iter.                  ...        0 min,  0.074 sec
     gradient                   ...        0 min,  0.033 sec
 * total energy  :   -37.7815506 Eh     change       -0.1423039E-03 Eh
   gradient norm :     0.0035744 Eh/α   predicted    -0.9524817E-04 ( -33.07%)
   displ. norm   :     0.2177019 α      lambda       -0.2175960E-03
   maximum displ.:     0.1578377 α      in ANC's #5, #3, #4, ...

........................................................................
.............................. CYCLE    5 ..............................
........................................................................

 iter      E             dE          RMSdq      gap      omega  full diag
   1    -38.3560844 -0.383561E+02  0.149E-01    3.13       0.0  T
   2    -38.3560907 -0.628501E-05  0.874E-02    3.14       1.0  T
   3    -38.3560864  0.433951E-05  0.177E-02    3.14       1.1  T
   4    -38.3560910 -0.467428E-05  0.586E-03    3.14       3.4  T
   5    -38.3560916 -0.615973E-06  0.150E-03    3.14      13.4  T
   6    -38.3560917 -0.142247E-07  0.912E-04    3.14      21.9  T
   7    -38.3560917 -0.651317E-08  0.231E-04    3.14      86.5  T
     SCC iter.                  ...        0 min,  0.097 sec
     gradient                   ...        0 min,  0.036 sec
 * total energy  :   -37.7816985 Eh     change       -0.1478453E-03 Eh
   gradient norm :     0.0069191 Eh/α   predicted    -0.1139550E-03 ( -22.92%)
   displ. norm   :     0.1670789 α      lambda       -0.1232029E-03
   maximum displ.:     0.1152255 α      in ANC's #5, #3, #4, ...

........................................................................
.............................. CYCLE    6 ..............................
........................................................................

 iter      E             dE          RMSdq      gap      omega  full diag
   1    -38.3547245 -0.383547E+02  0.111E-01    3.11       0.0  T
   2    -38.3547254 -0.921875E-06  0.651E-02    3.11       1.0  T
   3    -38.3547237  0.175621E-05  0.105E-02    3.11       1.9  T
   4    -38.3547258 -0.217681E-05  0.181E-03    3.11      11.1  T
   5    -38.3547259 -0.192404E-07  0.105E-03    3.11      19.0  T
   6    -38.3547259 -0.705752E-08  0.541E-04    3.11      37.0  T
   7    -38.3547259 -0.205500E-08  0.155E-04    3.11     129.1  T
     SCC iter.                  ...        0 min,  0.094 sec
     gradient                   ...        0 min,  0.042 sec
 * total energy  :   -37.7817964 Eh     change       -0.9793700E-04 Eh
   gradient norm :     0.0080013 Eh/α   predicted    -0.6332541E-04 ( -35.34%)
   displ. norm   :     0.2494438 α      lambda       -0.1883435E-03
   maximum displ.:     0.1636909 α      in ANC's #5, #4, #3, ...

........................................................................
.............................. CYCLE    7 ..............................
........................................................................

 iter      E             dE          RMSdq      gap      omega  full diag
   1    -38.3537785 -0.383538E+02  0.158E-01    3.09       0.0  T
   2    -38.3537811 -0.264906E-05  0.932E-02    3.09       1.0  T
   3    -38.3537791  0.205002E-05  0.117E-02    3.09       1.7  T
   4    -38.3537819 -0.283888E-05  0.273E-03    3.09       7.3  T
   5    -38.3537820 -0.757663E-07  0.136E-03    3.09      14.7  T
   6    -38.3537820 -0.251784E-08  0.546E-04    3.09      36.6  T
   7    -38.3537820 -0.164670E-08  0.170E-04    3.09     117.7  T
     SCC iter.                  ...        0 min,  0.144 sec
     gradient                   ...        0 min,  0.049 sec
 * total energy  :   -37.7819319 Eh     change       -0.1355117E-03 Eh
   gradient norm :     0.0066814 Eh/α   predicted    -0.1000323E-03 ( -26.18%)
   displ. norm   :     0.2328420 α      lambda       -0.1446785E-03
   maximum displ.:     0.1436296 α      in ANC's #5, #4, #3, ...

........................................................................
.............................. CYCLE    8 ..............................
........................................................................

 iter      E             dE          RMSdq      gap      omega  full diag
   1    -38.3541199 -0.383541E+02  0.139E-01    3.08       0.0  T
   2    -38.3541224 -0.250299E-05  0.816E-02    3.08       1.0  T
   3    -38.3541201  0.230194E-05  0.118E-02    3.08       1.7  T
   4    -38.3541230 -0.283466E-05  0.343E-03    3.08       5.8  T
   5    -38.3541232 -0.202611E-06  0.147E-03    3.08      13.6  T
   6    -38.3541232 -0.806367E-08  0.869E-04    3.08      23.0  T
   7    -38.3541232 -0.471456E-08  0.220E-04    3.08      90.7  T
     SCC iter.                  ...        0 min,  0.106 sec
     gradient                   ...        0 min,  0.042 sec
 * total energy  :   -37.7820357 Eh     change       -0.1037506E-03 Eh
   gradient norm :     0.0053373 Eh/α   predicted    -0.7626177E-04 ( -26.50%)
   displ. norm   :     0.2279124 α      lambda       -0.1214372E-03
   maximum displ.:     0.1328051 α      in ANC's #5, #4, #3, ...

........................................................................
.............................. CYCLE    9 ..............................
........................................................................

 iter      E             dE          RMSdq      gap      omega  full diag
   1    -38.3554462 -0.383554E+02  0.128E-01    3.08       0.0  T
   2    -38.3554485 -0.229281E-05  0.754E-02    3.08       1.0  T
   3    -38.3554446  0.390662E-05  0.143E-02    3.08       1.4  T
   4    -38.3554490 -0.444068E-05  0.381E-03    3.08       5.3  T
   5    -38.3554493 -0.251219E-06  0.134E-03    3.08      15.0  T
   6    -38.3554493 -0.404998E-08  0.802E-04    3.08      24.9  T
   7    -38.3554493 -0.420287E-08  0.172E-04    3.08     116.1  T
     SCC iter.                  ...        0 min,  0.104 sec
     gradient                   ...        0 min,  0.038 sec
 * total energy  :   -37.7821224 Eh     change       -0.8668239E-04 Eh
   gradient norm :     0.0037585 Eh/α   predicted    -0.6387394E-04 ( -26.31%)
   displ. norm   :     0.2754617 α      lambda       -0.1015072E-03
   maximum displ.:     0.1616841 α      in ANC's #5, #3, #4, ...

........................................................................
.............................. CYCLE   10 ..............................
........................................................................

 iter      E             dE          RMSdq      gap      omega  full diag
   1    -38.3552745 -0.383553E+02  0.152E-01    3.07       0.0  T
   2    -38.3552759 -0.142453E-05  0.893E-02    3.07       1.0  T
   3    -38.3552739  0.202766E-05  0.111E-02    3.07       1.8  T
   4    -38.3552767 -0.281105E-05  0.260E-03    3.07       7.7  T
   5    -38.3552767 -0.280344E-07  0.170E-03    3.07      11.8  T
   6    -38.3552767 -0.156300E-07  0.697E-04    3.07      28.7  T
   7    -38.3552767 -0.332064E-08  0.142E-04    3.07     140.8  T
     SCC iter.                  ...        0 min,  0.103 sec
     gradient                   ...        0 min,  0.048 sec
 * total energy  :   -37.7821902 Eh     change       -0.6786055E-04 Eh
   gradient norm :     0.0040074 Eh/α   predicted    -0.5460533E-04 ( -19.53%)
   displ. norm   :     0.2061119 α      lambda       -0.8719531E-04
   maximum displ.:     0.0978278 α      in ANC's #1, #5, #2, ...

........................................................................
.............................. CYCLE   11 ..............................
........................................................................

 iter      E             dE          RMSdq      gap      omega  full diag
   1    -38.3575206 -0.383575E+02  0.102E-01    3.08       0.0  T
   2    -38.3575217 -0.106197E-05  0.603E-02    3.08       1.0  T
   3    -38.3575181  0.354154E-05  0.129E-02    3.08       1.6  T
   4    -38.3575222 -0.412936E-05  0.266E-03    3.08       7.5  T
   5    -38.3575223 -0.822769E-07  0.120E-03    3.08      16.6  T
   6    -38.3575223 -0.240803E-10  0.490E-04    3.08      40.8  T
   7    -38.3575223 -0.270108E-08  0.136E-04    3.08     147.3  T
     SCC iter.                  ...        0 min,  0.097 sec
     gradient                   ...        0 min,  0.038 sec
 * total energy  :   -37.7822387 Eh     change       -0.4847484E-04 Eh
   gradient norm :     0.0030660 Eh/α   predicted    -0.4545185E-04 (  -6.24%)
   displ. norm   :     0.4176267 α      lambda       -0.9479206E-04
   maximum displ.:     0.2450248 α      in ANC's #5, #3, #1, ...

........................................................................
.............................. CYCLE   12 ..............................
........................................................................

 iter      E             dE          RMSdq      gap      omega  full diag
   1    -38.3522741 -0.383523E+02  0.225E-01    3.04       0.0  T
   2    -38.3522787 -0.461826E-05  0.133E-01    3.04       1.0  T
   3    -38.3522760  0.272072E-05  0.157E-02    3.05       1.3  T
   4    -38.3522803 -0.429507E-05  0.492E-03    3.05       4.1  T
   5    -38.3522805 -0.219330E-06  0.247E-03    3.05       8.1  T
   6    -38.3522805 -0.171553E-07  0.125E-03    3.04      16.0  T
   7    -38.3522806 -0.131793E-07  0.339E-04    3.04      59.0  T
   8    -38.3522806 -0.137030E-08  0.141E-04    3.04     141.4  T
     SCC iter.                  ...        0 min,  0.106 sec
     gradient                   ...        0 min,  0.035 sec
 * total energy  :   -37.7822345 Eh     change        0.4174954E-05 Eh
   gradient norm :     0.0076490 Eh/α   predicted    -0.5568373E-04 (*******%)
   displ. norm   :     0.1487190 α      lambda       -0.1232455E-03
   maximum displ.:     0.0929704 α      in ANC's #5, #4, #3, ...

........................................................................
.............................. CYCLE   13 ..............................
........................................................................

 iter      E             dE          RMSdq      gap      omega  full diag
   1    -38.3565060 -0.383565E+02  0.895E-02    3.06       0.0  T
   2    -38.3565072 -0.126924E-05  0.528E-02    3.06       1.0  T
   3    -38.3565062  0.995649E-06  0.818E-03    3.06       2.4  T
   4    -38.3565075 -0.126596E-05  0.234E-03    3.06       8.5  T
   5    -38.3565076 -0.749834E-07  0.103E-03    3.06      19.4  T
   6    -38.3565076 -0.527086E-08  0.505E-04    3.06      39.6  T
   7    -38.3565076 -0.556035E-09  0.170E-04    3.06     117.9  T
     SCC iter.                  ...        0 min,  0.080 sec
     gradient                   ...        0 min,  0.032 sec
 * total energy  :   -37.7822922 Eh     change       -0.5770552E-04 Eh
   gradient norm :     0.0017628 Eh/α   predicted    -0.6298626E-04 (   9.15%)
   displ. norm   :     0.1407671 α      lambda       -0.2268008E-04
   maximum displ.:     0.0744514 α      in ANC's #1, #5, #3, ...

........................................................................
.............................. CYCLE   14 ..............................
........................................................................

 iter      E             dE          RMSdq      gap      omega  full diag
   1    -38.3567479 -0.383567E+02  0.656E-02    3.05       0.0  T
   2    -38.3567488 -0.879568E-06  0.386E-02    3.06       1.0  T
   3    -38.3567478  0.976365E-06  0.825E-03    3.06       2.4  T
   4    -38.3567490 -0.114996E-05  0.237E-03    3.06       8.5  T
   5    -38.3567491 -0.897392E-07  0.873E-04    3.06      22.9  T
   6    -38.3567491  0.610164E-09  0.430E-04    3.06      46.5  T
     SCC iter.                  ...        0 min,  0.070 sec
     gradient                   ...        0 min,  0.032 sec
 * total energy  :   -37.7823152 Eh     change       -0.2296837E-04 Eh
   gradient norm :     0.0034421 Eh/α   predicted    -0.1144203E-04 ( -50.18%)
   displ. norm   :     0.0954093 α      lambda        0.9318406E-06
   maximum displ.:     0.0504775 α      in ANC's #1, #5, #3, ...

........................................................................
.............................. CYCLE   15 ..............................
........................................................................

 iter      E             dE          RMSdq      gap      omega  full diag
   1    -38.3566542 -0.383567E+02  0.444E-02    3.05       0.0  T
   2    -38.3566547 -0.478444E-06  0.261E-02    3.05       1.0  T
   3    -38.3566541  0.603466E-06  0.628E-03    3.05       3.2  T
   4    -38.3566548 -0.693641E-06  0.171E-03    3.05      11.7  T
   5    -38.3566548 -0.480183E-07  0.594E-04    3.05      33.7  T
   6    -38.3566548  0.717293E-10  0.287E-04    3.05      69.8  T
     SCC iter.                  ...        0 min,  0.071 sec
     gradient                   ...        0 min,  0.035 sec
 * total energy  :   -37.7823170 Eh     change       -0.1832461E-05 Eh
   gradient norm :     0.0057956 Eh/α   predicted     0.4689598E-06 (-125.59%)
   displ. norm   :     0.1592044 α      lambda       -0.4219570E-04
   maximum displ.:     0.0868516 α      in ANC's #1, #5, #2, ...

........................................................................
.............................. CYCLE   16 ..............................
........................................................................

 iter      E             dE          RMSdq      gap      omega  full diag
   1    -38.3563191 -0.383563E+02  0.729E-02    3.05       0.0  T
   2    -38.3563197 -0.599582E-06  0.429E-02    3.05       1.0  T
   3    -38.3563197 -0.294271E-07  0.318E-03    3.05       6.3  T
   4    -38.3563199 -0.136250E-06  0.162E-03    3.05      12.3  T
   5    -38.3563199 -0.242716E-07  0.807E-04    3.05      24.8  T
   6    -38.3563199 -0.768246E-09  0.410E-04    3.05      48.7  T
     SCC iter.                  ...        0 min,  0.074 sec
     gradient                   ...        0 min,  0.041 sec
 * total energy  :   -37.7823437 Eh     change       -0.2670331E-04 Eh
   gradient norm :     0.0033133 Eh/α   predicted    -0.2163771E-04 ( -18.97%)
   displ. norm   :     0.1007213 α      lambda       -0.2343193E-04
   maximum displ.:     0.0608975 α      in ANC's #1, #5, #2, ...

........................................................................
.............................. CYCLE   17 ..............................
........................................................................

 iter      E             dE          RMSdq      gap      omega  full diag
   1    -38.3567676 -0.383568E+02  0.431E-02    3.05       0.0  T
   2    -38.3567679 -0.296127E-06  0.253E-02    3.05       1.0  T
   3    -38.3567679 -0.180657E-07  0.203E-03    3.05       9.9  T
   4    -38.3567680 -0.621345E-07  0.898E-04    3.05      22.3  T
   5    -38.3567680 -0.513180E-08  0.560E-04    3.05      35.7  T
     SCC iter.                  ...        0 min,  0.077 sec
     gradient                   ...        0 min,  0.040 sec
 * total energy  :   -37.7823614 Eh     change       -0.1761494E-04 Eh
   gradient norm :     0.0017188 Eh/α   predicted    -0.1183554E-04 ( -32.81%)
   displ. norm   :     0.3198239 α      lambda       -0.3026470E-04
   maximum displ.:     0.1957311 α      in ANC's #1, #5, #3, ...

........................................................................
.............................. CYCLE   18 ..............................
........................................................................

 iter      E             dE          RMSdq      gap      omega  full diag
   1    -38.3558157 -0.383558E+02  0.136E-01    3.04       0.0  T
   2    -38.3558171 -0.144989E-05  0.802E-02    3.05       1.0  T
   3    -38.3558176 -0.532688E-06  0.499E-03    3.04       4.0  T
   4    -38.3558179 -0.258257E-06  0.274E-03    3.05       7.3  T
   5    -38.3558179 -0.453839E-08  0.147E-03    3.05      13.6  T
   6    -38.3558179 -0.218604E-07  0.422E-04    3.05      47.4  T
   7    -38.3558179 -0.169607E-08  0.198E-04    3.05     101.3  T
     SCC iter.                  ...        0 min,  0.084 sec
     gradient                   ...        0 min,  0.029 sec
 * total energy  :   -37.7823801 Eh     change       -0.1877065E-04 Eh
   gradient norm :     0.0031788 Eh/α   predicted    -0.1582180E-04 ( -15.71%)
   displ. norm   :     0.0637977 α      lambda       -0.3688306E-04
   maximum displ.:     0.0416182 α      in ANC's #1, #4, #6, ...

........................................................................
.............................. CYCLE   19 ..............................
........................................................................

 iter      E             dE          RMSdq      gap      omega  full diag
   1    -38.3584107 -0.383584E+02  0.346E-02    3.06       0.0  T
   2    -38.3584119 -0.119361E-05  0.208E-02    3.06       1.0  T
   3    -38.3584110  0.893806E-06  0.848E-03    3.06       2.4  T
   4    -38.3584121 -0.110095E-05  0.273E-03    3.06       7.3  T
   5    -38.3584122 -0.124208E-06  0.563E-04    3.06      35.5  T
   6    -38.3584122 -0.286526E-09  0.284E-04    3.06      70.4  T
     SCC iter.                  ...        0 min,  0.120 sec
     gradient                   ...        0 min,  0.035 sec
 * total energy  :   -37.7823852 Eh     change       -0.5039211E-05 Eh
   gradient norm :     0.0038511 Eh/α   predicted    -0.1852241E-04 ( 267.57%)
   displ. norm   :     0.0415397 α      lambda       -0.2046050E-04
   maximum displ.:     0.0234882 α      in ANC's #5, #1, #3, ...

........................................................................
.............................. CYCLE   20 ..............................
........................................................................

 iter      E             dE          RMSdq      gap      omega  full diag
   1    -38.3569592 -0.383570E+02  0.240E-02    3.05       0.0  T
   2    -38.3569595 -0.283384E-06  0.143E-02    3.05       1.4  T
   3    -38.3569588  0.699535E-06  0.662E-03    3.05       3.0  T
   4    -38.3569596 -0.812923E-06  0.134E-03    3.05      14.9  T
   5    -38.3569596 -0.278039E-07  0.354E-04    3.05      56.5  T
   6    -38.3569596 -0.155836E-09  0.178E-04    3.05     112.1  T
     SCC iter.                  ...        0 min,  0.077 sec
     gradient                   ...        0 min,  0.035 sec
 * total energy  :   -37.7823967 Eh     change       -0.1153214E-04 Eh
   gradient norm :     0.0014938 Eh/α   predicted    -0.1025432E-04 ( -11.08%)
   displ. norm   :     0.0365418 α      lambda       -0.5671341E-05
   maximum displ.:     0.0252284 α      in ANC's #1, #5, #3, ...
 * RMSD in coord.:     0.5655738 α      energy gain  -0.4437448E-02 Eh

generating ANC from exact Hessian ...
Using Lindh-Hessian (1995)
 Shifting diagonal of input Hessian by    9.2743926537799375E-003
 Lowest  eigenvalues of input Hessian
    0.000000    0.000000    0.000000    0.000000    0.000000    0.000000
    0.010000    0.010566    0.010909    0.013116    0.014412    0.017137
    0.019230    0.021704    0.023147    0.024746    0.030662    0.034346
 Highest eigenvalues
    1.761941    1.899209    1.973136    2.013778    2.105377    2.381439


........................................................................
.............................. CYCLE   21 ..............................
........................................................................

 iter      E             dE          RMSdq      gap      omega  full diag
   1    -38.3568266 -0.383568E+02  0.154E-02    3.05       0.0  T
   2    -38.3568267 -0.871868E-07  0.910E-03    3.05       2.2  T
   3    -38.3568266  0.129552E-07  0.128E-03    3.05      15.6  T
   4    -38.3568267 -0.286412E-07  0.342E-04    3.05      58.5  T
   5    -38.3568267 -0.629115E-09  0.202E-04    3.05      98.8  T
     SCC iter.                  ...        0 min,  0.070 sec
     gradient                   ...        0 min,  0.041 sec
 * total energy  :   -37.7824010 Eh     change       -0.4333006E-05 Eh
   gradient norm :     0.0012555 Eh/α   predicted     0.0000000E+00 (-100.00%)
   displ. norm   :     0.0184323 α      lambda       -0.3426461E-05
   maximum displ.:     0.0110123 α      in ANC's #3, #2, #1, ...

........................................................................
.............................. CYCLE   22 ..............................
........................................................................

 iter      E             dE          RMSdq      gap      omega  full diag
   1    -38.3568511 -0.383569E+02  0.690E-03    3.05       0.0  T
   2    -38.3568512 -0.541557E-07  0.416E-03    3.05       4.8  T
   3    -38.3568512  0.932742E-08  0.122E-03    3.05      16.3  T
   4    -38.3568512 -0.154417E-07  0.175E-04    3.05     114.0  T
   5    -38.3568512 -0.258893E-09  0.143E-04    3.05     139.5  T
     SCC iter.                  ...        0 min,  0.070 sec
     gradient                   ...        0 min,  0.038 sec
 * total energy  :   -37.7824046 Eh     change       -0.3581284E-05 Eh
   gradient norm :     0.0004448 Eh/α   predicted    -0.1965837E-05 ( -45.11%)
   displ. norm   :     0.0330123 α      lambda       -0.2999086E-05
   maximum displ.:     0.0184497 α      in ANC's #3, #2, #1, ...

........................................................................
.............................. CYCLE   23 ..............................
........................................................................

 iter      E             dE          RMSdq      gap      omega  full diag
   1    -38.3568348 -0.383568E+02  0.918E-03    3.05       0.0  T
   2    -38.3568348 -0.106633E-07  0.543E-03    3.05       3.7  T
   3    -38.3568348  0.629871E-08  0.639E-04    3.05      31.3  T
   4    -38.3568348 -0.847032E-08  0.234E-04    3.05      85.4  T
     SCC iter.                  ...        0 min,  0.051 sec
     gradient                   ...        0 min,  0.033 sec
 * total energy  :   -37.7824082 Eh     change       -0.3550369E-05 Eh
   gradient norm :     0.0009177 Eh/α   predicted    -0.1502981E-05 ( -57.67%)
   displ. norm   :     0.0648317 α      lambda       -0.5074531E-05
   maximum displ.:     0.0361490 α      in ANC's #3, #2, #1, ...

........................................................................
.............................. CYCLE   24 ..............................
........................................................................

 iter      E             dE          RMSdq      gap      omega  full diag
   1    -38.3567839 -0.383568E+02  0.179E-02    3.05       0.0  T
   2    -38.3567839 -0.133299E-07  0.106E-02    3.05       1.9  T
   3    -38.3567839  0.475523E-07  0.165E-03    3.05      12.1  T
   4    -38.3567840 -0.573872E-07  0.288E-04    3.05      69.5  T
   5    -38.3567840 -0.306656E-09  0.144E-04    3.05     138.5  T
     SCC iter.                  ...        0 min,  0.065 sec
     gradient                   ...        0 min,  0.039 sec
 * total energy  :   -37.7824142 Eh     change       -0.6053514E-05 Eh
   gradient norm :     0.0008413 Eh/α   predicted    -0.2570673E-05 ( -57.53%)
   displ. norm   :     0.0830691 α      lambda       -0.4834690E-05
   maximum displ.:     0.0456144 α      in ANC's #3, #1, #2, ...

........................................................................
.............................. CYCLE   25 ..............................
........................................................................

 iter      E             dE          RMSdq      gap      omega  full diag
   1    -38.3568257 -0.383568E+02  0.232E-02    3.05       0.0  T
   2    -38.3568257 -0.475219E-07  0.137E-02    3.05       1.5  T
   3    -38.3568257  0.556274E-07  0.193E-03    3.05      10.3  T
   4    -38.3568258 -0.675281E-07  0.572E-04    3.05      35.0  T
   5    -38.3568258 -0.492715E-08  0.227E-04    3.05      88.2  T
     SCC iter.                  ...        0 min,  0.072 sec
     gradient                   ...        0 min,  0.041 sec
 * total energy  :   -37.7824189 Eh     change       -0.4689278E-05 Eh
   gradient norm :     0.0003717 Eh/α   predicted    -0.2425525E-05 ( -48.28%)
   displ. norm   :     0.0413331 α      lambda       -0.1267301E-05
   maximum displ.:     0.0252622 α      in ANC's #1, #3, #2, ...

........................................................................
.............................. CYCLE   26 ..............................
........................................................................

 iter      E             dE          RMSdq      gap      omega  full diag
   1    -38.3569058 -0.383569E+02  0.123E-02    3.05       0.0  T
   2    -38.3569058 -0.159755E-07  0.727E-03    3.05       2.8  T
   3    -38.3569058  0.385018E-08  0.652E-04    3.05      30.7  T
   4    -38.3569058 -0.776731E-08  0.197E-04    3.05     101.6  T
     SCC iter.                  ...        0 min,  0.060 sec
     gradient                   ...        0 min,  0.042 sec
 * total energy  :   -37.7824200 Eh     change       -0.1112820E-05 Eh
   gradient norm :     0.0001752 Eh/α   predicted    -0.6346289E-06 ( -42.97%)
   displ. norm   :     0.0410797 α      lambda        0.1036426E-05
   maximum displ.:     0.0250888 α      in ANC's #1, #3, #2, ...

........................................................................
.............................. CYCLE   27 ..............................
........................................................................

 iter      E             dE          RMSdq      gap      omega  full diag
   1    -38.3569587 -0.383570E+02  0.123E-02    3.05       0.0  T
   2    -38.3569587 -0.152724E-07  0.723E-03    3.05       2.8  T
   3    -38.3569587  0.374781E-08  0.638E-04    3.05      31.4  T
   4    -38.3569587 -0.738144E-08  0.208E-04    3.05      96.2  T
     SCC iter.                  ...        0 min,  0.057 sec
     gradient                   ...        0 min,  0.042 sec
 * total energy  :   -37.7824196 Eh     change        0.4519780E-06 Eh
   gradient norm :     0.0004120 Eh/α   predicted     0.5185707E-06 (  14.73%)
   displ. norm   :     0.0181680 α      lambda       -0.1044269E-05
   maximum displ.:     0.0102716 α      in ANC's #3, #2, #1, ...

........................................................................
.............................. CYCLE   28 ..............................
........................................................................

 iter      E             dE          RMSdq      gap      omega  full diag
   1    -38.3569555 -0.383570E+02  0.615E-03    3.05       0.0  T
   2    -38.3569555 -0.416288E-08  0.364E-03    3.05       5.5  T
   3    -38.3569555  0.368761E-08  0.499E-04    3.05      40.1  T
   4    -38.3569555 -0.439682E-08  0.178E-04    3.05     112.6  T
     SCC iter.                  ...        0 min,  0.058 sec
     gradient                   ...        0 min,  0.043 sec
 * total energy  :   -37.7824205 Eh     change       -0.9530428E-06 Eh
   gradient norm :     0.0001721 Eh/α   predicted    -0.5226683E-06 ( -45.16%)
   displ. norm   :     0.0112359 α      lambda       -0.3370891E-06
   maximum displ.:     0.0068353 α      in ANC's #3, #4, #2, ...

   *** GEOMETRY OPTIMIZATION CONVERGED AFTER 28 ITERATIONS ***

------------------------------------------------------------------------
 total energy gain   :        -0.0044613 Eh       -2.7995 kcal/mol
 total RMSD          :         0.5714389 a0        0.3024 Å
 total power (kW/mol):        -0.4183236 (step)   -2.7220 (real)
------------------------------------------------------------------------

 ANCopt (total)                0 d,  0 h,  0 min,  4.303 sec
 optimizer setup                ...        0 min,  0.001 sec (  0.013%)
 model hessian                  ...        0 min,  0.009 sec (  0.202%)
 ANC generation                 ...        0 min,  0.002 sec (  0.049%)
 coordinate transformation      ...        0 min,  0.000 sec (  0.007%)
 single point calculation       ...        0 min,  4.180 sec ( 97.144%)
 optimization log               ...        0 min,  0.005 sec (  0.105%)
 hessian update                 ...        0 min,  0.098 sec (  2.276%)
 rational function              ...        0 min,  0.004 sec (  0.102%)

================
 final structure:
================
25
 xtb: 6.7.1 (edcfbbe)
C           -5.03088526581829        0.20644640762964        0.79880341615017
C           -4.08451015490948       -0.16951551418507       -0.32622615186315
O           -2.75321281609660       -0.18403189872861        0.18498064612033
C           -1.76073576344453       -0.18421795988769       -0.71939895119838
O           -1.94707449167722       -0.17770277024096       -1.91372837636859
C           -0.45001246567465       -0.18659636095362       -0.05700908717981
C            0.67625654653098       -0.17190902327240       -0.78062097327850
C            2.03923759512215       -0.16353499403386       -0.28827338970432
C            2.35566627529645       -0.24945059535692        1.07034130027274
C            3.67141527037221       -0.23218804104500        1.48864458062630
C            4.69914170360752       -0.12786917036339        0.56415756461136
C            4.40216535174964       -0.04428924238114       -0.78657080506009
C            3.08715249334603       -0.06400082585302       -1.20831380121420
H           -6.05296139398285        0.20680738342793        0.43152777652236
H           -4.94512562328019       -0.50781337591634        1.61316065006386
H           -4.78875950587890        1.19573862841376        1.17794476760002
H           -4.13777376658687        0.54745755038192       -1.15337717666189
H           -4.31849288867880       -1.16419866969299       -0.72383572806269
H           -0.47518015434714       -0.19517924429127        1.02080950355070
H            0.56248768525212       -0.15658127616653       -1.85863955190335
H            1.56649491324556       -0.33430319243277        1.80093645385601
H            3.90044957578051       -0.30035021096734        2.54215354048943
H            5.72669987109223       -0.11323039180114        0.89585591862460
H            5.19926798954696        0.03575732452611       -1.51104381180430
H            2.85828901943487        0.00135516087234       -2.26227831419088

 Bond Distances (Angstroems)
 ---------------------------
C1-C2=1.5175         C1-H14=1.0861        C1-H15=1.0866        C1-H16=1.0868        C2-C1=1.5175         C2-O3=1.4261         
C2-H17=1.0959        C2-H18=1.0965        O3-C2=1.4261         O3-C4=1.3427         C4-O3=1.3427         C4-O5=1.2088         
C4-C6=1.4686         O5-C4=1.2088         C6-C4=1.4686         C6-C7=1.3388         C6-H19=1.0781        C7-C6=1.3388         
C7-C8=1.4492         C7-H20=1.0841        C8-C7=1.4492         C8-C9=1.3976         C8-C13=1.3980        C9-C8=1.3976         
C9-C10=1.3808        C9-H21=1.0788        C10-C9=1.3808        C10-C11=1.3863       C10-H22=1.0803       C11-C10=1.3863       
C11-C12=1.3855       C11-H23=1.0799       C12-C11=1.3855       C12-C13=1.3811       C12-H24=1.0801       C13-C8=1.3980        
C13-C12=1.3811       C13-H25=1.0805       H14-C1=1.0861        H15-C1=1.0866        H16-C1=1.0868        H17-C2=1.0959        
H18-C2=1.0965        H19-C6=1.0781        H20-C7=1.0841        H21-C9=1.0788        H22-C10=1.0803       H23-C11=1.0799       
H24-C12=1.0801       H25-C13=1.0805       
 C  H  Rav=1.0845 sigma=0.0060  Rmin=1.0781  Rmax=1.0965    12
 C  C  Rav=1.4103 sigma=0.0497  Rmin=1.3388  Rmax=1.5175    10
 O  C  Rav=1.3259 sigma=0.0895  Rmin=1.2088  Rmax=1.4261     3

 selected bond angles (degree)
 --------------------
H14-C1-C2=109.65               H15-C1-C2=110.09               H15-C1-H14=109.14              H16-C1-C2=110.20               
H16-C1-H14=109.11              H16-C1-H15=108.62              O3-C2-C1=108.60                H17-C2-C1=111.54               
H17-C2-O3=108.82               H18-C2-C1=111.13               H18-C2-O3=108.66               H18-C2-H17=108.02              
C4-O3-C2=116.65                O5-C4-O3=123.47                C6-C4-O3=110.85                C6-C4-O5=125.68                
C7-C6-C4=120.47                H19-C6-C4=115.47               H19-C6-C7=124.06               C8-C7-C6=127.42                
H20-C7-C6=116.70               H20-C7-C8=115.88               C9-C8-C7=122.88                C13-C8-C7=118.80               
C13-C8-C9=118.32               C10-C9-C8=120.63               H21-C9-C8=119.84               H21-C9-C10=119.53              
C11-C10-C9=120.36              H22-C10-C9=119.78              H22-C10-C11=119.86             

 selected dihedral angles (degree)
 ---------------------------------
O3-C2-C1-H14=180.92           O3-C2-C1-H15=301.01           O3-C2-C1-H16= 60.81           H17-C2-C1-H14= 61.00          
H17-C2-C1-H15=181.10          H17-C2-C1-H16=300.89          H18-C2-C1-H14=300.39          H18-C2-C1-H15= 60.48          
H18-C2-C1-H16=180.28          C4-O3-C2-C1=195.24            C4-O3-C2-H17=316.83           C4-O3-C2-H18= 74.23           
O5-C4-O3-C2=359.73            C6-C4-O3-C2=179.45            C7-C6-C4-O3=180.76            C7-C6-C4-O5=  0.47            
H19-C6-C4-O3=  0.43           H19-C6-C4-O5=180.15           C8-C7-C6-C4=179.59            C8-C7-C6-H19=359.94           
H20-C7-C6-C4=  0.11           H20-C7-C6-H19=180.47          C9-C8-C7-C6=  3.87            C9-C8-C7-H20=183.35           
C13-C8-C7-C6=183.94           C13-C8-C7-H20=  3.42          C10-C9-C8-C7=180.25           C10-C9-C8-C13=  0.18          
H21-C9-C8-C7=  0.51           H21-C9-C8-C13=180.44          C11-C10-C9-C8=  0.06          C11-C10-C9-H21=179.80         
H22-C10-C9-C8=180.06          H22-C10-C9-H21=359.80         
           -------------------------------------------------
          |                Final Singlepoint                |
           -------------------------------------------------

          ...................................................
          :                      SETUP                      :
          :.................................................:
          :  # basis functions                  64          :
          :  # atomic orbitals                  64          :
          :  # shells                           38          :
          :  # electrons                        68          :
          :  max. iterations                   250          :
          :  Hamiltonian                  GFN2-xTB          :
          :  restarted?                      false          :
          :  GBSA solvation                  false          :
          :  PC potential                    false          :
          :  electronic temp.          300.0000000     K    :
          :  accuracy                    1.0000000          :
          :  -> integral cutoff          0.2500000E+02      :
          :  -> integral neglect         0.1000000E-07      :
          :  -> SCF convergence          0.1000000E-05 Eh   :
          :  -> wf. convergence          0.1000000E-03 e    :
          :  Broyden damping             0.4000000          :
          :  net charge                          0          :
          :  unpaired electrons                  0          :
          ...................................................

 iter      E             dE          RMSdq      gap      omega  full diag
   1    -38.3569555 -0.383570E+02  0.596E-05    3.05       0.0  T
   2    -38.3569555 -0.515854E-11  0.388E-05    3.05     515.0  T
   3    -38.3569555  0.335376E-11  0.254E-05    3.05     788.3  T

   *** convergence criteria satisfied after 3 iterations ***

         #    Occupation            Energy/Eh            Energy/eV
      -------------------------------------------------------------
         1        2.0000           -0.7334492             -19.9582
       ...           ...                  ...                  ...
        28        2.0000           -0.4474129             -12.1747
        29        2.0000           -0.4366508             -11.8819
        30        2.0000           -0.4328884             -11.7795
        31        2.0000           -0.4282022             -11.6520
        32        2.0000           -0.4148968             -11.2899
        33        2.0000           -0.4081547             -11.1065
        34        2.0000           -0.3981899             -10.8353 (HOMO)
        35                         -0.2862002              -7.7879 (LUMO)
        36                         -0.2319040              -6.3104
        37                         -0.2133046              -5.8043
        38                         -0.1535310              -4.1778
        39                         -0.0862019              -2.3457
       ...                                ...                  ...
        64                          0.7196543              19.5828
      -------------------------------------------------------------
                  HL-Gap            0.1119897 Eh            3.0474 eV
             Fermi-level           -0.3421950 Eh           -9.3116 eV

 SCC (total)                   0 d,  0 h,  0 min,  0.131 sec
 SCC setup                      ...        0 min,  0.005 sec (  3.986%)
 Dispersion                     ...        0 min,  0.010 sec (  7.631%)
 classical contributions        ...        0 min,  0.005 sec (  3.638%)
 integral evaluation            ...        0 min,  0.016 sec ( 12.174%)
 iterations                     ...        0 min,  0.048 sec ( 36.751%)
 molecular gradient             ...        0 min,  0.047 sec ( 35.697%)
 printout                       ...        0 min,  0.000 sec (  0.102%)

         :::::::::::::::::::::::::::::::::::::::::::::::::::::
         ::                     SUMMARY                     ::
         :::::::::::::::::::::::::::::::::::::::::::::::::::::
         :: total energy             -37.782420514791 Eh    ::
         :: gradient norm              0.000173057215 Eh/a0 ::
         :: HOMO-LUMO gap              3.047394694419 eV    ::
         ::.................................................::
         :: SCC energy               -38.357140686071 Eh    ::
         :: -> isotropic ES            0.047823907284 Eh    ::
         :: -> anisotropic ES          0.001124851796 Eh    ::
         :: -> anisotropic XC          0.016137488209 Eh    ::
         :: -> dispersion             -0.019512206188 Eh    ::
         :: repulsion energy           0.574720171280 Eh    ::
         :: add. restraining           0.000000000000 Eh    ::
         :: total charge              -0.000000000000 e     ::
         :::::::::::::::::::::::::::::::::::::::::::::::::::::

           -------------------------------------------------
          |                Property Printout                |
           -------------------------------------------------

    * Orbital Energies and Occupations

         #    Occupation            Energy/Eh            Energy/eV
      -------------------------------------------------------------
         1        2.0000           -0.7334492             -19.9582
       ...           ...                  ...                  ...
        22        2.0000           -0.4866515             -13.2425
        23        2.0000           -0.4842422             -13.1769
        24        2.0000           -0.4805831             -13.0773
        25        2.0000           -0.4708763             -12.8132
        26        2.0000           -0.4622624             -12.5788
        27        2.0000           -0.4561313             -12.4120
        28        2.0000           -0.4474129             -12.1747
        29        2.0000           -0.4366508             -11.8819
        30        2.0000           -0.4328884             -11.7795
        31        2.0000           -0.4282022             -11.6520
        32        2.0000           -0.4148968             -11.2899
        33        2.0000           -0.4081547             -11.1065
        34        2.0000           -0.3981899             -10.8353 (HOMO)
        35                         -0.2862002              -7.7879 (LUMO)
        36                         -0.2319040              -6.3104
        37                         -0.2133046              -5.8043
        38                         -0.1535310              -4.1778
        39                         -0.0862019              -2.3457
        40                          0.0141482               0.3850
        41                          0.1021531               2.7797
        42                          0.1089989               2.9660
        43                          0.1149852               3.1289
        44                          0.1214138               3.3038
        45                          0.1438536               3.9145
       ...                                ...                  ...
        64                          0.7196543              19.5828
      -------------------------------------------------------------
                  HL-Gap            0.1119897 Eh            3.0474 eV
             Fermi-level           -0.3421950 Eh           -9.3116 eV

     #   Z          covCN         q      C6AA      α(0)
     1   6 C        3.751    -0.115    22.759     6.803
     2   6 C        3.700     0.086    19.311     6.284
     3   8 O        1.706    -0.273    18.522     5.811
     4   6 C        2.726     0.352    21.027     7.507
     5   8 O        0.856    -0.427    22.231     6.321
     6   6 C        2.892    -0.072    29.800     8.950
     7   6 C        2.907    -0.012    28.319     8.726
     8   6 C        2.970     0.017    27.622     8.621
     9   6 C        2.923    -0.029    28.715     8.788
    10   6 C        2.917    -0.028    28.689     8.783
    11   6 C        2.920    -0.025    28.636     8.775
    12   6 C        2.917    -0.027    28.684     8.783
    13   6 C        2.928    -0.029    28.723     8.789
    14   1 H        0.925     0.051     2.310     2.377
    15   1 H        0.925     0.057     2.229     2.335
    16   1 H        0.925     0.056     2.244     2.343
    17   1 H        0.924     0.054     2.272     2.357
    18   1 H        0.924     0.046     2.374     2.410
    19   1 H        0.926     0.059     2.207     2.323
    20   1 H        0.925     0.069     2.096     2.264
    21   1 H        0.926     0.040     2.448     2.447
    22   1 H        0.926     0.036     2.503     2.474
    23   1 H        0.926     0.036     2.498     2.471
    24   1 H        0.926     0.037     2.495     2.470
    25   1 H        0.926     0.041     2.437     2.441

 Mol. C6AA /au·bohr⁶  :       7018.855828
 Mol. C8AA /au·bohr⁸  :     166299.619977
 Mol. α(0) /au        :        131.653015


Wiberg/Mayer (AO) data.
largest (>0.10) Wiberg bond orders for each atom

 ---------------------------------------------------------------------------
     #   Z sym  total        # sym  WBO       # sym  WBO       # sym  WBO
 ---------------------------------------------------------------------------
     1   6 C    3.992 --     2 C    1.019    16 H    0.986    15 H    0.985
                            14 H    0.984
     2   6 C    3.931 --     1 C    1.019    18 H    0.968    17 H    0.968
                             3 O    0.943
     3   8 O    2.292 --     4 C    1.112     2 C    0.943     5 O    0.168
     4   6 C    3.919 --     5 O    1.705     3 O    1.112     6 C    1.036
     5   8 O    2.016 --     4 C    1.705     3 O    0.168
     6   6 C    3.987 --     7 C    1.777     4 C    1.036    19 H    0.961
     7   6 C    3.982 --     6 C    1.777     8 C    1.115    20 H    0.957
     8   6 C    3.990 --    13 C    1.365     9 C    1.362     7 C    1.115
     9   6 C    3.992 --    10 C    1.465     8 C    1.362    21 H    0.966
                            12 C    0.105
    10   6 C    3.992 --     9 C    1.465    11 C    1.425    22 H    0.971
                            13 C    0.103
    11   6 C    3.983 --    12 C    1.430    10 C    1.425    23 H    0.971
    12   6 C    3.992 --    13 C    1.460    11 C    1.430    24 H    0.970
                             9 C    0.105
    13   6 C    3.989 --    12 C    1.460     8 C    1.365    25 H    0.968
                            10 C    0.103
    14   1 H    0.997 --     1 C    0.984
    15   1 H    0.997 --     1 C    0.985
    16   1 H    0.997 --     1 C    0.986
    17   1 H    0.997 --     2 C    0.968
    18   1 H    0.997 --     2 C    0.968
    19   1 H    0.996 --     6 C    0.961
    20   1 H    0.995 --     7 C    0.957
    21   1 H    0.998 --     9 C    0.966
    22   1 H    0.998 --    10 C    0.971
    23   1 H    0.998 --    11 C    0.971
    24   1 H    0.998 --    12 C    0.970
    25   1 H    0.998 --    13 C    0.968
 ---------------------------------------------------------------------------

Topologies differ in total number of bonds
Writing topology from bond orders to xtbtopo.mol

molecular dipole:
                 x           y           z       tot (Debye)
 q only:        0.380       0.059       0.831
   full:        0.357       0.042       0.886       2.429
molecular quadrupole (traceless):
                xx          xy          yy          xz          yz          zz
 q only:       13.131      -0.808      -5.297      -5.510      -0.522      -7.835
  q+dip:       14.018      -0.128      -8.003      -5.302      -1.242      -6.015
   full:       12.665      -0.384      -4.328      -5.266      -0.822      -8.337

           -------------------------------------------------
          |                Geometry Summary                 |
           -------------------------------------------------

      molecular mass/u    :      176.2121937
   center of mass at/Å    :        0.1998526      -0.1318791      -0.1623399
  moments of inertia/u·Å² :        0.1789980E+03   0.1831027E+04   0.1999055E+04
rotational constants/cm⁻¹ :        0.9417778E-01   0.9206654E-02   0.8432801E-02

 * 23 selected distances

     #   Z          #   Z                                           value/Å
     1   6 C        2   6 C                                       1.5174535 (max)
     2   6 C        3   8 O                                       1.4261473
     3   8 O        4   6 C                                       1.3427262
     4   6 C        5   8 O                                       1.2087959
     6   6 C        7   6 C                                       1.3387726
     8   6 C        9   6 C                                       1.3976204
     9   6 C       10   6 C                                       1.3807503
    10   6 C       11   6 C                                       1.3862830
    11   6 C       12   6 C                                       1.3855136
     8   6 C       13   6 C                                       1.3980370
    12   6 C       13   6 C                                       1.3811281
     1   6 C       14   1 H                                       1.0860623
     1   6 C       15   1 H                                       1.0866001
     1   6 C       16   1 H                                       1.0867715
     2   6 C       17   1 H                                       1.0959318
     2   6 C       18   1 H                                       1.0964653
     6   6 C       19   1 H                                       1.0781467 (min)
     7   6 C       20   1 H                                       1.0841137
     9   6 C       21   1 H                                       1.0787775
    10   6 C       22   1 H                                       1.0802704
    11   6 C       23   1 H                                       1.0798676
    12   6 C       24   1 H                                       1.0801118
    13   6 C       25   1 H                                       1.0805051

 * 3 distinct bonds (by element types)

   Z      Z             #   av. dist./Å        max./Å        min./Å
   1 H    6 C          12     1.0844686     1.0964653     1.0781467
   6 C    6 C           8     1.3981948     1.5174535     1.3387726
   6 C    8 O           3     1.3258898     1.4261473     1.2087959


optimized geometry written to: xtbopt.xyz


           -------------------------------------------------
          | TOTAL ENERGY              -37.782420514791 Eh   |
          | GRADIENT NORM               0.000173057215 Eh/α |
          | HOMO-LUMO GAP               3.047394694419 eV   |
           -------------------------------------------------

------------------------------------------------------------------------
 * finished run on 2026/07/08 at 03:49:16.078     
------------------------------------------------------------------------
 total:
 * wall-time:     0 d,  0 h,  0 min,  4.713 sec
 *  cpu-time:     0 d,  0 h,  1 min, 15.178 sec
 * ratio c/w:    15.952 speedup
 SCF:
 * wall-time:     0 d,  0 h,  0 min,  0.217 sec
 *  cpu-time:     0 d,  0 h,  0 min,  3.453 sec
 * ratio c/w:    15.936 speedup
 ANC optimizer:
 * wall-time:     0 d,  0 h,  0 min,  4.439 sec
 *  cpu-time:     0 d,  0 h,  1 min, 10.856 sec
 * ratio c/w:    15.964 speedup

