25
 energy: -37.782420514791 gnorm: 0.000173057215 xtb: 6.7.1 (edcfbbe)
C           -5.03088526581829        0.20644640762964        0.79880341615017
C           -4.08451015490948       -0.16951551418507       -0.32622615186315
O           -2.75321281609660       -0.18403189872861        0.18498064612033
C           -1.76073576344453       -0.18421795988769       -0.71939895119838
O           -1.94707449167722       -0.17770277024096       -1.91372837636859
C           -0.45001246567465       -0.18659636095362       -0.05700908717981
C            0.67625654653098       -0.17190902327240       -0.78062097327850
C            2.03923759512215       -0.16353499403386       -0.28827338970432
C            2.35566627529645       -0.24945059535692        1.07034130027274
C            3.67141527037221       -0.23218804104500        1.48864458062630
C            4.69914170360752       -0.12786917036339        0.56415756461136
C            4.40216535174964       -0.04428924238114       -0.78657080506009
C            3.08715249334603       -0.06400082585302       -1.20831380121420
H           -6.05296139398285        0.20680738342793        0.43152777652236
H           -4.94512562328019       -0.50781337591634        1.61316065006386
H           -4.78875950587890        1.19573862841376        1.17794476760002
H           -4.13777376658687        0.54745755038192       -1.15337717666189
H           -4.31849288867880       -1.16419866969299       -0.72383572806269
H           -0.47518015434714       -0.19517924429127        1.02080950355070
H            0.56248768525212       -0.15658127616653       -1.85863955190335
H            1.56649491324556       -0.33430319243277        1.80093645385601
H            3.90044957578051       -0.30035021096734        2.54215354048943
H            5.72669987109223       -0.11323039180114        0.89585591862460
H            5.19926798954696        0.03575732452611       -1.51104381180430
H            2.85828901943487        0.00135516087234       -2.26227831419088
