22
REP_00264 MMFF geometry for GFN2-xTB preoptimization
C  -1.816569805326  1.415418467623 -0.566512689093
N  -1.697788481888  0.013854780894 -0.222409690748
C  -2.750659622371 -0.866565709456 -0.221325547675
C  -2.264587926825 -2.114769004136  0.090017364520
C  -0.871248647382 -1.981803830666  0.287467898903
C  -0.532022515003 -0.649456978502  0.109381527231
C   0.782400965030 -0.022485766837  0.211171280302
C   1.827705580983 -0.413373071219 -0.626667395917
C   3.072552002181  0.201852595818 -0.511740522134
C   3.231843690590  1.191309963502  0.445319543062
N   2.249822613227  1.593489585916  1.280185841988
C   1.053393146351  0.970229953842  1.149203852026
H  -1.018157538203  1.679692387344 -1.264327143394
H  -1.744343670467  2.001392583029  0.352690932432
H  -2.784565639795  1.590833736359 -1.043498819394
H  -3.756917108517 -0.539318207930 -0.448965679827
H  -2.849221630404 -3.022424321639  0.164434477799
H  -0.181066624137 -2.774259123272  0.548712127642
H   1.675375641467 -1.189695352447 -1.371972468118
H   3.897562554835 -0.084289367448 -1.154208021803
H   4.183499006848  1.699963064595  0.570933619946
H   0.292994008806  1.300403614630  1.851715336968
