26
REP_00190 MMFF geometry for GFN2-xTB preoptimization
C  -2.174055163652  1.312245218200 -0.903281315592
C  -1.135004826056  1.049256325880  0.191049689012
C  -1.722660964831  0.116676111265  1.224378065340
C  -1.291861665983 -1.136185210857  1.430667414779
C  -0.194538800839 -1.778411996620  0.635459354607
C   0.154023559655 -1.001686376912 -0.645931653008
C   1.447260571468 -1.533365859412 -1.267249012490
C   0.190946388016  0.523723641635 -0.411265193846
C   1.329963140682  0.916532633861  0.509958762676
N   2.304830602158  1.648697081036  0.075702033737
O   3.212619928984  1.855759988183  1.120141380558
H  -1.791648167357  2.031462905171 -1.635547545526
H  -2.443761744858  0.395510380923 -1.438717502286
H  -3.092860382035  1.732221667718 -0.478275049637
H  -0.939315626313  2.007332008570  0.691788616035
H  -2.533689299563  0.506356352676  1.837118996019
H  -1.752046285340 -1.737341127976  2.211924031390
H   0.685899320657 -1.881003221790  1.281339744218
H  -0.504064206596 -2.794459188832  0.361583351564
H  -0.644506653411 -1.198144764358 -1.375571654060
H   2.298041734040 -1.433688161329 -0.585444601611
H   1.344348473104 -2.594864346391 -1.517047254467
H   1.684601906508 -0.994426140554 -2.190406765738
H   0.373964332322  1.023997419421 -1.372264047919
H   1.298083809955  0.554721808012  1.553244949210
H   3.895430019285  2.409082852479  0.696645207037
