15
DEC_00038 MMFF geometry for GFN2-xTB preoptimization
C   2.054433583559  0.407230003877  0.813925955236
C   0.997733393198 -0.640847119191  0.586414151464
O   0.803492909861 -1.547993161902  1.395931694736
C   0.145428647837 -0.506239557852 -0.642598870578
C  -0.956142013999  0.496070206607 -0.450419335600
C  -2.183314834976  0.041405943034  0.294006606743
O  -0.834312994753  1.655288496640 -0.847071339059
H   1.582029079511  1.377614697212  0.983256261027
H   2.716887409797  0.455977114841 -0.053871516495
H   2.650118417315  0.143052560076  1.692167639861
H   0.770095966413 -0.208934729295 -1.491404678429
H  -0.285080587976 -1.479415275084 -0.900788418827
H  -2.607278796633 -0.837528673713 -0.197950865918
H  -2.932074218008  0.838443034034  0.288524898241
H  -1.922015961145 -0.194123539285  1.328285858186
