      -----------------------------------------------------------      
     |                   =====================                   |     
     |                           x T B                           |     
     |                   =====================                   |     
     |                         S. Grimme                         |     
     |          Mulliken Center for Theoretical Chemistry        |     
     |                    University of Bonn                     |     
      -----------------------------------------------------------      

   * xtb version 6.7.1 (edcfbbe) compiled by 'conda@5dfe00f5fb80' on 2026-06-10

   xtb is free software: you can redistribute it and/or modify it under
   the terms of the GNU Lesser General Public License as published by
   the Free Software Foundation, either version 3 of the License, or
   (at your option) any later version.
   
   xtb is distributed in the hope that it will be useful,
   but WITHOUT ANY WARRANTY; without even the implied warranty of
   MERCHANTABILITY or FITNESS FOR A PARTICULAR PURPOSE.  See the
   GNU Lesser General Public License for more details.
   
   Cite this work as:
   * C. Bannwarth, E. Caldeweyher, S. Ehlert, A. Hansen, P. Pracht,
     J. Seibert, S. Spicher, S. Grimme, WIREs Comput. Mol. Sci., 2020, 11,
     e01493. DOI: 10.1002/wcms.1493
   
   for GFN2-xTB:
   * C. Bannwarth, S. Ehlert and S. Grimme., J. Chem. Theory Comput., 2019,
     15, 1652-1671. DOI: 10.1021/acs.jctc.8b01176
   for GFN1-xTB:
   * S. Grimme, C. Bannwarth, P. Shushkov, J. Chem. Theory Comput., 2017,
     13, 1989-2009. DOI: 10.1021/acs.jctc.7b00118
   for GFN0-xTB:
   * P. Pracht, E. Caldeweyher, S. Ehlert, S. Grimme, ChemRxiv, 2019, preprint.
     DOI: 10.26434/chemrxiv.8326202.v1
   for GFN-FF:
   * S. Spicher and S. Grimme, Angew. Chem. Int. Ed., 2020, 59, 15665-15673.
     DOI: 10.1002/anie.202004239
   
   for ALPB and GBSA implicit solvation:
   * S. Ehlert, M. Stahn, S. Spicher, S. Grimme, J. Chem. Theory Comput.,
     2021, 17, 4250-4261. DOI: 10.1021/acs.jctc.1c00471
   
   for ddCOSMO and CPCM-X implicit solvation:
   * M. Stahn, S. Ehlert, S. Grimme, J. Phys. Chem. A,
     2023, XX, XXXX-XXXX. DOI: 10.1021/acs.jpca.3c04382
   
   for DFT-D4:
   * E. Caldeweyher, C. Bannwarth and S. Grimme, J. Chem. Phys., 2017,
     147, 034112. DOI: 10.1063/1.4993215
   * E. Caldeweyher, S. Ehlert, A. Hansen, H. Neugebauer, S. Spicher,
     C. Bannwarth and S. Grimme, J. Chem. Phys., 2019, 150, 154122.
     DOI: 10.1063/1.5090222
   * E. Caldeweyher, J.-M. Mewes, S. Ehlert and S. Grimme, Phys. Chem. Chem. Phys.
     2020, 22, 8499-8512. DOI: 10.1039/D0CP00502A
   
   for sTDA-xTB:
   * S. Grimme and C. Bannwarth, J. Chem. Phys., 2016, 145, 054103.
     DOI: 10.1063/1.4959605
   
   in the mass-spec context:
   * V. Asgeirsson, C. Bauer and S. Grimme, Chem. Sci., 2017, 8, 4879.
     DOI: 10.1039/c7sc00601b
   * J. Koopman and S. Grimme, ACS Omega 2019, 4, 12, 15120-15133.
     DOI: 10.1021/acsomega.9b02011
   
   for metadynamics refer to:
   * S. Grimme, J. Chem. Theory Comput., 2019, 155, 2847-2862
     DOI: 10.1021/acs.jctc.9b00143
   
   for SPH calculations refer to:
   * S. Spicher and S. Grimme, J. Chem. Theory Comput., 2021, 17, 1701-1714
     DOI: 10.1021/acs.jctc.0c01306
   
   for ONIOM refer to:
   * C. Plett, A. Katbashev, S. Ehlert, S. Grimme, M. Bursch,
     Phys. Chem. Chem. Phys., 2023, 25, 17860-17868. DOI: 10.1039/D3CP02178E
   
   for DIPRO refer to:
   * J. Kohn, N. Gildemeister, S. Grimme, D. Fazzi, A. Hansen,
     J. Chem. Phys., 2023, just accepted.
   
   for PTB refer to:
   * S. Grimme, M. Mueller, A. Hansen, J. Chem. Phys., 2023, 158, 124111.
     DOI: 10.1063/5.0137838
   
   with help from (in alphabetical order)
   P. Atkinson, C. Bannwarth, F. Bohle, G. Brandenburg, E. Caldeweyher
   M. Checinski, S. Dohm, S. Ehlert, S. Ehrlich, I. Gerasimov, C. Hölzer
   A. Katbashev, J. Kohn, J. Koopman, C. Lavigne, S. Lehtola, F. März, M. Müller,
   F. Musil, H. Neugebauer, J. Pisarek, C. Plett, P. Pracht, F. Pultar,
   J. Seibert, P. Shushkov, S. Spicher, M. Stahn, M. Steiner, T. Strunk,
   J. Stückrath, T. Rose, and J. Unsleber
   
 * started run on 2026/07/08 at 13:27:47.729     
   ID    Z sym.   atoms
    1    8 O      1
    2    6 C      2-7
    3    1 H      8-17

           -------------------------------------------------
          |                Calculation Setup                |
           -------------------------------------------------

          program call               : /home/ws/xd2484/miniforge3/envs/p3z_dft/bin/xtb xtb_input.xyz --gfn 2 --opt tight --cycles 500 --chrg 0 --uhf 0
          hostname                   : gpu10
          coordinate file            : xtb_input.xyz
          omp threads                :                    16


           -------------------------------------------------
          |                 G F N 2 - x T B                 |
           -------------------------------------------------

        Reference                      10.1021/acs.jctc.8b01176
      * Hamiltonian:
        H0-scaling (s, p, d)           1.850000    2.230000    2.230000
        zeta-weighting                 0.500000
      * Dispersion:
        s8                             2.700000
        a1                             0.520000
        a2                             5.000000
        s9                             5.000000
      * Repulsion:
        kExp                           1.500000    1.000000
        rExp                           1.000000
      * Coulomb:
        alpha                          2.000000
        third order                    shell-resolved
        anisotropic                    true
        a3                             3.000000
        a5                             4.000000
        cn-shift                       1.200000
        cn-exp                         4.000000
        max-rad                        5.000000


          ...................................................
          :                      SETUP                      :
          :.................................................:
          :  # basis functions                  38          :
          :  # atomic orbitals                  38          :
          :  # shells                           24          :
          :  # electrons                        40          :
          :  max. iterations                   250          :
          :  Hamiltonian                  GFN2-xTB          :
          :  restarted?                      false          :
          :  GBSA solvation                  false          :
          :  PC potential                    false          :
          :  electronic temp.          300.0000000     K    :
          :  accuracy                    1.0000000          :
          :  -> integral cutoff          0.2500000E+02      :
          :  -> integral neglect         0.1000000E-07      :
          :  -> SCF convergence          0.1000000E-05 Eh   :
          :  -> wf. convergence          0.1000000E-03 e    :
          :  Broyden damping             0.4000000          :
          :  net charge                          0          :
          :  unpaired electrons                  0          :
          ...................................................

 iter      E             dE          RMSdq      gap      omega  full diag
   1    -22.2261053 -0.222261E+02  0.362E+00    4.41       0.0  T
   2    -22.2822224 -0.561172E-01  0.186E+00    3.40       1.0  T
   3    -22.2902350 -0.801259E-02  0.127E+00    3.92       1.0  T
   4    -22.2945283 -0.429329E-02  0.178E-01    3.64       1.0  T
   5    -22.2947232 -0.194831E-03  0.748E-02    3.69       1.0  T
   6    -22.2947376 -0.144364E-04  0.288E-02    3.69       1.0  T
   7    -22.2947378 -0.226323E-06  0.656E-03    3.68       3.7  T
   8    -22.2947381 -0.304497E-06  0.221E-03    3.68      11.0  T
   9    -22.2947381  0.104851E-07  0.123E-03    3.68      19.8  T
  10    -22.2947381 -0.170099E-07  0.256E-04    3.68      94.7  T
  11    -22.2947381 -0.564214E-09  0.672E-05    3.68     360.8  T

   *** convergence criteria satisfied after 11 iterations ***

         #    Occupation            Energy/Eh            Energy/eV
      -------------------------------------------------------------
         1        2.0000           -0.7015087             -19.0890
       ...           ...                  ...                  ...
        14        2.0000           -0.4826482             -13.1335
        15        2.0000           -0.4741712             -12.9029
        16        2.0000           -0.4584896             -12.4761
        17        2.0000           -0.4447768             -12.1030
        18        2.0000           -0.4416280             -12.0173
        19        2.0000           -0.4360404             -11.8653
        20        2.0000           -0.3900808             -10.6146 (HOMO)
        21                         -0.2546799              -6.9302 (LUMO)
        22                          0.0706532               1.9226
        23                          0.0825007               2.2450
        24                          0.0852972               2.3211
        25                          0.0915244               2.4905
       ...                                ...                  ...
        38                          0.5539361              15.0734
      -------------------------------------------------------------
                  HL-Gap            0.1354009 Eh            3.6844 eV
             Fermi-level           -0.3223803 Eh           -8.7724 eV

 SCC (total)                   0 d,  0 h,  0 min,  0.284 sec
 SCC setup                      ...        0 min,  0.007 sec (  2.350%)
 Dispersion                     ...        0 min,  0.015 sec (  5.134%)
 classical contributions        ...        0 min,  0.007 sec (  2.507%)
 integral evaluation            ...        0 min,  0.022 sec (  7.880%)
 iterations                     ...        0 min,  0.188 sec ( 66.145%)
 molecular gradient             ...        0 min,  0.045 sec ( 15.924%)
 printout                       ...        0 min,  0.000 sec (  0.049%)

         :::::::::::::::::::::::::::::::::::::::::::::::::::::
         ::                     SUMMARY                     ::
         :::::::::::::::::::::::::::::::::::::::::::::::::::::
         :: total energy             -22.017053050401 Eh    ::
         :: gradient norm              0.053220192360 Eh/a0 ::
         :: HOMO-LUMO gap              3.684444872168 eV    ::
         ::.................................................::
         :: SCC energy               -22.294708351226 Eh    ::
         :: -> isotropic ES            0.028646742207 Eh    ::
         :: -> anisotropic ES          0.002567167552 Eh    ::
         :: -> anisotropic XC          0.009638650516 Eh    ::
         :: -> dispersion             -0.011061558299 Eh    ::
         :: repulsion energy           0.277655300825 Eh    ::
         :: add. restraining           0.000000000000 Eh    ::
         :: total charge               0.000000000000 e     ::
         :::::::::::::::::::::::::::::::::::::::::::::::::::::

      ----------------------------------------------------------- 
     |                   =====================                   |
     |                        A N C O P T                        |
     |                   =====================                   |
     |               Approximate Normal Coordinate               |
     |                Rational Function Optimizer                |
      ----------------------------------------------------------- 
      ----------------------------------------------------------- 
     |                   =====================                   |
     |                        A N C O P T                        |
     |                   =====================                   |
     |               Approximate Normal Coordinate               |
     |                Rational Function Optimizer                |
      ----------------------------------------------------------- 

          ...................................................
          :                      SETUP                      :
          :.................................................:
          :   optimization level             tight          :
          :   max. optcycles                   500          :
          :   ANC micro-cycles                  20          :
          :   degrees of freedom                45          :
          :.................................................:
          :   RF solver                   davidson          :
          :   write xtbopt.log                true          :
          :   linear?                        false          :
          :   energy convergence         0.1000000E-05 Eh   :
          :   grad. convergence          0.8000000E-03 Eh/α :
          :   maxmium RF displ.          1.0000000          :
          :   Hlow (freq-cutoff)         0.1000000E-01      :
          :   Hmax (freq-cutoff)         5.0000000          :
          :   S6 in model hess.         20.0000000          :
          ...................................................

generating ANC from exact Hessian ...
Using Lindh-Hessian (1995)
 Shifting diagonal of input Hessian by    1.1896039753410588E-003
 Lowest  eigenvalues of input Hessian
    0.000000    0.000000    0.000000    0.000000    0.000000    0.000000
    0.010000    0.010146    0.018823    0.021392    0.026925    0.030907
    0.051860    0.052823    0.053528    0.055745    0.057094    0.058892
 Highest eigenvalues
    1.198020    1.202613    1.239856    1.262712    1.367020    2.042462


........................................................................
.............................. CYCLE    1 ..............................
........................................................................

 iter      E             dE          RMSdq      gap      omega  full diag
   1    -22.2947381 -0.222947E+02  0.137E-05    3.68       0.0  T
   2    -22.2947381 -0.341061E-12  0.705E-06    3.68    3441.0  T
   3    -22.2947381 -0.390799E-13  0.448E-06    3.68    5413.2  T
     SCC iter.                  ...        0 min,  0.043 sec
     gradient                   ...        0 min,  0.041 sec
 * total energy  :   -22.0170531 Eh     change       -0.4823875E-10 Eh
   gradient norm :     0.0532191 Eh/α   predicted     0.0000000E+00 (-100.00%)
   displ. norm   :     0.1456789 α      lambda       -0.2967183E-02
   maximum displ.:     0.0822163 α      in ANC's #2, #27, #3, ...

........................................................................
.............................. CYCLE    2 ..............................
........................................................................

 iter      E             dE          RMSdq      gap      omega  full diag
   1    -22.3047376 -0.223047E+02  0.169E-01    3.84       0.0  T
   2    -22.3047967 -0.590191E-04  0.100E-01    3.82       1.0  T
   3    -22.3047980 -0.130320E-05  0.379E-02    3.82       1.0  T
   4    -22.3047998 -0.185910E-05  0.510E-03    3.82       4.8  T
   5    -22.3048000 -0.122385E-06  0.287E-03    3.82       8.5  T
   6    -22.3048000 -0.499029E-07  0.105E-03    3.82      23.1  T
   7    -22.3048000 -0.139391E-08  0.399E-04    3.82      60.8  T
   8    -22.3048000 -0.231648E-09  0.764E-05    3.82     317.5  T
     SCC iter.                  ...        0 min,  0.109 sec
     gradient                   ...        0 min,  0.036 sec
 * total energy  :   -22.0185995 Eh     change       -0.1546414E-02 Eh
   gradient norm :     0.0138349 Eh/α   predicted    -0.1515076E-02 (  -2.03%)
   displ. norm   :     0.1254878 α      lambda       -0.5223023E-03
   maximum displ.:     0.1143939 α      in ANC's #3, #6, #4, ...

........................................................................
.............................. CYCLE    3 ..............................
........................................................................

 iter      E             dE          RMSdq      gap      omega  full diag
   1    -22.3084143 -0.223084E+02  0.685E-02    3.87       0.0  T
   2    -22.3084303 -0.159804E-04  0.403E-02    3.86       1.0  T
   3    -22.3084309 -0.591622E-06  0.184E-02    3.86       1.3  T
   4    -22.3084311 -0.191838E-06  0.305E-03    3.86       8.0  T
   5    -22.3084312 -0.447912E-07  0.145E-03    3.86      16.8  T
   6    -22.3084312 -0.146133E-07  0.457E-04    3.86      53.1  T
   7    -22.3084312 -0.341384E-09  0.215E-04    3.86     112.8  T
     SCC iter.                  ...        0 min,  0.130 sec
     gradient                   ...        0 min,  0.034 sec
 * total energy  :   -22.0188272 Eh     change       -0.2277735E-03 Eh
   gradient norm :     0.0065046 Eh/α   predicted    -0.2652625E-03 (  16.46%)
   displ. norm   :     0.0508511 α      lambda       -0.9556922E-04
   maximum displ.:     0.0332979 α      in ANC's #4, #3, #6, ...

........................................................................
.............................. CYCLE    4 ..............................
........................................................................

 iter      E             dE          RMSdq      gap      omega  full diag
   1    -22.3076964 -0.223077E+02  0.404E-02    3.85       0.0  T
   2    -22.3076968 -0.411350E-06  0.242E-02    3.85       1.0  T
   3    -22.3076964  0.401593E-06  0.620E-03    3.85       3.9  T
   4    -22.3076970 -0.530159E-06  0.850E-04    3.85      28.5  T
   5    -22.3076970 -0.954774E-09  0.452E-04    3.85      53.7  T
     SCC iter.                  ...        0 min,  0.097 sec
     gradient                   ...        0 min,  0.061 sec
 * total energy  :   -22.0189005 Eh     change       -0.7324036E-04 Eh
   gradient norm :     0.0024576 Eh/α   predicted    -0.4790810E-04 ( -34.59%)
   displ. norm   :     0.1109594 α      lambda       -0.1013232E-03
   maximum displ.:     0.0809012 α      in ANC's #4, #3, #6, ...

........................................................................
.............................. CYCLE    5 ..............................
........................................................................

 iter      E             dE          RMSdq      gap      omega  full diag
   1    -22.3069107 -0.223069E+02  0.924E-02    3.83       0.0  T
   2    -22.3069116 -0.939478E-06  0.545E-02    3.83       1.0  T
   3    -22.3069110  0.556023E-06  0.785E-03    3.83       3.1  T
   4    -22.3069119 -0.842812E-06  0.185E-03    3.83      13.1  T
   5    -22.3069119 -0.699670E-08  0.921E-04    3.83      26.3  T
   6    -22.3069119 -0.163746E-08  0.286E-04    3.83      84.8  T
     SCC iter.                  ...        0 min,  0.128 sec
     gradient                   ...        0 min,  0.047 sec
 * total energy  :   -22.0189630 Eh     change       -0.6247670E-04 Eh
   gradient norm :     0.0028256 Eh/α   predicted    -0.5128441E-04 ( -17.91%)
   displ. norm   :     0.0677549 α      lambda       -0.3182302E-04
   maximum displ.:     0.0443348 α      in ANC's #4, #2, #3, ...

........................................................................
.............................. CYCLE    6 ..............................
........................................................................

 iter      E             dE          RMSdq      gap      omega  full diag
   1    -22.3069728 -0.223070E+02  0.646E-02    3.83       0.0  T
   2    -22.3069731 -0.356718E-06  0.379E-02    3.83       1.0  T
   3    -22.3069732 -0.386189E-07  0.255E-03    3.83       9.5  T
   4    -22.3069732 -0.455042E-07  0.107E-03    3.83      22.6  T
   5    -22.3069732 -0.131747E-08  0.486E-04    3.83      49.9  T
   6    -22.3069732 -0.114889E-08  0.222E-04    3.83     109.3  T
     SCC iter.                  ...        0 min,  0.092 sec
     gradient                   ...        0 min,  0.042 sec
 * total energy  :   -22.0189884 Eh     change       -0.2539626E-04 Eh
   gradient norm :     0.0033784 Eh/α   predicted    -0.1598350E-04 ( -37.06%)
   displ. norm   :     0.1156115 α      lambda       -0.5307975E-04
   maximum displ.:     0.0792695 α      in ANC's #2, #4, #6, ...

........................................................................
.............................. CYCLE    7 ..............................
........................................................................

 iter      E             dE          RMSdq      gap      omega  full diag
   1    -22.3073173 -0.223073E+02  0.115E-01    3.83       0.0  T
   2    -22.3073184 -0.116091E-05  0.673E-02    3.83       1.0  T
   3    -22.3073185 -0.108454E-06  0.474E-03    3.83       5.1  T
   4    -22.3073187 -0.154384E-06  0.187E-03    3.83      13.0  T
   5    -22.3073187 -0.490769E-08  0.867E-04    3.83      28.0  T
   6    -22.3073187 -0.288587E-08  0.414E-04    3.83      58.6  T
     SCC iter.                  ...        0 min,  0.128 sec
     gradient                   ...        0 min,  0.046 sec
 * total energy  :   -22.0190256 Eh     change       -0.3720307E-04 Eh
   gradient norm :     0.0031100 Eh/α   predicted    -0.2689586E-04 ( -27.71%)
   displ. norm   :     0.0629151 α      lambda       -0.2539158E-04
   maximum displ.:     0.0535277 α      in ANC's #2, #4, #6, ...

........................................................................
.............................. CYCLE    8 ..............................
........................................................................

 iter      E             dE          RMSdq      gap      omega  full diag
   1    -22.3077415 -0.223077E+02  0.593E-02    3.83       0.0  T
   2    -22.3077420 -0.497178E-06  0.348E-02    3.83       1.0  T
   3    -22.3077420  0.389707E-07  0.375E-03    3.83       6.5  T
   4    -22.3077421 -0.125823E-06  0.110E-03    3.83      22.1  T
   5    -22.3077421 -0.437818E-08  0.600E-04    3.83      40.4  T
   6    -22.3077421 -0.132660E-08  0.257E-04    3.83      94.5  T
     SCC iter.                  ...        0 min,  0.092 sec
     gradient                   ...        0 min,  0.039 sec
 * total energy  :   -22.0190440 Eh     change       -0.1842304E-04 Eh
   gradient norm :     0.0010597 Eh/α   predicted    -0.1274840E-04 ( -30.80%)
   displ. norm   :     0.0712638 α      lambda       -0.1003943E-04
   maximum displ.:     0.0638752 α      in ANC's #2, #6, #4, ...

........................................................................
.............................. CYCLE    9 ..............................
........................................................................

 iter      E             dE          RMSdq      gap      omega  full diag
   1    -22.3076673 -0.223077E+02  0.640E-02    3.83       0.0  T
   2    -22.3076677 -0.387475E-06  0.375E-02    3.83       1.0  T
   3    -22.3076677 -0.421284E-07  0.255E-03    3.83       9.5  T
   4    -22.3076678 -0.394986E-07  0.102E-03    3.83      23.8  T
   5    -22.3076678 -0.179181E-08  0.386E-04    3.83      62.8  T
   6    -22.3076678 -0.189161E-09  0.178E-04    3.83     136.4  T
     SCC iter.                  ...        0 min,  0.095 sec
     gradient                   ...        0 min,  0.047 sec
 * total energy  :   -22.0190524 Eh     change       -0.8452984E-05 Eh
   gradient norm :     0.0004915 Eh/α   predicted    -0.5030914E-05 ( -40.48%)
   displ. norm   :     0.0123155 α      lambda       -0.9905227E-06
   maximum displ.:     0.0118495 α      in ANC's #2, #10, #13, ...

........................................................................
.............................. CYCLE   10 ..............................
........................................................................

 iter      E             dE          RMSdq      gap      omega  full diag
   1    -22.3077671 -0.223078E+02  0.656E-03    3.84       0.0  T
   2    -22.3077671 -0.368141E-07  0.392E-03    3.83       6.2  T
   3    -22.3077671 -0.783981E-09  0.764E-04    3.83      31.7  T
   4    -22.3077671 -0.184315E-08  0.167E-04    3.83     145.6  T
     SCC iter.                  ...        0 min,  0.054 sec
     gradient                   ...        0 min,  0.032 sec
 * total energy  :   -22.0190530 Eh     change       -0.5668238E-06 Eh
   gradient norm :     0.0005605 Eh/α   predicted    -0.4944650E-06 ( -12.77%)
   displ. norm   :     0.0063587 α      lambda       -0.3204823E-06
   maximum displ.:     0.0050117 α      in ANC's #2, #4, #21, ...

   *** GEOMETRY OPTIMIZATION CONVERGED AFTER 10 ITERATIONS ***

------------------------------------------------------------------------
 total energy gain   :        -0.0019999 Eh       -1.2550 kcal/mol
 total RMSD          :         0.1268925 a0        0.0671 Å
 total power (kW/mol):        -0.5250860 (step)   -2.9715 (real)
------------------------------------------------------------------------

 ANCopt (total)                0 d,  0 h,  0 min,  1.767 sec
 optimizer setup                ...        0 min,  0.001 sec (  0.043%)
 model hessian                  ...        0 min,  0.011 sec (  0.642%)
 ANC generation                 ...        0 min,  0.000 sec (  0.027%)
 coordinate transformation      ...        0 min,  0.000 sec (  0.005%)
 single point calculation       ...        0 min,  1.711 sec ( 96.832%)
 optimization log               ...        0 min,  0.001 sec (  0.047%)
 hessian update                 ...        0 min,  0.039 sec (  2.235%)
 rational function              ...        0 min,  0.002 sec (  0.086%)

================
 final structure:
================
17
 xtb: 6.7.1 (edcfbbe)
O            0.07793295460379        1.99080828788236        1.80066260146887
C            0.03490306769099        1.30205826693843        0.81360994930241
C           -1.25796598436639        0.82640509169698        0.19265378470229
C           -1.24911567984789       -0.69622542867991        0.03388981764959
C           -0.03299297575583       -1.14608094634095       -0.76760594048216
C            1.24831408106923       -0.69430150636675       -0.07632638297536
C            1.26877443146115        0.82835159722137        0.08114402197094
H           -1.35435371932785        1.29250594507057       -0.79125226052531
H           -2.09689939525405        1.14725538773878        0.81216993159133
H           -2.16850020041720       -1.01455402714468       -0.46151775472222
H           -1.22462470153819       -1.15926110180814        1.02280258423691
H           -0.07768037147781       -0.72001977265694       -1.77275693916375
H           -0.03643120230510       -2.23345197534078       -0.86449496925292
H            1.31174573893837       -1.15730716079668        0.91086786788953
H            2.12097127243848       -1.01124960147764       -0.65082006153297
H            1.27739622778167        1.29453332389053       -0.90739629861439
H            2.15852645630764        1.15053362017246        0.62437004845622

 Bond Distances (Angstroems)
 ---------------------------
O1-C2=1.2044         C2-O1=1.2044         C2-C3=1.5111         C2-C7=1.5111         C3-C2=1.5111         C3-C4=1.5309         
C3-H8=1.0930         C3-H9=1.0911         C4-C3=1.5309         C4-C5=1.5244         C4-H10=1.0918        C4-H11=1.0922        
C5-C4=1.5244         C5-C6=1.5244         C5-H12=1.0926        C5-H13=1.0917        C6-C5=1.5244         C6-C7=1.5309         
C6-H14=1.0922        C6-H15=1.0918        C7-C2=1.5111         C7-C6=1.5309         C7-H16=1.0930        C7-H17=1.0911        
H8-C3=1.0930         H9-C3=1.0911         H10-C4=1.0918        H11-C4=1.0922        H12-C5=1.0926        H13-C5=1.0917        
H14-C6=1.0922        H15-C6=1.0918        H16-C7=1.0930        H17-C7=1.0911        
 C  H  Rav=1.0921 sigma=0.0006  Rmin=1.0911  Rmax=1.0930    10
 C  C  Rav=1.5221 sigma=0.0083  Rmin=1.5111  Rmax=1.5309     6
 O  C  Rav=1.2044 sigma=0.0000  Rmin=1.2044  Rmax=1.2044     1

 selected bond angles (degree)
 --------------------
C3-C2-O1=123.19                C7-C2-O1=123.19                C7-C2-C3=113.63                C4-C3-C2=110.53                
H8-C3-C2=108.13                H8-C3-C4=109.35                H9-C3-C2=109.39                H9-C3-C4=110.84                
H9-C3-H8=108.54                C5-C4-C3=110.65                H10-C4-C3=109.40               H10-C4-C5=110.31               
H11-C4-C3=109.14               H11-C4-C5=109.45               H11-C4-H10=107.83              C6-C5-C4=110.16                
H12-C5-C4=109.63               H12-C5-C6=109.63               H13-C5-C4=109.76               H13-C5-C6=109.76               
H13-C5-H12=107.86              C7-C6-C5=110.65                H14-C6-C5=109.45               H14-C6-C7=109.14               
H15-C6-C5=110.31               H15-C6-C7=109.40               H15-C6-H14=107.83              C6-C7-C2=110.53                
H16-C7-C2=108.13               H16-C7-C6=109.35               H17-C7-C2=109.39               H17-C7-C6=110.84               
H17-C7-H16=108.54              

 selected dihedral angles (degree)
 ---------------------------------
C4-C3-C2-O1=233.92            C4-C3-C2-C7= 53.75            H8-C3-C2-O1=114.26            H8-C3-C2-C7=294.09            
H9-C3-C2-O1=356.23            H9-C3-C2-C7=176.06            C5-C4-C3-C2=304.58            C5-C4-C3-H8= 63.50            
C5-C4-C3-H9=183.12            H10-C4-C3-C2=182.84           H10-C4-C3-H8=301.76           H10-C4-C3-H9= 61.38           
H11-C4-C3-C2= 65.08           H11-C4-C3-H8=184.00           H11-C4-C3-H9=303.62           C6-C5-C4-C3= 58.54            
C6-C5-C4-H10=179.74           C6-C5-C4-H11=298.22           H12-C5-C4-C3=297.81           H12-C5-C4-H10= 59.01          
H12-C5-C4-H11=177.49          H13-C5-C4-C3=179.51           H13-C5-C4-H10=300.71          H13-C5-C4-H11= 59.20          
C7-C6-C5-C4=301.46            C7-C6-C5-H12= 62.19           C7-C6-C5-H13=180.49           H14-C6-C5-C4= 61.78           
H14-C6-C5-H12=182.51          H14-C6-C5-H13=300.80          H15-C6-C5-C4=180.26           H15-C6-C5-H12=300.99          
H15-C6-C5-H13= 59.29          C6-C7-C2-O1=126.08            C6-C7-C2-C3=306.25            H16-C7-C2-O1=245.74           
H16-C7-C2-C3= 65.91           H17-C7-C2-O1=  3.77           H17-C7-C2-C3=183.94           C2-C7-C6-C5= 55.42            
C2-C7-C6-H14=294.92           C2-C7-C6-H15=177.16           H16-C7-C6-C5=296.50           H16-C7-C6-H14=176.00          
H16-C7-C6-H15= 58.24          H17-C7-C6-C5=176.88           H17-C7-C6-H14= 56.38          H17-C7-C6-H15=298.62          
           -------------------------------------------------
          |                Final Singlepoint                |
           -------------------------------------------------

          ...................................................
          :                      SETUP                      :
          :.................................................:
          :  # basis functions                  38          :
          :  # atomic orbitals                  38          :
          :  # shells                           24          :
          :  # electrons                        40          :
          :  max. iterations                   250          :
          :  Hamiltonian                  GFN2-xTB          :
          :  restarted?                      false          :
          :  GBSA solvation                  false          :
          :  PC potential                    false          :
          :  electronic temp.          300.0000000     K    :
          :  accuracy                    1.0000000          :
          :  -> integral cutoff          0.2500000E+02      :
          :  -> integral neglect         0.1000000E-07      :
          :  -> SCF convergence          0.1000000E-05 Eh   :
          :  -> wf. convergence          0.1000000E-03 e    :
          :  Broyden damping             0.4000000          :
          :  net charge                          0          :
          :  unpaired electrons                  0          :
          ...................................................

 iter      E             dE          RMSdq      gap      omega  full diag
   1    -22.3077671 -0.223078E+02  0.555E-05    3.83       0.0  T
   2    -22.3077671 -0.389733E-11  0.340E-05    3.83     714.0  T
   3    -22.3077671 -0.156319E-12  0.183E-05    3.83    1324.6  T

   *** convergence criteria satisfied after 3 iterations ***

         #    Occupation            Energy/Eh            Energy/eV
      -------------------------------------------------------------
         1        2.0000           -0.7079541             -19.2644
       ...           ...                  ...                  ...
        14        2.0000           -0.4811291             -13.0922
        15        2.0000           -0.4755719             -12.9410
        16        2.0000           -0.4583875             -12.4734
        17        2.0000           -0.4440867             -12.0842
        18        2.0000           -0.4421627             -12.0319
        19        2.0000           -0.4375177             -11.9055
        20        2.0000           -0.3886576             -10.5759 (HOMO)
        21                         -0.2477282              -6.7410 (LUMO)
        22                          0.0811912               2.2093
        23                          0.0865481               2.3551
        24                          0.0873267               2.3763
        25                          0.0938204               2.5530
       ...                                ...                  ...
        38                          0.6367530              17.3269
      -------------------------------------------------------------
                  HL-Gap            0.1409294 Eh            3.8349 eV
             Fermi-level           -0.3181929 Eh           -8.6585 eV

 SCC (total)                   0 d,  0 h,  0 min,  0.116 sec
 SCC setup                      ...        0 min,  0.004 sec (  3.235%)
 Dispersion                     ...        0 min,  0.007 sec (  5.729%)
 classical contributions        ...        0 min,  0.004 sec (  3.151%)
 integral evaluation            ...        0 min,  0.014 sec ( 12.474%)
 iterations                     ...        0 min,  0.040 sec ( 34.851%)
 molecular gradient             ...        0 min,  0.047 sec ( 40.456%)
 printout                       ...        0 min,  0.000 sec (  0.083%)

         :::::::::::::::::::::::::::::::::::::::::::::::::::::
         ::                     SUMMARY                     ::
         :::::::::::::::::::::::::::::::::::::::::::::::::::::
         :: total energy             -22.019052997639 Eh    ::
         :: gradient norm              0.000556754596 Eh/a0 ::
         :: HOMO-LUMO gap              3.834884056430 eV    ::
         ::.................................................::
         :: SCC energy               -22.307738474467 Eh    ::
         :: -> isotropic ES            0.027147405728 Eh    ::
         :: -> anisotropic ES          0.002658872205 Eh    ::
         :: -> anisotropic XC          0.009311022069 Eh    ::
         :: -> dispersion             -0.011152722903 Eh    ::
         :: repulsion energy           0.288685476828 Eh    ::
         :: add. restraining           0.000000000000 Eh    ::
         :: total charge              -0.000000000000 e     ::
         :::::::::::::::::::::::::::::::::::::::::::::::::::::

           -------------------------------------------------
          |                Property Printout                |
           -------------------------------------------------

    * Orbital Energies and Occupations

         #    Occupation            Energy/Eh            Energy/eV
      -------------------------------------------------------------
         1        2.0000           -0.7079541             -19.2644
       ...           ...                  ...                  ...
         8        2.0000           -0.5403181             -14.7028
         9        2.0000           -0.5329183             -14.5014
        10        2.0000           -0.5283111             -14.3761
        11        2.0000           -0.5155121             -14.0278
        12        2.0000           -0.5075784             -13.8119
        13        2.0000           -0.4909810             -13.3603
        14        2.0000           -0.4811291             -13.0922
        15        2.0000           -0.4755719             -12.9410
        16        2.0000           -0.4583875             -12.4734
        17        2.0000           -0.4440867             -12.0842
        18        2.0000           -0.4421627             -12.0319
        19        2.0000           -0.4375177             -11.9055
        20        2.0000           -0.3886576             -10.5759 (HOMO)
        21                         -0.2477282              -6.7410 (LUMO)
        22                          0.0811912               2.2093
        23                          0.0865481               2.3551
        24                          0.0873267               2.3763
        25                          0.0938204               2.5530
        26                          0.1117998               3.0422
        27                          0.1249081               3.3989
        28                          0.1319650               3.5910
        29                          0.1670291               4.5451
        30                          0.1770475               4.8177
        31                          0.1937954               5.2734
       ...                                ...                  ...
        38                          0.6367530              17.3269
      -------------------------------------------------------------
                  HL-Gap            0.1409294 Eh            3.8349 eV
             Fermi-level           -0.3181929 Eh           -8.6585 eV

     #   Z          covCN         q      C6AA      α(0)
     1   8 O        0.857    -0.359    20.875     6.126
     2   6 C        2.816     0.243    22.933     7.846
     3   6 C        3.806    -0.086    22.132     6.697
     4   6 C        3.806    -0.053    21.527     6.605
     5   6 C        3.805    -0.060    21.657     6.625
     6   6 C        3.806    -0.053    21.527     6.605
     7   6 C        3.806    -0.086    22.132     6.697
     8   1 H        0.924     0.056     2.246     2.344
     9   1 H        0.924     0.056     2.249     2.345
    10   1 H        0.924     0.039     2.468     2.457
    11   1 H        0.924     0.040     2.455     2.450
    12   1 H        0.924     0.037     2.487     2.466
    13   1 H        0.924     0.037     2.487     2.466
    14   1 H        0.924     0.040     2.455     2.450
    15   1 H        0.924     0.039     2.468     2.457
    16   1 H        0.924     0.056     2.246     2.344
    17   1 H        0.924     0.056     2.249     2.345

 Mol. C6AA /au·bohr⁶  :       2306.105084
 Mol. C8AA /au·bohr⁸  :      50626.217351
 Mol. α(0) /au        :         71.325816


Wiberg/Mayer (AO) data.
largest (>0.10) Wiberg bond orders for each atom

 ---------------------------------------------------------------------------
     #   Z sym  total        # sym  WBO       # sym  WBO       # sym  WBO
 ---------------------------------------------------------------------------
     1   8 O    2.074 --     2 C    1.872
     2   6 C    3.915 --     1 O    1.872     7 C    0.989     3 C    0.989
     3   6 C    3.997 --     4 C    0.989     2 C    0.989     9 H    0.975
                             8 H    0.953
     4   6 C    3.996 --     5 C    1.010     3 C    0.989    11 H    0.978
                            10 H    0.976
     5   6 C    3.998 --     6 C    1.010     4 C    1.010    12 H    0.977
                            13 H    0.975
     6   6 C    3.996 --     5 C    1.010     7 C    0.989    14 H    0.978
                            15 H    0.976
     7   6 C    3.997 --     6 C    0.989     2 C    0.989    17 H    0.975
                            16 H    0.953
     8   1 H    0.997 --     3 C    0.953
     9   1 H    0.997 --     3 C    0.975
    10   1 H    0.999 --     4 C    0.976
    11   1 H    0.998 --     4 C    0.978
    12   1 H    0.999 --     5 C    0.977
    13   1 H    0.999 --     5 C    0.975
    14   1 H    0.998 --     6 C    0.978
    15   1 H    0.999 --     6 C    0.976
    16   1 H    0.997 --     7 C    0.953
    17   1 H    0.997 --     7 C    0.975
 ---------------------------------------------------------------------------

Topologies differ in total number of bonds
Writing topology from bond orders to xtbtopo.mol

molecular dipole:
                 x           y           z       tot (Debye)
 q only:       -0.041      -0.760      -0.950
   full:       -0.048      -0.834      -1.107       3.525
molecular quadrupole (traceless):
                xx          xy          yy          xz          yz          zz
 q only:        4.770      -0.245      -2.049      -0.327      -5.676      -2.721
  q+dip:        5.449      -0.338      -3.250      -0.332      -7.812      -2.199
   full:        5.179      -0.350      -2.431      -0.344      -8.062      -2.748

           -------------------------------------------------
          |                Geometry Summary                 |
           -------------------------------------------------

      molecular mass/u    :       98.1432278
   center of mass at/Å    :        0.0132403       0.3512070       0.3061481
  moments of inertia/u·Å² :        0.1191817E+03   0.1990715E+03   0.2821410E+03
rotational constants/cm⁻¹ :        0.1414448E+00   0.8468129E-01   0.5974896E-01

 * 15 selected distances

     #   Z          #   Z                                           value/Å
     1   8 O        2   6 C                                       1.2043676
     3   6 C        4   6 C                                       1.5309110
     4   6 C        5   6 C                                       1.5243754
     5   6 C        6   6 C                                       1.5243754
     6   6 C        7   6 C                                       1.5309110 (max)
     3   6 C        8   1 H                                       1.0929830
     3   6 C        9   1 H                                       1.0911254 (min)
     4   6 C       10   1 H                                       1.0918012
     4   6 C       11   1 H                                       1.0922227
     5   6 C       12   1 H                                       1.0926362
     5   6 C       13   1 H                                       1.0916846
     6   6 C       14   1 H                                       1.0922227
     6   6 C       15   1 H                                       1.0918012
     7   6 C       16   1 H                                       1.0929830
     7   6 C       17   1 H                                       1.0911254

 * 3 distinct bonds (by element types)

   Z      Z             #   av. dist./Å        max./Å        min./Å
   1 H    6 C          10     1.0920586     1.0929830     1.0911254
   6 C    6 C           4     1.5276432     1.5309110     1.5243754
   6 C    8 O           1     1.2043676     1.2043676     1.2043676


optimized geometry written to: xtbopt.xyz


           -------------------------------------------------
          | TOTAL ENERGY              -22.019052997639 Eh   |
          | GRADIENT NORM               0.000556754596 Eh/α |
          | HOMO-LUMO GAP               3.834884056430 eV   |
           -------------------------------------------------

------------------------------------------------------------------------
 * finished run on 2026/07/08 at 13:27:49.973     
------------------------------------------------------------------------
 total:
 * wall-time:     0 d,  0 h,  0 min,  2.244 sec
 *  cpu-time:     0 d,  0 h,  0 min, 35.705 sec
 * ratio c/w:    15.915 speedup
 SCF:
 * wall-time:     0 d,  0 h,  0 min,  0.284 sec
 *  cpu-time:     0 d,  0 h,  0 min,  4.540 sec
 * ratio c/w:    15.978 speedup
 ANC optimizer:
 * wall-time:     0 d,  0 h,  0 min,  1.888 sec
 *  cpu-time:     0 d,  0 h,  0 min, 30.068 sec
 * ratio c/w:    15.929 speedup

