29
REP_00074 MMFF geometry for GFN2-xTB preoptimization
C   4.260645964192  0.195059589768 -0.459650951909
O   2.927088525154 -0.209765011196 -0.764612424123
C   1.985686263628  0.371193395289  0.017696791517
O   2.183001880180  1.161593254557  0.927289189486
C   0.643033536226 -0.083466200315 -0.386358799722
C   0.314908442733 -1.319801354985 -0.840139508286
C   0.506237728272 -2.403795332462  0.216135515437
C  -0.722494448273 -2.078211449923  1.103020476163
C  -1.418408492768 -0.902429468007  0.346836786455
C  -1.184145645757 -1.329314362259 -1.094178503828
C  -0.544336539779  0.386541413035  0.432889756477
C  -1.202590693980  1.612522628499 -0.177446861428
O  -0.768674427368  2.264065376830 -1.117631044517
O  -2.353300127003  1.899323955796  0.499915918370
C  -3.035525474863  3.058503578406  0.019163779194
H   4.937067544977 -0.318742812318 -1.148293756797
H   4.376830698250  1.274214826387 -0.601264274123
H   4.524071609337 -0.092426222014  0.563103943585
H   1.446228016547 -2.322769508796  0.770390140791
H   0.437157081966 -3.403226379658 -0.224954631578
H  -1.383605063540 -2.950242844203  1.165654605600
H  -0.429981211181 -1.793775194861  2.119290982329
H  -2.466024072694 -0.764772718389  0.624103544319
H  -1.578601995518 -2.320930494215 -1.338415279954
H  -1.502970602827 -0.605949621283 -1.851184177852
H  -0.272849823905  0.612535103576  1.470292972334
H  -3.933737832446  3.198877746023  0.626796712399
H  -3.340585323094  2.918873699665 -1.022637463217
H  -2.404125516465  3.946314407056  0.124186562877
