73
REP_00043 MMFF geometry for GFN2-xTB preoptimization
C   0.753058011411 -1.716835897608  5.227775431297
C   0.187651673057 -1.043113804244  4.213497807545
C  -0.992688775762 -0.122393719999  4.413166757938
C  -2.275381912922 -0.608008270578  3.724360912084
C  -3.489090201158  0.256218608173  4.100760612181
C  -4.589974317860 -0.192352636106  3.147959769309
C  -3.809578290023 -0.755505248499  1.985102442067
N  -4.440754162601 -1.304320552561  0.995952676633
O  -3.549710443278 -1.861308155735  0.064755212487
C  -4.227768500508 -2.279174312024 -1.056843143203
O  -5.430311475138 -2.189677186674 -1.271024495022
C  -3.222742731525 -2.871285136275 -2.019380545454
C  -3.879665455514 -3.356596552650 -3.299853221820
C  -2.306322921547 -0.632078699113  2.171874120383
C  -1.776612131569  0.652585402966  1.504554178088
C  -1.641295314855  0.539268224433 -0.017682549265
C  -0.967118080358  1.780163438406 -0.609233247799
C  -0.786284502290  1.646281074496 -2.120718846049
C  -0.070837421314  2.854653156295 -2.705366884314
O   0.619222152098 -1.143323156840  2.908091406176
C   2.016770599795 -0.895764959537  2.720460957754
C   2.257341392114 -0.865375545042  1.239305373686
C   2.656833439764  0.171444794127  0.474228373771
C   2.899121336897  1.566655522729  0.987403726919
C   2.828310209957 -0.006059131211 -1.023876215975
C   4.275808928365  0.176517412551 -1.491393765712
C   4.406460667703 -0.042830163547 -2.974901642842
C   4.367735686368  0.895713873545 -3.941703271037
C   4.136168527194  2.363989368105 -3.705086630261
C   4.546617826482  0.517591809427 -5.388791930385
H   0.384717479522 -1.617432838908  6.243485098344
H   1.578057215541 -2.403694371397  5.072396888740
H  -1.199943175766 -0.024471170143  5.487441109155
H  -0.719343362588  0.886094936362  4.081672937959
H  -2.481097826720 -1.630037691468  4.079588779975
H  -3.782557847016  0.115848627580  5.146692863562
H  -3.275295663164  1.323135138372  3.960110829979
H  -5.233509909607  0.633812791285  2.833580414679
H  -5.196247528261 -0.991432750460  3.588273429751
H  -2.723021313024 -3.711882362479 -1.526364258148
H  -2.481940714549 -2.102571535117 -2.262835377293
H  -4.360011624302 -2.527892017853 -3.830600134661
H  -3.138073797795 -3.805048864362 -3.969438194685
H  -4.649385512697 -4.105238526537 -3.088107217816
H  -1.787940642198 -1.520436069357  1.797370915700
H  -2.428802464492  1.505662957095  1.734456060352
H  -0.785920427729  0.896088330559  1.904006327633
H  -2.631389440260  0.431500746084 -0.473900783809
H  -1.055651873827 -0.353030148702 -0.271323672625
H  -1.571815116913  2.667963274271 -0.387422594602
H   0.008862249864  1.930665125038 -0.134305314204
H  -1.763145020478  1.535399665710 -2.605525223417
H  -0.208913902830  0.743470611890 -2.349073080445
H   0.919248702456  2.982853045590 -2.255426524315
H   0.062189333374  2.730072939536 -3.785109805104
H  -0.646637663402  3.770336294165 -2.537865775060
H   2.305315379622  0.041072436054  3.211258449029
H   2.612235492354 -1.714040617796  3.145166107830
H   2.075510647101 -1.825997098740  0.758206777659
H   2.445142866201  1.747394223073  1.965336824780
H   2.467665075736  2.305604230055  0.301859800643
H   3.973344044410  1.761038814923  1.069213162769
H   2.469034768450 -0.994473985552 -1.336443594416
H   2.181395249487  0.717714385737 -1.533494950533
H   4.928163262108 -0.543434635032 -0.979861031408
H   4.654940688591  1.165952843475 -1.212738096044
H   4.561973129071 -1.082761375699 -3.263170482706
H   3.287813417408  2.714165740874 -4.303244063313
H   5.023906115451  2.936268359784 -3.995464315396
H   3.909384637667  2.603373923160 -2.663644402464
H   4.695281894218 -0.560764895492 -5.521009892547
H   3.661213113106  0.805263504000 -5.967093124115
H   5.420286252931  1.028808453431 -5.808094589366
