29
DEC_00207 MMFF geometry for GFN2-xTB preoptimization
C  -2.602781590496  0.379361812319 -0.826162186894
C  -1.284666592278 -0.005596494979 -0.182731500337
C  -1.425242835090 -0.417865813439  1.301749085476
C  -0.192454089760 -1.300190776557  1.536567264710
C   0.562629756378 -1.203398101992  0.198937907666
C  -0.617692753126 -1.248385961275 -0.782595993143
C   1.145420278624  0.227594950823 -0.043641788500
C   2.111819602467  0.200560650473 -1.245652819660
C   1.925681448362  0.782354102958  1.158437571975
C  -0.154797027262  1.057735290863 -0.295545267714
O  -0.168650129053  1.665043830257 -1.580005807114
H  -2.490798445003  0.555496369781 -1.901017798430
H  -3.347478371258 -0.414579618670 -0.703245867827
H  -3.005746891595  1.290780144497 -0.372276661781
H  -2.337969504206 -0.998271743793  1.479870810178
H  -1.441374393687  0.447406974856  1.972780402971
H   0.391037402705 -0.991465936503  2.406743859056
H  -0.509563297164 -2.335191235674  1.715194946519
H   1.292667384168 -2.006070087882  0.066430231914
H  -0.334600258210 -1.130100052540 -1.832345543724
H  -1.224360831021 -2.155869885999 -0.682030021468
H   2.510617394131  1.199276165050 -1.456220564830
H   1.635367615107 -0.163630219782 -2.160816086357
H   2.964766203946 -0.456672881043 -1.040271111253
H   1.284483241550  0.966796330095  2.025869202832
H   2.392667156538  1.742125124417  0.908460453168
H   2.719498271994  0.091707902090  1.463218735150
H  -0.300498730224  1.852083464118  0.445692342596
H   0.502019983463  2.368965697531 -1.575393795183
