26
 energy: -33.843573421902 gnorm: 0.000107532937 xtb: 6.7.1 (edcfbbe)
C            3.70733787967899       -0.73562279059338        0.09401237080307
C            2.45656736947528       -1.09988959781407       -0.11644428445635
C            1.36990002388645       -0.16247186583029       -0.53561770277371
C            0.38111573746477        0.12456850557135        0.61593510565768
C           -0.46345672934125       -1.09185264931464        1.01574577907086
C           -1.49820119645967       -1.45591036394963       -0.04515381381628
C           -2.41582362831132       -0.26979022331536       -0.31983380301963
C           -1.60563728146145        0.94551451686224       -0.77481926113369
C           -0.53066764631940        1.25239011298375        0.22284958117575
N           -0.31428262171035        2.36903265392635        0.77602255633129
O           -1.14736675205156        3.43631444532109        0.41004108190276
H            4.02812523786656        0.28498130156802       -0.03699566848969
H            4.46421015450411       -1.43734020598075        0.40100899823102
H            2.16475344421034       -2.13291875706622        0.02001229581176
H            1.81019575561327        0.78729457481924       -0.84612489251035
H            0.83305437657934       -0.58700331264775       -1.38562761253156
H            0.97090478097135        0.45217700473376        1.47820599971981
H           -0.98474669060845       -0.85232421630799        1.94617794930203
H            0.18944613851713       -1.94250988561724        1.21497867963822
H           -2.08913000575713       -2.30595502607848        0.30332130502352
H           -1.00169726898994       -1.75902502758336       -0.96913221854322
H           -3.14968314177815       -0.52764260839302       -1.08642447941950
H           -2.96009571967280       -0.01486381700092        0.59275334634902
H           -2.25109650105886        1.81754263497135       -0.89013549703680
H           -1.13958277782601        0.73570114071836       -1.74150710757124
H           -0.82414293742209        4.16960345601871        0.95005447583846
