      -----------------------------------------------------------      
     |                   =====================                   |     
     |                           x T B                           |     
     |                   =====================                   |     
     |                         S. Grimme                         |     
     |          Mulliken Center for Theoretical Chemistry        |     
     |                    University of Bonn                     |     
      -----------------------------------------------------------      

   * xtb version 6.7.1 (edcfbbe) compiled by 'conda@5dfe00f5fb80' on 2026-06-10

   xtb is free software: you can redistribute it and/or modify it under
   the terms of the GNU Lesser General Public License as published by
   the Free Software Foundation, either version 3 of the License, or
   (at your option) any later version.
   
   xtb is distributed in the hope that it will be useful,
   but WITHOUT ANY WARRANTY; without even the implied warranty of
   MERCHANTABILITY or FITNESS FOR A PARTICULAR PURPOSE.  See the
   GNU Lesser General Public License for more details.
   
   Cite this work as:
   * C. Bannwarth, E. Caldeweyher, S. Ehlert, A. Hansen, P. Pracht,
     J. Seibert, S. Spicher, S. Grimme, WIREs Comput. Mol. Sci., 2020, 11,
     e01493. DOI: 10.1002/wcms.1493
   
   for GFN2-xTB:
   * C. Bannwarth, S. Ehlert and S. Grimme., J. Chem. Theory Comput., 2019,
     15, 1652-1671. DOI: 10.1021/acs.jctc.8b01176
   for GFN1-xTB:
   * S. Grimme, C. Bannwarth, P. Shushkov, J. Chem. Theory Comput., 2017,
     13, 1989-2009. DOI: 10.1021/acs.jctc.7b00118
   for GFN0-xTB:
   * P. Pracht, E. Caldeweyher, S. Ehlert, S. Grimme, ChemRxiv, 2019, preprint.
     DOI: 10.26434/chemrxiv.8326202.v1
   for GFN-FF:
   * S. Spicher and S. Grimme, Angew. Chem. Int. Ed., 2020, 59, 15665-15673.
     DOI: 10.1002/anie.202004239
   
   for ALPB and GBSA implicit solvation:
   * S. Ehlert, M. Stahn, S. Spicher, S. Grimme, J. Chem. Theory Comput.,
     2021, 17, 4250-4261. DOI: 10.1021/acs.jctc.1c00471
   
   for ddCOSMO and CPCM-X implicit solvation:
   * M. Stahn, S. Ehlert, S. Grimme, J. Phys. Chem. A,
     2023, XX, XXXX-XXXX. DOI: 10.1021/acs.jpca.3c04382
   
   for DFT-D4:
   * E. Caldeweyher, C. Bannwarth and S. Grimme, J. Chem. Phys., 2017,
     147, 034112. DOI: 10.1063/1.4993215
   * E. Caldeweyher, S. Ehlert, A. Hansen, H. Neugebauer, S. Spicher,
     C. Bannwarth and S. Grimme, J. Chem. Phys., 2019, 150, 154122.
     DOI: 10.1063/1.5090222
   * E. Caldeweyher, J.-M. Mewes, S. Ehlert and S. Grimme, Phys. Chem. Chem. Phys.
     2020, 22, 8499-8512. DOI: 10.1039/D0CP00502A
   
   for sTDA-xTB:
   * S. Grimme and C. Bannwarth, J. Chem. Phys., 2016, 145, 054103.
     DOI: 10.1063/1.4959605
   
   in the mass-spec context:
   * V. Asgeirsson, C. Bauer and S. Grimme, Chem. Sci., 2017, 8, 4879.
     DOI: 10.1039/c7sc00601b
   * J. Koopman and S. Grimme, ACS Omega 2019, 4, 12, 15120-15133.
     DOI: 10.1021/acsomega.9b02011
   
   for metadynamics refer to:
   * S. Grimme, J. Chem. Theory Comput., 2019, 155, 2847-2862
     DOI: 10.1021/acs.jctc.9b00143
   
   for SPH calculations refer to:
   * S. Spicher and S. Grimme, J. Chem. Theory Comput., 2021, 17, 1701-1714
     DOI: 10.1021/acs.jctc.0c01306
   
   for ONIOM refer to:
   * C. Plett, A. Katbashev, S. Ehlert, S. Grimme, M. Bursch,
     Phys. Chem. Chem. Phys., 2023, 25, 17860-17868. DOI: 10.1039/D3CP02178E
   
   for DIPRO refer to:
   * J. Kohn, N. Gildemeister, S. Grimme, D. Fazzi, A. Hansen,
     J. Chem. Phys., 2023, just accepted.
   
   for PTB refer to:
   * S. Grimme, M. Mueller, A. Hansen, J. Chem. Phys., 2023, 158, 124111.
     DOI: 10.1063/5.0137838
   
   with help from (in alphabetical order)
   P. Atkinson, C. Bannwarth, F. Bohle, G. Brandenburg, E. Caldeweyher
   M. Checinski, S. Dohm, S. Ehlert, S. Ehrlich, I. Gerasimov, C. Hölzer
   A. Katbashev, J. Kohn, J. Koopman, C. Lavigne, S. Lehtola, F. März, M. Müller,
   F. Musil, H. Neugebauer, J. Pisarek, C. Plett, P. Pracht, F. Pultar,
   J. Seibert, P. Shushkov, S. Spicher, M. Stahn, M. Steiner, T. Strunk,
   J. Stückrath, T. Rose, and J. Unsleber
   
 * started run on 2026/07/09 at 02:07:35.501     
   ID    Z sym.   atoms
    1    6 C      1-4, 6-9
    2    8 O      5, 10
    3    1 H      11-26

           -------------------------------------------------
          |                Calculation Setup                |
           -------------------------------------------------

          program call               : /home/ws/xd2484/miniforge3/envs/p3z_dft/bin/xtb xtb_input.xyz --gfn 2 --opt tight --cycles 500 --chrg 0 --uhf 0
          hostname                   : gpu10
          coordinate file            : xtb_input.xyz
          omp threads                :                    16


           -------------------------------------------------
          |                 G F N 2 - x T B                 |
           -------------------------------------------------

        Reference                      10.1021/acs.jctc.8b01176
      * Hamiltonian:
        H0-scaling (s, p, d)           1.850000    2.230000    2.230000
        zeta-weighting                 0.500000
      * Dispersion:
        s8                             2.700000
        a1                             0.520000
        a2                             5.000000
        s9                             5.000000
      * Repulsion:
        kExp                           1.500000    1.000000
        rExp                           1.000000
      * Coulomb:
        alpha                          2.000000
        third order                    shell-resolved
        anisotropic                    true
        a3                             3.000000
        a5                             4.000000
        cn-shift                       1.200000
        cn-exp                         4.000000
        max-rad                        5.000000


          ...................................................
          :                      SETUP                      :
          :.................................................:
          :  # basis functions                  56          :
          :  # atomic orbitals                  56          :
          :  # shells                           36          :
          :  # electrons                        60          :
          :  max. iterations                   250          :
          :  Hamiltonian                  GFN2-xTB          :
          :  restarted?                      false          :
          :  GBSA solvation                  false          :
          :  PC potential                    false          :
          :  electronic temp.          300.0000000     K    :
          :  accuracy                    1.0000000          :
          :  -> integral cutoff          0.2500000E+02      :
          :  -> integral neglect         0.1000000E-07      :
          :  -> SCF convergence          0.1000000E-05 Eh   :
          :  -> wf. convergence          0.1000000E-03 e    :
          :  Broyden damping             0.4000000          :
          :  net charge                          0          :
          :  unpaired electrons                  0          :
          ...................................................

 iter      E             dE          RMSdq      gap      omega  full diag
   1    -33.7254453 -0.337254E+02  0.359E+00    4.37       0.0  T
   2    -33.7959504 -0.705051E-01  0.187E+00    3.31       1.0  T
   3    -33.8013593 -0.540890E-02  0.121E+00    3.77       1.0  T
   4    -33.8083950 -0.703573E-02  0.222E-01    3.31       1.0  T
   5    -33.8086812 -0.286175E-03  0.816E-02    3.43       1.0  T
   6    -33.8087105 -0.293129E-04  0.356E-02    3.45       1.0  T
   7    -33.8087131 -0.260118E-05  0.126E-02    3.45       1.6  T
   8    -33.8087136 -0.470009E-06  0.256E-03    3.45       7.6  T
   9    -33.8087136 -0.116653E-07  0.141E-03    3.45      13.9  T
  10    -33.8087136 -0.270059E-08  0.217E-04    3.45      90.3  T
  11    -33.8087136 -0.319446E-09  0.100E-04    3.45     195.7  T

   *** convergence criteria satisfied after 11 iterations ***

         #    Occupation            Energy/Eh            Energy/eV
      -------------------------------------------------------------
         1        2.0000           -0.7162947             -19.4914
       ...           ...                  ...                  ...
        24        2.0000           -0.4537990             -12.3485
        25        2.0000           -0.4487882             -12.2121
        26        2.0000           -0.4432983             -12.0628
        27        2.0000           -0.4320691             -11.7572
        28        2.0000           -0.4220174             -11.4837
        29        2.0000           -0.4002182             -10.8905
        30        2.0000           -0.3958801             -10.7724 (HOMO)
        31                         -0.2691801              -7.3248 (LUMO)
        32                          0.0220200               0.5992
        33                          0.0430918               1.1726
        34                          0.0633221               1.7231
        35                          0.1027196               2.7951
       ...                                ...                  ...
        56                          0.5364389              14.5972
      -------------------------------------------------------------
                  HL-Gap            0.1266999 Eh            3.4477 eV
             Fermi-level           -0.3325301 Eh           -9.0486 eV

 SCC (total)                   0 d,  0 h,  0 min,  0.226 sec
 SCC setup                      ...        0 min,  0.003 sec (  1.476%)
 Dispersion                     ...        0 min,  0.008 sec (  3.594%)
 classical contributions        ...        0 min,  0.004 sec (  1.764%)
 integral evaluation            ...        0 min,  0.013 sec (  5.656%)
 iterations                     ...        0 min,  0.168 sec ( 74.558%)
 molecular gradient             ...        0 min,  0.029 sec ( 12.859%)
 printout                       ...        0 min,  0.000 sec (  0.080%)

         :::::::::::::::::::::::::::::::::::::::::::::::::::::
         ::                     SUMMARY                     ::
         :::::::::::::::::::::::::::::::::::::::::::::::::::::
         :: total energy             -33.419068558203 Eh    ::
         :: gradient norm              0.055980903490 Eh/a0 ::
         :: HOMO-LUMO gap              3.447680147288 eV    ::
         ::.................................................::
         :: SCC energy               -33.808620874136 Eh    ::
         :: -> isotropic ES            0.054419173339 Eh    ::
         :: -> anisotropic ES          0.004551510764 Eh    ::
         :: -> anisotropic XC          0.011904905689 Eh    ::
         :: -> dispersion             -0.018129548651 Eh    ::
         :: repulsion energy           0.389552315933 Eh    ::
         :: add. restraining           0.000000000000 Eh    ::
         :: total charge               0.000000000000 e     ::
         :::::::::::::::::::::::::::::::::::::::::::::::::::::

      ----------------------------------------------------------- 
     |                   =====================                   |
     |                        A N C O P T                        |
     |                   =====================                   |
     |               Approximate Normal Coordinate               |
     |                Rational Function Optimizer                |
      ----------------------------------------------------------- 
      ----------------------------------------------------------- 
     |                   =====================                   |
     |                        A N C O P T                        |
     |                   =====================                   |
     |               Approximate Normal Coordinate               |
     |                Rational Function Optimizer                |
      ----------------------------------------------------------- 

          ...................................................
          :                      SETUP                      :
          :.................................................:
          :   optimization level             tight          :
          :   max. optcycles                   500          :
          :   ANC micro-cycles                  20          :
          :   degrees of freedom                72          :
          :.................................................:
          :   RF solver                   davidson          :
          :   write xtbopt.log                true          :
          :   linear?                        false          :
          :   energy convergence         0.1000000E-05 Eh   :
          :   grad. convergence          0.8000000E-03 Eh/α :
          :   maxmium RF displ.          1.0000000          :
          :   Hlow (freq-cutoff)         0.1000000E-01      :
          :   Hmax (freq-cutoff)         5.0000000          :
          :   S6 in model hess.         20.0000000          :
          ...................................................

generating ANC from exact Hessian ...
Using Lindh-Hessian (1995)
 Shifting diagonal of input Hessian by    8.9715681193044492E-003
 Lowest  eigenvalues of input Hessian
    0.000000    0.000000    0.000000    0.000000    0.000000    0.000000
    0.010000    0.010734    0.011301    0.012855    0.013922    0.015139
    0.017139    0.017478    0.019129    0.020070    0.022531    0.024294
 Highest eigenvalues
    1.219947    1.241600    1.278056    1.368935    1.416985    2.027919


........................................................................
.............................. CYCLE    1 ..............................
........................................................................

 iter      E             dE          RMSdq      gap      omega  full diag
   1    -33.8087136 -0.338087E+02  0.194E-05    3.45       0.0  T
   2    -33.8087136 -0.117240E-11  0.111E-05    3.45    1771.4  T
   3    -33.8087136  0.639488E-13  0.609E-06    3.45    3220.6  T
     SCC iter.                  ...        0 min,  0.038 sec
     gradient                   ...        0 min,  0.037 sec
 * total energy  :   -33.4190686 Eh     change       -0.2410872E-10 Eh
   gradient norm :     0.0559824 Eh/α   predicted     0.0000000E+00 (-100.00%)
   displ. norm   :     0.1718145 α      lambda       -0.3551289E-02
   maximum displ.:     0.0863928 α      in ANC's #12, #10, #15, ...

........................................................................
.............................. CYCLE    2 ..............................
........................................................................

 iter      E             dE          RMSdq      gap      omega  full diag
   1    -33.8249717 -0.338250E+02  0.124E-01    3.62       0.0  T
   2    -33.8250501 -0.783806E-04  0.722E-02    3.59       1.0  T
   3    -33.8250525 -0.236073E-05  0.335E-02    3.60       1.0  T
   4    -33.8250548 -0.232331E-05  0.569E-03    3.60       3.4  T
   5    -33.8250552 -0.422217E-06  0.238E-03    3.60       8.3  T
   6    -33.8250552 -0.380429E-07  0.844E-04    3.60      23.2  T
   7    -33.8250552 -0.390731E-08  0.411E-04    3.60      47.7  T
     SCC iter.                  ...        0 min,  0.098 sec
     gradient                   ...        0 min,  0.034 sec
 * total energy  :   -33.4213563 Eh     change       -0.2287764E-02 Eh
   gradient norm :     0.0170197 Eh/α   predicted    -0.1828331E-02 ( -20.08%)
   displ. norm   :     0.1226266 α      lambda       -0.6108378E-03
   maximum displ.:     0.0612302 α      in ANC's #10, #12, #15, ...

........................................................................
.............................. CYCLE    3 ..............................
........................................................................

 iter      E             dE          RMSdq      gap      omega  full diag
   1    -33.8308919 -0.338309E+02  0.595E-02    3.64       0.0  T
   2    -33.8309091 -0.172739E-04  0.348E-02    3.63       1.0  T
   3    -33.8309098 -0.694416E-06  0.161E-02    3.64       1.2  T
   4    -33.8309104 -0.569455E-06  0.212E-03    3.64       9.2  T
   5    -33.8309104 -0.362441E-07  0.679E-04    3.64      28.9  T
   6    -33.8309104 -0.175977E-08  0.225E-04    3.64      87.2  T
     SCC iter.                  ...        0 min,  0.087 sec
     gradient                   ...        0 min,  0.042 sec
 * total energy  :   -33.4216958 Eh     change       -0.3394286E-03 Eh
   gradient norm :     0.0045853 Eh/α   predicted    -0.3100906E-03 (  -8.64%)
   displ. norm   :     0.0685824 α      lambda       -0.7726443E-04
   maximum displ.:     0.0315858 α      in ANC's #1, #4, #6, ...

........................................................................
.............................. CYCLE    4 ..............................
........................................................................

 iter      E             dE          RMSdq      gap      omega  full diag
   1    -33.8311555 -0.338312E+02  0.243E-02    3.63       0.0  T
   2    -33.8311561 -0.677322E-06  0.144E-02    3.63       1.4  T
   3    -33.8311561  0.755232E-07  0.398E-03    3.64       4.9  T
   4    -33.8311562 -0.172014E-06  0.683E-04    3.64      28.7  T
   5    -33.8311562 -0.235535E-08  0.346E-04    3.64      56.7  T
     SCC iter.                  ...        0 min,  0.071 sec
     gradient                   ...        0 min,  0.043 sec
 * total energy  :   -33.4217546 Eh     change       -0.5882029E-04 Eh
   gradient norm :     0.0024611 Eh/α   predicted    -0.3881488E-04 ( -34.01%)
   displ. norm   :     0.1529479 α      lambda       -0.1081273E-03
   maximum displ.:     0.0711708 α      in ANC's #1, #6, #4, ...

........................................................................
.............................. CYCLE    5 ..............................
........................................................................

 iter      E             dE          RMSdq      gap      omega  full diag
   1    -33.8305820 -0.338306E+02  0.490E-02    3.62       0.0  T
   2    -33.8305834 -0.143915E-05  0.290E-02    3.63       1.0  T
   3    -33.8305831  0.310872E-06  0.596E-03    3.63       3.3  T
   4    -33.8305837 -0.522746E-06  0.115E-03    3.63      17.1  T
   5    -33.8305837 -0.903469E-08  0.603E-04    3.63      32.5  T
   6    -33.8305837 -0.264935E-08  0.254E-04    3.63      77.3  T
     SCC iter.                  ...        0 min,  0.147 sec
     gradient                   ...        0 min,  0.042 sec
 * total energy  :   -33.4218302 Eh     change       -0.7561121E-04 Eh
   gradient norm :     0.0036119 Eh/α   predicted    -0.5533055E-04 ( -26.82%)
   displ. norm   :     0.1853527 α      lambda       -0.8957364E-04
   maximum displ.:     0.0936333 α      in ANC's #1, #4, #6, ...

........................................................................
.............................. CYCLE    6 ..............................
........................................................................

 iter      E             dE          RMSdq      gap      omega  full diag
   1    -33.8297645 -0.338298E+02  0.510E-02    3.63       0.0  T
   2    -33.8297651 -0.580634E-06  0.303E-02    3.64       1.0  T
   3    -33.8297650  0.107245E-06  0.358E-03    3.64       5.5  T
   4    -33.8297652 -0.221528E-06  0.976E-04    3.64      20.1  T
   5    -33.8297652 -0.413347E-08  0.513E-04    3.64      38.2  T
     SCC iter.                  ...        0 min,  0.059 sec
     gradient                   ...        0 min,  0.036 sec
 * total energy  :   -33.4219012 Eh     change       -0.7100697E-04 Eh
   gradient norm :     0.0056506 Eh/α   predicted    -0.4633089E-04 ( -34.75%)
   displ. norm   :     0.2842657 α      lambda       -0.1367088E-03
   maximum displ.:     0.1488973 α      in ANC's #1, #4, #6, ...

........................................................................
.............................. CYCLE    7 ..............................
........................................................................

 iter      E             dE          RMSdq      gap      omega  full diag
   1    -33.8284711 -0.338285E+02  0.722E-02    3.64       0.0  T
   2    -33.8284716 -0.466165E-06  0.429E-02    3.64       1.0  T
   3    -33.8284716 -0.217020E-07  0.279E-03    3.64       7.0  T
   4    -33.8284717 -0.112091E-06  0.120E-03    3.65      16.4  T
   5    -33.8284717 -0.691410E-08  0.586E-04    3.64      33.5  T
   6    -33.8284717 -0.823754E-09  0.181E-04    3.65     108.5  T
     SCC iter.                  ...        0 min,  0.080 sec
     gradient                   ...        0 min,  0.041 sec
 * total energy  :   -33.4220043 Eh     change       -0.1031485E-03 Eh
   gradient norm :     0.0066323 Eh/α   predicted    -0.7387821E-04 ( -28.38%)
   displ. norm   :     0.2584254 α      lambda       -0.1461563E-03
   maximum displ.:     0.1504408 α      in ANC's #1, #4, #6, ...

........................................................................
.............................. CYCLE    8 ..............................
........................................................................

 iter      E             dE          RMSdq      gap      omega  full diag
   1    -33.8284205 -0.338284E+02  0.604E-02    3.66       0.0  T
   2    -33.8284208 -0.335592E-06  0.360E-02    3.66       1.0  T
   3    -33.8284208 -0.149128E-07  0.234E-03    3.66       8.4  T
   4    -33.8284209 -0.840229E-07  0.893E-04    3.66      22.0  T
   5    -33.8284209 -0.913943E-09  0.328E-04    3.66      59.7  T
     SCC iter.                  ...        0 min,  0.061 sec
     gradient                   ...        0 min,  0.036 sec
 * total energy  :   -33.4221134 Eh     change       -0.1090459E-03 Eh
   gradient norm :     0.0051468 Eh/α   predicted    -0.7796340E-04 ( -28.50%)
   displ. norm   :     0.1963912 α      lambda       -0.1342301E-03
   maximum displ.:     0.1321750 α      in ANC's #1, #4, #6, ...

........................................................................
.............................. CYCLE    9 ..............................
........................................................................

 iter      E             dE          RMSdq      gap      omega  full diag
   1    -33.8303187 -0.338303E+02  0.455E-02    3.67       0.0  T
   2    -33.8303195 -0.811867E-06  0.270E-02    3.67       1.0  T
   3    -33.8303194  0.119470E-06  0.406E-03    3.67       4.8  T
   4    -33.8303197 -0.244072E-06  0.102E-03    3.66      19.3  T
   5    -33.8303197 -0.493439E-08  0.511E-04    3.66      38.3  T
   6    -33.8303197 -0.104662E-08  0.188E-04    3.66     104.2  T
     SCC iter.                  ...        0 min,  0.079 sec
     gradient                   ...        0 min,  0.045 sec
 * total energy  :   -33.4222026 Eh     change       -0.8926087E-04 Eh
   gradient norm :     0.0024139 Eh/α   predicted    -0.6970641E-04 ( -21.91%)
   displ. norm   :     0.2444442 α      lambda       -0.6884584E-04
   maximum displ.:     0.1570253 α      in ANC's #1, #4, #6, ...

........................................................................
.............................. CYCLE   10 ..............................
........................................................................

 iter      E             dE          RMSdq      gap      omega  full diag
   1    -33.8294981 -0.338295E+02  0.581E-02    3.66       0.0  T
   2    -33.8294985 -0.384399E-06  0.344E-02    3.66       1.0  T
   3    -33.8294985 -0.416547E-07  0.207E-03    3.66       9.5  T
   4    -33.8294986 -0.491923E-07  0.922E-04    3.66      21.3  T
   5    -33.8294986 -0.170208E-08  0.488E-04    3.66      40.2  T
     SCC iter.                  ...        0 min,  0.082 sec
     gradient                   ...        0 min,  0.043 sec
 * total energy  :   -33.4222414 Eh     change       -0.3879474E-04 Eh
   gradient norm :     0.0039588 Eh/α   predicted    -0.3648609E-04 (  -5.95%)
   displ. norm   :     0.0797154 α      lambda       -0.4900652E-04
   maximum displ.:     0.0675085 α      in ANC's #1, #6, #11, ...

........................................................................
.............................. CYCLE   11 ..............................
........................................................................

 iter      E             dE          RMSdq      gap      omega  full diag
   1    -33.8313127 -0.338313E+02  0.186E-02    3.66       0.0  T
   2    -33.8313130 -0.266929E-06  0.107E-02    3.66       1.8  T
   3    -33.8313130  0.878956E-09  0.211E-03    3.66       9.3  T
   4    -33.8313130 -0.309224E-07  0.722E-04    3.66      27.2  T
   5    -33.8313130 -0.439997E-08  0.303E-04    3.66      64.7  T
     SCC iter.                  ...        0 min,  0.074 sec
     gradient                   ...        0 min,  0.030 sec
 * total energy  :   -33.4222711 Eh     change       -0.2969529E-04 Eh
   gradient norm :     0.0020040 Eh/α   predicted    -0.2465972E-04 ( -16.96%)
   displ. norm   :     0.0949760 α      lambda       -0.2178704E-04
   maximum displ.:     0.0726811 α      in ANC's #1, #6, #4, ...

........................................................................
.............................. CYCLE   12 ..............................
........................................................................

 iter      E             dE          RMSdq      gap      omega  full diag
   1    -33.8313333 -0.338313E+02  0.231E-02    3.66       0.0  T
   2    -33.8313334 -0.106167E-06  0.136E-02    3.66       1.4  T
   3    -33.8313334  0.350300E-08  0.126E-03    3.66      15.6  T
   4    -33.8313334 -0.229419E-07  0.395E-04    3.66      49.6  T
   5    -33.8313334 -0.485990E-09  0.187E-04    3.66     104.6  T
     SCC iter.                  ...        0 min,  0.064 sec
     gradient                   ...        0 min,  0.041 sec
 * total energy  :   -33.4222892 Eh     change       -0.1802530E-04 Eh
   gradient norm :     0.0015388 Eh/α   predicted    -0.1099799E-04 ( -38.99%)
   displ. norm   :     0.1739391 α      lambda       -0.2776252E-04
   maximum displ.:     0.1339488 α      in ANC's #1, #6, #3, ...

........................................................................
.............................. CYCLE   13 ..............................
........................................................................

 iter      E             dE          RMSdq      gap      omega  full diag
   1    -33.8308974 -0.338309E+02  0.444E-02    3.66       0.0  T
   2    -33.8308980 -0.556740E-06  0.263E-02    3.66       1.0  T
   3    -33.8308979  0.549686E-07  0.309E-03    3.66       6.4  T
   4    -33.8308981 -0.146904E-06  0.815E-04    3.66      24.0  T
   5    -33.8308981 -0.228201E-08  0.359E-04    3.66      54.6  T
     SCC iter.                  ...        0 min,  0.071 sec
     gradient                   ...        0 min,  0.033 sec
 * total energy  :   -33.4223163 Eh     change       -0.2709387E-04 Eh
   gradient norm :     0.0023075 Eh/α   predicted    -0.1406865E-04 ( -48.07%)
   displ. norm   :     0.0808090 α      lambda       -0.1517920E-04
   maximum displ.:     0.0617101 α      in ANC's #1, #6, #2, ...

........................................................................
.............................. CYCLE   14 ..............................
........................................................................

 iter      E             dE          RMSdq      gap      omega  full diag
   1    -33.8310289 -0.338310E+02  0.200E-02    3.67       0.0  T
   2    -33.8310290 -0.333884E-07  0.118E-02    3.67       1.7  T
   3    -33.8310290 -0.766661E-08  0.654E-04    3.67      30.0  T
   4    -33.8310290 -0.403733E-08  0.335E-04    3.67      58.6  T
     SCC iter.                  ...        0 min,  0.047 sec
     gradient                   ...        0 min,  0.037 sec
 * total energy  :   -33.4223291 Eh     change       -0.1283138E-04 Eh
   gradient norm :     0.0023993 Eh/α   predicted    -0.7639799E-05 ( -40.46%)
   displ. norm   :     0.1915056 α      lambda       -0.3497271E-04
   maximum displ.:     0.1460011 α      in ANC's #1, #2, #6, ...

........................................................................
.............................. CYCLE   15 ..............................
........................................................................

 iter      E             dE          RMSdq      gap      omega  full diag
   1    -33.8310381 -0.338310E+02  0.473E-02    3.67       0.0  T
   2    -33.8310383 -0.171067E-06  0.281E-02    3.67       1.0  T
   3    -33.8310384 -0.536030E-07  0.144E-03    3.67      13.6  T
   4    -33.8310384 -0.134123E-07  0.798E-04    3.67      24.6  T
   5    -33.8310384 -0.128377E-08  0.303E-04    3.67      64.7  T
     SCC iter.                  ...        0 min,  0.065 sec
     gradient                   ...        0 min,  0.037 sec
 * total energy  :   -33.4223521 Eh     change       -0.2305816E-04 Eh
   gradient norm :     0.0013329 Eh/α   predicted    -0.1813139E-04 ( -21.37%)
   displ. norm   :     0.1513128 α      lambda       -0.1233524E-04
   maximum displ.:     0.1009518 α      in ANC's #1, #2, #6, ...

........................................................................
.............................. CYCLE   16 ..............................
........................................................................

 iter      E             dE          RMSdq      gap      omega  full diag
   1    -33.8311425 -0.338311E+02  0.395E-02    3.68       0.0  T
   2    -33.8311426 -0.104142E-06  0.234E-02    3.68       1.0  T
   3    -33.8311426 -0.398174E-07  0.121E-03    3.68      16.3  T
   4    -33.8311426 -0.822580E-08  0.689E-04    3.68      28.5  T
   5    -33.8311426 -0.170661E-08  0.255E-04    3.68      76.8  T
     SCC iter.                  ...        0 min,  0.053 sec
     gradient                   ...        0 min,  0.036 sec
 * total energy  :   -33.4223634 Eh     change       -0.1124471E-04 Eh
   gradient norm :     0.0010062 Eh/α   predicted    -0.6230844E-05 ( -44.59%)
   displ. norm   :     0.0808730 α      lambda       -0.1052790E-04
   maximum displ.:     0.0561034 α      in ANC's #2, #7, #5, ...

........................................................................
.............................. CYCLE   17 ..............................
........................................................................

 iter      E             dE          RMSdq      gap      omega  full diag
   1    -33.8319386 -0.338319E+02  0.198E-02    3.68       0.0  T
   2    -33.8319388 -0.150568E-06  0.116E-02    3.68       1.7  T
   3    -33.8319388 -0.979695E-08  0.133E-03    3.68      14.7  T
   4    -33.8319388 -0.113287E-07  0.500E-04    3.68      39.2  T
   5    -33.8319388 -0.108551E-08  0.276E-04    3.68      71.0  T
     SCC iter.                  ...        0 min,  0.070 sec
     gradient                   ...        0 min,  0.042 sec
 * total energy  :   -33.4223707 Eh     change       -0.7286196E-05 Eh
   gradient norm :     0.0018033 Eh/α   predicted    -0.5279915E-05 ( -27.54%)
   displ. norm   :     0.1278660 α      lambda       -0.1659132E-04
   maximum displ.:     0.0861335 α      in ANC's #2, #7, #4, ...

........................................................................
.............................. CYCLE   18 ..............................
........................................................................

 iter      E             dE          RMSdq      gap      omega  full diag
   1    -33.8311917 -0.338312E+02  0.413E-02    3.68       0.0  T
   2    -33.8311920 -0.253491E-06  0.244E-02    3.68       1.0  T
   3    -33.8311920 -0.183833E-07  0.195E-03    3.68      10.0  T
   4    -33.8311920 -0.523414E-07  0.890E-04    3.68      22.0  T
   5    -33.8311920 -0.386029E-08  0.468E-04    3.68      41.9  T
     SCC iter.                  ...        0 min,  0.052 sec
     gradient                   ...        0 min,  0.029 sec
 * total energy  :   -33.4223843 Eh     change       -0.1357695E-04 Eh
   gradient norm :     0.0015623 Eh/α   predicted    -0.8358188E-05 ( -38.44%)
   displ. norm   :     0.0582497 α      lambda       -0.8079058E-05
   maximum displ.:     0.0392862 α      in ANC's #1, #7, #6, ...

........................................................................
.............................. CYCLE   19 ..............................
........................................................................

 iter      E             dE          RMSdq      gap      omega  full diag
   1    -33.8310559 -0.338311E+02  0.130E-02    3.67       0.0  T
   2    -33.8310560 -0.635571E-07  0.773E-03    3.67       2.5  T
   3    -33.8310560 -0.498088E-08  0.841E-04    3.67      23.3  T
   4    -33.8310560 -0.532983E-08  0.322E-04    3.67      60.9  T
     SCC iter.                  ...        0 min,  0.041 sec
     gradient                   ...        0 min,  0.035 sec
 * total energy  :   -33.4223917 Eh     change       -0.7487674E-05 Eh
   gradient norm :     0.0009946 Eh/α   predicted    -0.4051133E-05 ( -45.90%)
   displ. norm   :     0.0432424 α      lambda       -0.4422249E-05
   maximum displ.:     0.0258403 α      in ANC's #4, #7, #10, ...

........................................................................
.............................. CYCLE   20 ..............................
........................................................................

 iter      E             dE          RMSdq      gap      omega  full diag
   1    -33.8310612 -0.338311E+02  0.115E-02    3.68       0.0  T
   2    -33.8310613 -0.121926E-06  0.690E-03    3.68       2.8  T
   3    -33.8310613  0.364578E-08  0.140E-03    3.68      14.0  T
   4    -33.8310614 -0.196579E-07  0.416E-04    3.68      47.2  T
   5    -33.8310614 -0.117304E-08  0.200E-04    3.68      98.1  T
     SCC iter.                  ...        0 min,  0.061 sec
     gradient                   ...        0 min,  0.038 sec
 * total energy  :   -33.4223943 Eh     change       -0.2552411E-05 Eh
   gradient norm :     0.0009909 Eh/α   predicted    -0.2215486E-05 ( -13.20%)
   displ. norm   :     0.0253836 α      lambda       -0.1613820E-05
   maximum displ.:     0.0162447 α      in ANC's #1, #4, #2, ...
 * RMSD in coord.:     0.4049231 α      energy gain  -0.3325733E-02 Eh

generating ANC from exact Hessian ...
Using Lindh-Hessian (1995)
 Shifting diagonal of input Hessian by    8.9668951202492575E-003
 Lowest  eigenvalues of input Hessian
    0.000000    0.000000    0.000000    0.000000    0.000000    0.000000
    0.010000    0.010720    0.011436    0.012788    0.013929    0.015666
    0.017314    0.017510    0.019635    0.020397    0.023754    0.025230
 Highest eigenvalues
    1.217447    1.272914    1.286292    1.398001    1.499089    2.143406


........................................................................
.............................. CYCLE   21 ..............................
........................................................................

 iter      E             dE          RMSdq      gap      omega  full diag
   1    -33.8309596 -0.338310E+02  0.997E-03    3.67       0.0  T
   2    -33.8309597 -0.422471E-07  0.587E-03    3.67       3.3  T
   3    -33.8309597  0.298995E-08  0.803E-04    3.67      24.4  T
   4    -33.8309597 -0.784799E-08  0.230E-04    3.68      85.2  T
     SCC iter.                  ...        0 min,  0.047 sec
     gradient                   ...        0 min,  0.042 sec
 * total energy  :   -33.4223958 Eh     change       -0.1536276E-05 Eh
   gradient norm :     0.0006025 Eh/α   predicted     0.0000000E+00 (-100.00%)
   displ. norm   :     0.0080056 α      lambda       -0.7786397E-06
   maximum displ.:     0.0047375 α      in ANC's #1, #4, #7, ...

........................................................................
.............................. CYCLE   22 ..............................
........................................................................

 iter      E             dE          RMSdq      gap      omega  full diag
   1    -33.8312424 -0.338312E+02  0.294E-03    3.68       0.0  T
   2    -33.8312424 -0.104596E-07  0.177E-03    3.68      11.1  T
   3    -33.8312424  0.237454E-08  0.525E-04    3.68      37.3  T
   4    -33.8312425 -0.389382E-08  0.101E-04    3.68     194.1  T
     SCC iter.                  ...        0 min,  0.063 sec
     gradient                   ...        0 min,  0.045 sec
 * total energy  :   -33.4223966 Eh     change       -0.7883622E-06 Eh
   gradient norm :     0.0002165 Eh/α   predicted    -0.4362048E-06 ( -44.67%)
   displ. norm   :     0.0120005 α      lambda       -0.5215991E-06
   maximum displ.:     0.0072462 α      in ANC's #1, #7, #4, ...

   *** GEOMETRY OPTIMIZATION CONVERGED AFTER 22 ITERATIONS ***

------------------------------------------------------------------------
 total energy gain   :        -0.0033281 Eh       -2.0884 kcal/mol
 total RMSD          :         0.4057270 a0        0.2147 Å
 total power (kW/mol):        -0.3971734 (step)   -2.7900 (real)
------------------------------------------------------------------------

 ANCopt (total)                0 d,  0 h,  0 min,  3.132 sec
 optimizer setup                ...        0 min,  0.001 sec (  0.019%)
 model hessian                  ...        0 min,  0.032 sec (  1.013%)
 ANC generation                 ...        0 min,  0.002 sec (  0.071%)
 coordinate transformation      ...        0 min,  0.000 sec (  0.007%)
 single point calculation       ...        0 min,  3.006 sec ( 95.991%)
 optimization log               ...        0 min,  0.003 sec (  0.090%)
 hessian update                 ...        0 min,  0.082 sec (  2.617%)
 rational function              ...        0 min,  0.003 sec (  0.081%)

================
 final structure:
================
26
 xtb: 6.7.1 (edcfbbe)
C            3.52041629399641       -0.57154151899322       -0.73040506301190
C            2.12048461030427       -1.16768712275469       -0.79439693171358
C            1.05347150488599       -0.16161613586362       -0.36970086775778
C           -0.34184318463281       -0.80681952084565       -0.33390000217775
O           -0.40437446240270       -1.85982242267362        0.58597224931788
C           -1.42715815315784        0.26527844511880       -0.05786256294609
C           -2.81932193452647       -0.37678395948954       -0.05900831642858
C           -1.20705101668245        0.91313262504759        1.29614548528310
C           -1.40332090357647        2.40388719519684        1.32973163077788
O           -0.90597798962236        0.27702603326723        2.27941106045854
H            4.26080428930005       -1.30359798117018       -1.04358767594117
H            3.59768124493232        0.29573173472366       -1.38343792591486
H            3.75651861183052       -0.25775129988495        0.28413666007948
H            1.91092564660522       -1.50247429083342       -1.81279557060801
H            2.05798298324527       -2.03865638533781       -0.14011156665974
H            1.04295426729706        0.68225969523095       -1.06361761909809
H            1.29409040298207        0.21899935373944        0.62652704810385
H           -0.54781725515493       -1.26264920981280       -1.31107489951912
H           -0.37691879765144       -1.46692373198747        1.47409317414271
H           -1.37778531612314        1.02562819903503       -0.84194388759057
H           -2.85516241534038       -1.17809111407737        0.67481668587734
H           -3.02968699345038       -0.79692874922156       -1.03939622902714
H           -3.58573925536770        0.35719404376237        0.18075693462271
H           -1.37599425680288        2.76853370095841        2.35323845809572
H           -0.60632397754771        2.87702532637916        0.75820485571966
H           -2.35085394333845        2.66664709048872        0.86514458738360

 Bond Distances (Angstroems)
 ---------------------------
C1-C2=1.5229         C1-H11=1.0873        C1-H12=1.0884        C1-H13=1.0879        C2-C1=1.5229         C2-C3=1.5268         
C2-H14=1.0923        C2-H15=1.0911        C3-C2=1.5268         C3-C4=1.5377         C3-H16=1.0926        C3-H17=1.0933        
C4-C3=1.5377         C4-O5=1.3996         C4-C6=1.5503         C4-H18=1.0978        O5-C4=1.3996         O5-H19=0.9715        
C6-C4=1.5503         C6-C7=1.5331         C6-C8=1.5171         C6-H20=1.0933        C7-C6=1.5331         C7-H21=1.0871        
C7-H22=1.0872        C7-H23=1.0879        C8-C6=1.5171         C8-C9=1.5040         C8-O10=1.2092        C9-C8=1.5040         
C9-H24=1.0869        C9-H25=1.0889        C9-H26=1.0875        O10-C8=1.2092        H11-C1=1.0873        H12-C1=1.0884        
H13-C1=1.0879        H14-C2=1.0923        H15-C2=1.0911        H16-C3=1.0926        H17-C3=1.0933        H18-C4=1.0978        
H19-O5=0.9715        H20-C6=1.0933        H21-C7=1.0871        H22-C7=1.0872        H23-C7=1.0879        H24-C9=1.0869        
H25-C9=1.0889        H26-C9=1.0875        
 C  H  Rav=1.0900 sigma=0.0031  Rmin=1.0869  Rmax=1.0978    15
 C  C  Rav=1.5274 sigma=0.0138  Rmin=1.5040  Rmax=1.5503     7
 O  H  Rav=0.9715 sigma=0.0000  Rmin=0.9715  Rmax=0.9715     1
 O  C  Rav=1.3044 sigma=0.0952  Rmin=1.2092  Rmax=1.3996     2

 selected bond angles (degree)
 --------------------
H11-C1-C2=110.51               H12-C1-C2=110.61               H12-C1-H11=108.38              H13-C1-C2=110.58               
H13-C1-H11=108.36              H13-C1-H12=108.32              C3-C2-C1=111.89                H14-C2-C1=109.60               
H14-C2-C3=109.10               H15-C2-C1=109.87               H15-C2-C3=108.61               H15-C2-H14=107.66              
C4-C3-C2=111.35                H16-C3-C2=109.82               H16-C3-C4=109.28               H17-C3-C2=109.21               
H17-C3-C4=108.94               H17-C3-H16=108.18              O5-C4-C3=111.81                C6-C4-C3=110.44                
C6-C4-O5=111.84                H18-C4-C3=108.89               H18-C4-O5=105.32               H18-C4-C6=108.32               
H19-O5-C4=107.17               C7-C6-C4=110.24                C8-C6-C4=110.65                C8-C6-C7=108.14                
H20-C6-C4=108.76               H20-C6-C7=109.37               H20-C6-C8=109.67               H21-C7-C6=109.76               
H22-C7-C6=109.77               H22-C7-H21=108.51              H23-C7-C6=110.92               H23-C7-H21=108.98              
H23-C7-H22=108.85              C9-C8-C6=115.11                O10-C8-C6=122.50               O10-C8-C9=122.40               
H24-C9-C8=110.51               H25-C9-C8=108.87               H25-C9-H24=109.27              H26-C9-C8=110.10               
H26-C9-H24=110.07              H26-C9-H25=107.97              

 selected dihedral angles (degree)
 ---------------------------------
C3-C2-C1-H11=180.40           C3-C2-C1-H12=300.42           C3-C2-C1-H13= 60.41           H14-C2-C1-H11=301.56          
H14-C2-C1-H12= 61.58          H14-C2-C1-H13=181.58          H15-C2-C1-H11= 59.67          H15-C2-C1-H12=179.69          
H15-C2-C1-H13=299.69          C4-C3-C2-C1=184.41            C4-C3-C2-H14= 62.96           C4-C3-C2-H15=305.86           
H16-C3-C2-C1= 63.23           H16-C3-C2-H14=301.78          H16-C3-C2-H15=184.69          H17-C3-C2-C1=304.76           
H17-C3-C2-H14=183.31          H17-C3-C2-H15= 66.21          O5-C4-C3-C2= 61.17            O5-C4-C3-H16=182.66           
O5-C4-C3-H17=300.65           C6-C4-C3-C2=186.39            C6-C4-C3-H16=307.88           C6-C4-C3-H17= 65.87           
H18-C4-C3-C2=305.20           H18-C4-C3-H16= 66.70          H18-C4-C3-H17=184.69          H19-O5-C4-C3= 71.34           
H19-O5-C4-C6=306.90           H19-O5-C4-H18=189.46          C7-C6-C4-C3=178.55            C7-C6-C4-O5=303.75            
C7-C6-C4-H18= 59.38           C8-C6-C4-C3=298.12            C8-C6-C4-O5= 63.32            C8-C6-C4-H18=178.95           
H20-C6-C4-C3= 58.64           H20-C6-C4-O5=183.84           H20-C6-C4-H18=299.47          H21-C7-C6-C4= 56.81           
H21-C7-C6-C8=295.72           H21-C7-C6-H20=176.34          H22-C7-C6-C4=297.62           H22-C7-C6-C8=176.54           
H22-C7-C6-H20= 57.16          H23-C7-C6-C4=177.29           H23-C7-C6-C8= 56.21           H23-C7-C6-H20=296.83          
C9-C8-C6-C4=138.15            C9-C8-C6-C7=258.98            C9-C8-C6-H20= 18.17           O10-C8-C6-C4=317.60           
O10-C8-C6-C7= 78.42           O10-C8-C6-H20=197.62          H24-C9-C8-C6=171.47           H24-C9-C8-O10=352.02          
H25-C9-C8-C6=291.49           H25-C9-C8-O10=112.04          H26-C9-C8-C6= 49.67           H26-C9-C8-O10=230.22          
           -------------------------------------------------
          |                Final Singlepoint                |
           -------------------------------------------------

          ...................................................
          :                      SETUP                      :
          :.................................................:
          :  # basis functions                  56          :
          :  # atomic orbitals                  56          :
          :  # shells                           36          :
          :  # electrons                        60          :
          :  max. iterations                   250          :
          :  Hamiltonian                  GFN2-xTB          :
          :  restarted?                      false          :
          :  GBSA solvation                  false          :
          :  PC potential                    false          :
          :  electronic temp.          300.0000000     K    :
          :  accuracy                    1.0000000          :
          :  -> integral cutoff          0.2500000E+02      :
          :  -> integral neglect         0.1000000E-07      :
          :  -> SCF convergence          0.1000000E-05 Eh   :
          :  -> wf. convergence          0.1000000E-03 e    :
          :  Broyden damping             0.4000000          :
          :  net charge                          0          :
          :  unpaired electrons                  0          :
          ...................................................

 iter      E             dE          RMSdq      gap      omega  full diag
   1    -33.8312425 -0.338312E+02  0.576E-05    3.68       0.0  T
   2    -33.8312425 -0.556355E-11  0.344E-05    3.68     569.7  T
   3    -33.8312425  0.397904E-12  0.191E-05    3.68    1025.4  T

   *** convergence criteria satisfied after 3 iterations ***

         #    Occupation            Energy/Eh            Energy/eV
      -------------------------------------------------------------
         1        2.0000           -0.7217140             -19.6388
       ...           ...                  ...                  ...
        24        2.0000           -0.4573710             -12.4457
        25        2.0000           -0.4501053             -12.2480
        26        2.0000           -0.4456888             -12.1278
        27        2.0000           -0.4332813             -11.7902
        28        2.0000           -0.4239845             -11.5372
        29        2.0000           -0.4002898             -10.8924
        30        2.0000           -0.3962465             -10.7824 (HOMO)
        31                         -0.2610767              -7.1043 (LUMO)
        32                          0.0343293               0.9341
        33                          0.0526055               1.4315
        34                          0.0815036               2.2178
        35                          0.1011919               2.7536
       ...                                ...                  ...
        56                          0.6115742              16.6418
      -------------------------------------------------------------
                  HL-Gap            0.1351699 Eh            3.6782 eV
             Fermi-level           -0.3286616 Eh           -8.9433 eV

 SCC (total)                   0 d,  0 h,  0 min,  0.116 sec
 SCC setup                      ...        0 min,  0.004 sec (  3.881%)
 Dispersion                     ...        0 min,  0.009 sec (  7.391%)
 classical contributions        ...        0 min,  0.004 sec (  3.812%)
 integral evaluation            ...        0 min,  0.012 sec ( 10.779%)
 iterations                     ...        0 min,  0.044 sec ( 38.085%)
 molecular gradient             ...        0 min,  0.042 sec ( 35.924%)
 printout                       ...        0 min,  0.000 sec (  0.103%)

         :::::::::::::::::::::::::::::::::::::::::::::::::::::
         ::                     SUMMARY                     ::
         :::::::::::::::::::::::::::::::::::::::::::::::::::::
         :: total energy             -33.422396616397 Eh    ::
         :: gradient norm              0.000217370523 Eh/a0 ::
         :: HOMO-LUMO gap              3.678159124353 eV    ::
         ::.................................................::
         :: SCC energy               -33.831130932386 Eh    ::
         :: -> isotropic ES            0.052571744975 Eh    ::
         :: -> anisotropic ES          0.004340073252 Eh    ::
         :: -> anisotropic XC          0.011230277477 Eh    ::
         :: -> dispersion             -0.018332456337 Eh    ::
         :: repulsion energy           0.408734315988 Eh    ::
         :: add. restraining           0.000000000000 Eh    ::
         :: total charge              -0.000000000000 e     ::
         :::::::::::::::::::::::::::::::::::::::::::::::::::::

           -------------------------------------------------
          |                Property Printout                |
           -------------------------------------------------

    * Orbital Energies and Occupations

         #    Occupation            Energy/Eh            Energy/eV
      -------------------------------------------------------------
         1        2.0000           -0.7217140             -19.6388
       ...           ...                  ...                  ...
        18        2.0000           -0.4922251             -13.3941
        19        2.0000           -0.4876506             -13.2696
        20        2.0000           -0.4857883             -13.2190
        21        2.0000           -0.4773962             -12.9906
        22        2.0000           -0.4731393             -12.8748
        23        2.0000           -0.4650412             -12.6544
        24        2.0000           -0.4573710             -12.4457
        25        2.0000           -0.4501053             -12.2480
        26        2.0000           -0.4456888             -12.1278
        27        2.0000           -0.4332813             -11.7902
        28        2.0000           -0.4239845             -11.5372
        29        2.0000           -0.4002898             -10.8924
        30        2.0000           -0.3962465             -10.7824 (HOMO)
        31                         -0.2610767              -7.1043 (LUMO)
        32                          0.0343293               0.9341
        33                          0.0526055               1.4315
        34                          0.0815036               2.2178
        35                          0.1011919               2.7536
        36                          0.1115097               3.0343
        37                          0.1299154               3.5352
        38                          0.1360553               3.7023
        39                          0.1429682               3.8904
        40                          0.1533965               4.1741
        41                          0.1632968               4.4435
       ...                                ...                  ...
        56                          0.6115742              16.6418
      -------------------------------------------------------------
                  HL-Gap            0.1351699 Eh            3.6782 eV
             Fermi-level           -0.3286616 Eh           -8.9433 eV

     #   Z          covCN         q      C6AA      α(0)
     1   6 C        3.752    -0.103    22.529     6.769
     2   6 C        3.801    -0.054    21.535     6.607
     3   6 C        3.802    -0.072    21.868     6.658
     4   6 C        3.728     0.115    18.790     6.188
     5   8 O        1.655    -0.449    21.825     6.307
     6   6 C        3.851    -0.056    21.535     6.600
     7   6 C        3.758    -0.099    22.448     6.755
     8   6 C        2.817     0.243    22.937     7.847
     9   6 C        3.754    -0.139    23.245     6.875
    10   8 O        0.857    -0.367    21.038     6.150
    11   1 H        0.925     0.036     2.508     2.477
    12   1 H        0.925     0.031     2.565     2.505
    13   1 H        0.925     0.035     2.521     2.483
    14   1 H        0.924     0.031     2.577     2.511
    15   1 H        0.924     0.049     2.333     2.389
    16   1 H        0.924     0.023     2.685     2.562
    17   1 H        0.924     0.034     2.535     2.490
    18   1 H        0.924     0.038     2.476     2.461
    19   1 H        0.804     0.315     0.679     1.294
    20   1 H        0.924     0.037     2.495     2.470
    21   1 H        0.925     0.064     2.155     2.296
    22   1 H        0.925     0.049     2.328     2.386
    23   1 H        0.925     0.036     2.509     2.477
    24   1 H        0.925     0.069     2.095     2.264
    25   1 H        0.925     0.070     2.086     2.259
    26   1 H        0.925     0.066     2.136     2.285

 Mol. C6AA /au·bohr⁶  :       4973.721688
 Mol. C8AA /au·bohr⁸  :     105995.078222
 Mol. α(0) /au        :        104.362493


Wiberg/Mayer (AO) data.
largest (>0.10) Wiberg bond orders for each atom

 ---------------------------------------------------------------------------
     #   Z sym  total        # sym  WBO       # sym  WBO       # sym  WBO
 ---------------------------------------------------------------------------
     1   6 C    3.997 --     2 C    1.019    12 H    0.988    13 H    0.988
                            11 H    0.987
     2   6 C    3.996 --     1 C    1.019     3 C    1.008    14 H    0.978
                            15 H    0.976
     3   6 C    3.997 --     2 C    1.008     4 C    0.981    16 H    0.977
                            17 H    0.975
     4   6 C    3.963 --     5 O    1.014     3 C    0.981    18 H    0.960
                             6 C    0.954
     5   8 O    1.972 --     4 C    1.014    19 H    0.863
     6   6 C    3.994 --     7 C    0.980     8 C    0.979    20 H    0.967
                             4 C    0.954
     7   6 C    3.991 --    23 H    0.986    21 H    0.983    22 H    0.982
                             6 C    0.980
     8   6 C    3.911 --    10 O    1.843     9 C    1.011     6 C    0.979
     9   6 C    3.994 --     8 C    1.011    24 H    0.982    26 H    0.964
                            25 H    0.955
    10   8 O    2.081 --     8 C    1.843
    11   1 H    0.998 --     1 C    0.987
    12   1 H    0.999 --     1 C    0.988
    13   1 H    0.999 --     1 C    0.988
    14   1 H    0.999 --     2 C    0.978
    15   1 H    0.998 --     2 C    0.976
    16   1 H    0.999 --     3 C    0.977
    17   1 H    0.999 --     3 C    0.975
    18   1 H    0.998 --     4 C    0.960
    19   1 H    0.901 --     5 O    0.863
    20   1 H    0.999 --     6 C    0.967
    21   1 H    0.996 --     7 C    0.983
    22   1 H    0.998 --     7 C    0.982
    23   1 H    0.998 --     7 C    0.986
    24   1 H    0.995 --     9 C    0.982
    25   1 H    0.995 --     9 C    0.955
    26   1 H    0.996 --     9 C    0.964
 ---------------------------------------------------------------------------

Topologies differ in total number of bonds
Writing topology from bond orders to xtbtopo.mol

molecular dipole:
                 x           y           z       tot (Debye)
 q only:       -0.251       0.960      -0.641
   full:       -0.306       1.328      -0.713       3.911
molecular quadrupole (traceless):
                xx          xy          yy          xz          yz          zz
 q only:        4.102      -3.043       0.635       1.276       1.325      -4.737
  q+dip:        3.690      -3.951      -0.230       1.714       1.986      -3.460
   full:        4.892      -3.694      -0.515       1.319       1.836      -4.376

           -------------------------------------------------
          |                Geometry Summary                 |
           -------------------------------------------------

      molecular mass/u    :      144.2117490
   center of mass at/Å    :       -0.1746950      -0.1265548       0.3313487
  moments of inertia/u·Å² :        0.2588745E+03   0.6660858E+03   0.7611951E+03
rotational constants/cm⁻¹ :        0.6511894E-01   0.2530850E-01   0.2214627E-01

 * 22 selected distances

     #   Z          #   Z                                           value/Å
     1   6 C        2   6 C                                       1.5229227
     2   6 C        3   6 C                                       1.5267819
     3   6 C        4   6 C                                       1.5376842 (max)
     4   6 C        5   8 O                                       1.3996037
     6   6 C        7   6 C                                       1.5330903
     8   6 C       10   8 O                                       1.2091683
     1   6 C       11   1 H                                       1.0872739
     1   6 C       12   1 H                                       1.0883864
     1   6 C       13   1 H                                       1.0878896
     2   6 C       14   1 H                                       1.0923065
     2   6 C       15   1 H                                       1.0911386
     3   6 C       16   1 H                                       1.0925922
     3   6 C       17   1 H                                       1.0932684
     4   6 C       18   1 H                                       1.0977600
     5   8 O       19   1 H                                       0.9715360 (min)
     6   6 C       20   1 H                                       1.0933221
     7   6 C       21   1 H                                       1.0871417
     7   6 C       22   1 H                                       1.0871687
     7   6 C       23   1 H                                       1.0879370
     9   6 C       24   1 H                                       1.0868672
     9   6 C       25   1 H                                       1.0889017
     9   6 C       26   1 H                                       1.0875215

 * 4 distinct bonds (by element types)

   Z      Z             #   av. dist./Å        max./Å        min./Å
   1 H    6 C          15     1.0899650     1.0977600     1.0868672
   6 C    6 C           4     1.5301198     1.5376842     1.5229227
   1 H    8 O           1     0.9715360     0.9715360     0.9715360
   6 C    8 O           2     1.3043860     1.3996037     1.2091683


optimized geometry written to: xtbopt.xyz


           -------------------------------------------------
          | TOTAL ENERGY              -33.422396616397 Eh   |
          | GRADIENT NORM               0.000217370523 Eh/α |
          | HOMO-LUMO GAP               3.678159124353 eV   |
           -------------------------------------------------

------------------------------------------------------------------------
 * finished run on 2026/07/09 at 02:07:39.040     
------------------------------------------------------------------------
 total:
 * wall-time:     0 d,  0 h,  0 min,  3.538 sec
 *  cpu-time:     0 d,  0 h,  0 min, 56.442 sec
 * ratio c/w:    15.951 speedup
 SCF:
 * wall-time:     0 d,  0 h,  0 min,  0.226 sec
 *  cpu-time:     0 d,  0 h,  0 min,  3.599 sec
 * ratio c/w:    15.949 speedup
 ANC optimizer:
 * wall-time:     0 d,  0 h,  0 min,  3.254 sec
 *  cpu-time:     0 d,  0 h,  0 min, 51.953 sec
 * ratio c/w:    15.968 speedup

