26
 energy: -33.417092967828 gnorm: 0.000078189265 xtb: 6.7.1 (edcfbbe)
C            3.47574637637945       -1.01734730434021       -0.88151990465308
C            3.16103318060677        0.27727523307351       -0.14283798499164
C            1.66313426760030        0.59186996085914       -0.17991851689742
C            0.87548573839604       -0.37602185546490        0.66576961466954
O            1.26456417504452       -0.80739227526886        1.72589689015502
C           -0.50221895411044       -0.78164647882723        0.15750032404781
O           -0.99594247562302       -1.84545479854430        0.92304575784149
C           -1.44017199017258        0.44265144897856        0.23037536234242
C           -2.83179433935164        0.09531878968241       -0.29213954350538
C           -3.80066680602333        1.25790511217503       -0.12197990826810
H            4.54281008265976       -1.22239435480792       -0.84840412405697
H            3.17126578704784       -0.94952791969149       -1.92423426346919
H            2.95229212330308       -1.85294214268053       -0.42255298067327
H            3.71275818005814        1.10303031210047       -0.59583829215630
H            3.47218078285752        0.18788298717999        0.89900672226757
H            1.29272895320912        0.58700312634041       -1.20565623611869
H            1.49534454914587        1.58761784475788        0.24098186315167
H           -0.42995463893009       -1.11916664226685       -0.88506867849130
H           -0.45731523211722       -1.87640345473609        1.73242387003414
H           -1.01616367407133        1.26286167217247       -0.35086916249112
H           -1.51306883584142        0.75795344786263        1.27384003021651
H           -3.19817839777347       -0.77730665181236        0.24976687597384
H           -2.76156753828051       -0.17321857396581       -1.34845799493542
H           -4.78364453501715        0.99105726483232       -0.50185936813441
H           -3.89972318272138        1.52289352879547        0.92829620689415
H           -3.44893359627707        2.13350172359713       -0.66419602834305
