      -----------------------------------------------------------      
     |                   =====================                   |     
     |                           x T B                           |     
     |                   =====================                   |     
     |                         S. Grimme                         |     
     |          Mulliken Center for Theoretical Chemistry        |     
     |                    University of Bonn                     |     
      -----------------------------------------------------------      

   * xtb version 6.7.1 (edcfbbe) compiled by 'conda@5dfe00f5fb80' on 2026-06-10

   xtb is free software: you can redistribute it and/or modify it under
   the terms of the GNU Lesser General Public License as published by
   the Free Software Foundation, either version 3 of the License, or
   (at your option) any later version.
   
   xtb is distributed in the hope that it will be useful,
   but WITHOUT ANY WARRANTY; without even the implied warranty of
   MERCHANTABILITY or FITNESS FOR A PARTICULAR PURPOSE.  See the
   GNU Lesser General Public License for more details.
   
   Cite this work as:
   * C. Bannwarth, E. Caldeweyher, S. Ehlert, A. Hansen, P. Pracht,
     J. Seibert, S. Spicher, S. Grimme, WIREs Comput. Mol. Sci., 2020, 11,
     e01493. DOI: 10.1002/wcms.1493
   
   for GFN2-xTB:
   * C. Bannwarth, S. Ehlert and S. Grimme., J. Chem. Theory Comput., 2019,
     15, 1652-1671. DOI: 10.1021/acs.jctc.8b01176
   for GFN1-xTB:
   * S. Grimme, C. Bannwarth, P. Shushkov, J. Chem. Theory Comput., 2017,
     13, 1989-2009. DOI: 10.1021/acs.jctc.7b00118
   for GFN0-xTB:
   * P. Pracht, E. Caldeweyher, S. Ehlert, S. Grimme, ChemRxiv, 2019, preprint.
     DOI: 10.26434/chemrxiv.8326202.v1
   for GFN-FF:
   * S. Spicher and S. Grimme, Angew. Chem. Int. Ed., 2020, 59, 15665-15673.
     DOI: 10.1002/anie.202004239
   
   for ALPB and GBSA implicit solvation:
   * S. Ehlert, M. Stahn, S. Spicher, S. Grimme, J. Chem. Theory Comput.,
     2021, 17, 4250-4261. DOI: 10.1021/acs.jctc.1c00471
   
   for ddCOSMO and CPCM-X implicit solvation:
   * M. Stahn, S. Ehlert, S. Grimme, J. Phys. Chem. A,
     2023, XX, XXXX-XXXX. DOI: 10.1021/acs.jpca.3c04382
   
   for DFT-D4:
   * E. Caldeweyher, C. Bannwarth and S. Grimme, J. Chem. Phys., 2017,
     147, 034112. DOI: 10.1063/1.4993215
   * E. Caldeweyher, S. Ehlert, A. Hansen, H. Neugebauer, S. Spicher,
     C. Bannwarth and S. Grimme, J. Chem. Phys., 2019, 150, 154122.
     DOI: 10.1063/1.5090222
   * E. Caldeweyher, J.-M. Mewes, S. Ehlert and S. Grimme, Phys. Chem. Chem. Phys.
     2020, 22, 8499-8512. DOI: 10.1039/D0CP00502A
   
   for sTDA-xTB:
   * S. Grimme and C. Bannwarth, J. Chem. Phys., 2016, 145, 054103.
     DOI: 10.1063/1.4959605
   
   in the mass-spec context:
   * V. Asgeirsson, C. Bauer and S. Grimme, Chem. Sci., 2017, 8, 4879.
     DOI: 10.1039/c7sc00601b
   * J. Koopman and S. Grimme, ACS Omega 2019, 4, 12, 15120-15133.
     DOI: 10.1021/acsomega.9b02011
   
   for metadynamics refer to:
   * S. Grimme, J. Chem. Theory Comput., 2019, 155, 2847-2862
     DOI: 10.1021/acs.jctc.9b00143
   
   for SPH calculations refer to:
   * S. Spicher and S. Grimme, J. Chem. Theory Comput., 2021, 17, 1701-1714
     DOI: 10.1021/acs.jctc.0c01306
   
   for ONIOM refer to:
   * C. Plett, A. Katbashev, S. Ehlert, S. Grimme, M. Bursch,
     Phys. Chem. Chem. Phys., 2023, 25, 17860-17868. DOI: 10.1039/D3CP02178E
   
   for DIPRO refer to:
   * J. Kohn, N. Gildemeister, S. Grimme, D. Fazzi, A. Hansen,
     J. Chem. Phys., 2023, just accepted.
   
   for PTB refer to:
   * S. Grimme, M. Mueller, A. Hansen, J. Chem. Phys., 2023, 158, 124111.
     DOI: 10.1063/5.0137838
   
   with help from (in alphabetical order)
   P. Atkinson, C. Bannwarth, F. Bohle, G. Brandenburg, E. Caldeweyher
   M. Checinski, S. Dohm, S. Ehlert, S. Ehrlich, I. Gerasimov, C. Hölzer
   A. Katbashev, J. Kohn, J. Koopman, C. Lavigne, S. Lehtola, F. März, M. Müller,
   F. Musil, H. Neugebauer, J. Pisarek, C. Plett, P. Pracht, F. Pultar,
   J. Seibert, P. Shushkov, S. Spicher, M. Stahn, M. Steiner, T. Strunk,
   J. Stückrath, T. Rose, and J. Unsleber
   
 * started run on 2026/07/08 at 18:43:08.393     
   ID    Z sym.   atoms
    1    8 O      1, 7
    2    6 C      2-6
    3    1 H      8-17

           -------------------------------------------------
          |                Calculation Setup                |
           -------------------------------------------------

          program call               : /home/ws/xd2484/miniforge3/envs/p3z_dft/bin/xtb xtb_input.xyz --gfn 2 --opt tight --cycles 500 --chrg 0 --uhf 0
          hostname                   : gpu10
          coordinate file            : xtb_input.xyz
          omp threads                :                    16


           -------------------------------------------------
          |                 G F N 2 - x T B                 |
           -------------------------------------------------

        Reference                      10.1021/acs.jctc.8b01176
      * Hamiltonian:
        H0-scaling (s, p, d)           1.850000    2.230000    2.230000
        zeta-weighting                 0.500000
      * Dispersion:
        s8                             2.700000
        a1                             0.520000
        a2                             5.000000
        s9                             5.000000
      * Repulsion:
        kExp                           1.500000    1.000000
        rExp                           1.000000
      * Coulomb:
        alpha                          2.000000
        third order                    shell-resolved
        anisotropic                    true
        a3                             3.000000
        a5                             4.000000
        cn-shift                       1.200000
        cn-exp                         4.000000
        max-rad                        5.000000


          ...................................................
          :                      SETUP                      :
          :.................................................:
          :  # basis functions                  38          :
          :  # atomic orbitals                  38          :
          :  # shells                           24          :
          :  # electrons                        42          :
          :  max. iterations                   250          :
          :  Hamiltonian                  GFN2-xTB          :
          :  restarted?                      false          :
          :  GBSA solvation                  false          :
          :  PC potential                    false          :
          :  electronic temp.          300.0000000     K    :
          :  accuracy                    1.0000000          :
          :  -> integral cutoff          0.2500000E+02      :
          :  -> integral neglect         0.1000000E-07      :
          :  -> SCF convergence          0.1000000E-05 Eh   :
          :  -> wf. convergence          0.1000000E-03 e    :
          :  Broyden damping             0.4000000          :
          :  net charge                          0          :
          :  unpaired electrons                  0          :
          ...................................................

 iter      E             dE          RMSdq      gap      omega  full diag
   1    -24.1201385 -0.241201E+02  0.403E+00   10.60       0.0  T
   2    -24.1681379 -0.479995E-01  0.213E+00   10.10       1.0  T
   3    -24.1687653 -0.627404E-03  0.865E-01   10.22       1.0  T
   4    -24.1690421 -0.276792E-03  0.119E-01   10.23       1.0  T
   5    -24.1690888 -0.466896E-04  0.684E-02   10.25       1.0  T
   6    -24.1690913 -0.248081E-05  0.103E-02   10.25       2.4  T
   7    -24.1690918 -0.469431E-06  0.507E-03   10.25       4.8  T
   8    -24.1690918 -0.312823E-07  0.180E-03   10.25      13.5  T
   9    -24.1690918 -0.647196E-08  0.618E-04   10.25      39.2  T
  10    -24.1690918 -0.237444E-08  0.137E-04   10.25     177.5  T

   *** convergence criteria satisfied after 10 iterations ***

         #    Occupation            Energy/Eh            Energy/eV
      -------------------------------------------------------------
         1        2.0000           -0.7010288             -19.0760
       ...           ...                  ...                  ...
        15        2.0000           -0.4831107             -13.1461
        16        2.0000           -0.4736827             -12.8896
        17        2.0000           -0.4656841             -12.6719
        18        2.0000           -0.4482993             -12.1988
        19        2.0000           -0.4459241             -12.1342
        20        2.0000           -0.4126297             -11.2282
        21        2.0000           -0.3969806             -10.8024 (HOMO)
        22                         -0.0202301              -0.5505 (LUMO)
        23                          0.0291883               0.7943
        24                          0.0489703               1.3326
        25                          0.0827504               2.2518
        26                          0.0934959               2.5442
       ...                                ...                  ...
        38                          0.2937572               7.9935
      -------------------------------------------------------------
                  HL-Gap            0.3767505 Eh           10.2519 eV
             Fermi-level           -0.2086054 Eh           -5.6764 eV

 SCC (total)                   0 d,  0 h,  0 min,  0.184 sec
 SCC setup                      ...        0 min,  0.002 sec (  1.098%)
 Dispersion                     ...        0 min,  0.007 sec (  4.054%)
 classical contributions        ...        0 min,  0.004 sec (  2.018%)
 integral evaluation            ...        0 min,  0.013 sec (  6.957%)
 iterations                     ...        0 min,  0.116 sec ( 62.857%)
 molecular gradient             ...        0 min,  0.042 sec ( 22.920%)
 printout                       ...        0 min,  0.000 sec (  0.080%)

         :::::::::::::::::::::::::::::::::::::::::::::::::::::
         ::                     SUMMARY                     ::
         :::::::::::::::::::::::::::::::::::::::::::::::::::::
         :: total energy             -23.932791178201 Eh    ::
         :: gradient norm              0.038141410029 Eh/a0 ::
         :: HOMO-LUMO gap             10.251903575920 eV    ::
         ::.................................................::
         :: SCC energy               -24.169065594485 Eh    ::
         :: -> isotropic ES            0.045776460712 Eh    ::
         :: -> anisotropic ES          0.001994573765 Eh    ::
         :: -> anisotropic XC          0.003205323606 Eh    ::
         :: -> dispersion             -0.010119886391 Eh    ::
         :: repulsion energy           0.236274416285 Eh    ::
         :: add. restraining           0.000000000000 Eh    ::
         :: total charge               0.000000000000 e     ::
         :::::::::::::::::::::::::::::::::::::::::::::::::::::

      ----------------------------------------------------------- 
     |                   =====================                   |
     |                        A N C O P T                        |
     |                   =====================                   |
     |               Approximate Normal Coordinate               |
     |                Rational Function Optimizer                |
      ----------------------------------------------------------- 
      ----------------------------------------------------------- 
     |                   =====================                   |
     |                        A N C O P T                        |
     |                   =====================                   |
     |               Approximate Normal Coordinate               |
     |                Rational Function Optimizer                |
      ----------------------------------------------------------- 

          ...................................................
          :                      SETUP                      :
          :.................................................:
          :   optimization level             tight          :
          :   max. optcycles                   500          :
          :   ANC micro-cycles                  20          :
          :   degrees of freedom                45          :
          :.................................................:
          :   RF solver                   davidson          :
          :   write xtbopt.log                true          :
          :   linear?                        false          :
          :   energy convergence         0.1000000E-05 Eh   :
          :   grad. convergence          0.8000000E-03 Eh/α :
          :   maxmium RF displ.          1.0000000          :
          :   Hlow (freq-cutoff)         0.1000000E-01      :
          :   Hmax (freq-cutoff)         5.0000000          :
          :   S6 in model hess.         20.0000000          :
          ...................................................

generating ANC from exact Hessian ...
Using Lindh-Hessian (1995)
 Shifting diagonal of input Hessian by    5.1302947769567703E-003
 Lowest  eigenvalues of input Hessian
    0.000000    0.000000    0.000000    0.000000    0.000000    0.000000
    0.010000    0.012192    0.012760    0.020360    0.024593    0.037514
    0.043542    0.048557    0.052886    0.057627    0.059082    0.062773
 Highest eigenvalues
    1.221174    1.277179    1.299343    1.315996    1.413293    1.420090


........................................................................
.............................. CYCLE    1 ..............................
........................................................................

 iter      E             dE          RMSdq      gap      omega  full diag
   1    -24.1690918 -0.241691E+02  0.658E-05   10.25       0.0  T
   2    -24.1690918 -0.560618E-11  0.413E-05   10.25     586.6  T
   3    -24.1690918 -0.169464E-11  0.132E-05   10.25    1840.4  T
     SCC iter.                  ...        0 min,  0.035 sec
     gradient                   ...        0 min,  0.033 sec
 * total energy  :   -23.9327912 Eh     change       -0.6254197E-10 Eh
   gradient norm :     0.0381423 Eh/α   predicted     0.0000000E+00 (-100.00%)
   displ. norm   :     0.1684766 α      lambda       -0.2907039E-02
   maximum displ.:     0.0769703 α      in ANC's #13, #5, #7, ...

........................................................................
.............................. CYCLE    2 ..............................
........................................................................

 iter      E             dE          RMSdq      gap      omega  full diag
   1    -24.1719952 -0.241720E+02  0.185E-01   10.34       0.0  T
   2    -24.1720035 -0.838352E-05  0.110E-01   10.35       1.0  T
   3    -24.1720039 -0.349650E-06  0.117E-02   10.35       2.1  T
   4    -24.1720050 -0.113074E-05  0.446E-03   10.35       5.4  T
   5    -24.1720051 -0.447491E-07  0.169E-03   10.35      14.4  T
   6    -24.1720051 -0.373956E-08  0.754E-04   10.35      32.2  T
   7    -24.1720051 -0.116951E-08  0.143E-04   10.35     169.9  T
     SCC iter.                  ...        0 min,  0.078 sec
     gradient                   ...        0 min,  0.035 sec
 * total energy  :   -23.9346296 Eh     change       -0.1838416E-02 Eh
   gradient norm :     0.0191086 Eh/α   predicted    -0.1494779E-02 ( -18.69%)
   displ. norm   :     0.1009830 α      lambda       -0.6578823E-03
   maximum displ.:     0.0739008 α      in ANC's #2, #3, #13, ...

........................................................................
.............................. CYCLE    3 ..............................
........................................................................

 iter      E             dE          RMSdq      gap      omega  full diag
   1    -24.1731285 -0.241731E+02  0.705E-02   10.45       0.0  T
   2    -24.1731366 -0.809196E-05  0.424E-02   10.45       1.0  T
   3    -24.1731369 -0.265603E-06  0.130E-02   10.46       1.9  T
   4    -24.1731372 -0.296225E-06  0.229E-03   10.46      10.6  T
   5    -24.1731372 -0.182994E-07  0.771E-04   10.46      31.4  T
   6    -24.1731372 -0.449845E-09  0.375E-04   10.46      64.6  T
     SCC iter.                  ...        0 min,  0.084 sec
     gradient                   ...        0 min,  0.046 sec
 * total energy  :   -23.9350294 Eh     change       -0.3998449E-03 Eh
   gradient norm :     0.0055072 Eh/α   predicted    -0.3322947E-03 ( -16.89%)
   displ. norm   :     0.0878542 α      lambda       -0.1290687E-03
   maximum displ.:     0.0714881 α      in ANC's #2, #3, #5, ...

........................................................................
.............................. CYCLE    4 ..............................
........................................................................

 iter      E             dE          RMSdq      gap      omega  full diag
   1    -24.1732131 -0.241732E+02  0.405E-02   10.50       0.0  T
   2    -24.1732146 -0.149256E-05  0.242E-02   10.50       1.0  T
   3    -24.1732146 -0.376546E-07  0.576E-03   10.51       4.2  T
   4    -24.1732147 -0.846348E-07  0.109E-03   10.51      22.3  T
   5    -24.1732147 -0.411265E-08  0.368E-04   10.51      65.9  T
   6    -24.1732147 -0.830838E-10  0.166E-04   10.51     146.3  T
     SCC iter.                  ...        0 min,  0.091 sec
     gradient                   ...        0 min,  0.042 sec
 * total energy  :   -23.9351220 Eh     change       -0.9258023E-04 Eh
   gradient norm :     0.0021895 Eh/α   predicted    -0.6503244E-04 ( -29.76%)
   displ. norm   :     0.1141241 α      lambda       -0.8790942E-04
   maximum displ.:     0.0944608 α      in ANC's #2, #3, #5, ...

........................................................................
.............................. CYCLE    5 ..............................
........................................................................

 iter      E             dE          RMSdq      gap      omega  full diag
   1    -24.1729623 -0.241730E+02  0.513E-02   10.53       0.0  T
   2    -24.1729628 -0.520440E-06  0.310E-02   10.53       1.0  T
   3    -24.1729628 -0.491594E-07  0.297E-03   10.53       8.2  T
   4    -24.1729629 -0.508816E-07  0.102E-03   10.53      23.9  T
   5    -24.1729629 -0.185008E-08  0.399E-04   10.53      60.9  T
   6    -24.1729629 -0.920188E-10  0.139E-04   10.53     174.9  T
     SCC iter.                  ...        0 min,  0.075 sec
     gradient                   ...        0 min,  0.040 sec
 * total energy  :   -23.9351879 Eh     change       -0.6586072E-04 Eh
   gradient norm :     0.0033854 Eh/α   predicted    -0.4452645E-04 ( -32.39%)
   displ. norm   :     0.1006369 α      lambda       -0.5999177E-04
   maximum displ.:     0.0851079 α      in ANC's #2, #3, #7, ...

........................................................................
.............................. CYCLE    6 ..............................
........................................................................

 iter      E             dE          RMSdq      gap      omega  full diag
   1    -24.1728259 -0.241728E+02  0.457E-02   10.54       0.0  T
   2    -24.1728260 -0.183866E-06  0.279E-02   10.54       1.0  T
   3    -24.1728261 -0.659951E-07  0.163E-03   10.54      14.9  T
   4    -24.1728261 -0.108465E-07  0.850E-04   10.54      28.5  T
   5    -24.1728261 -0.242622E-09  0.194E-04   10.54     125.2  T
     SCC iter.                  ...        0 min,  0.065 sec
     gradient                   ...        0 min,  0.039 sec
 * total energy  :   -23.9352392 Eh     change       -0.5133881E-04 Eh
   gradient norm :     0.0033164 Eh/α   predicted    -0.3029966E-04 ( -40.98%)
   displ. norm   :     0.1187195 α      lambda       -0.6976424E-04
   maximum displ.:     0.1040922 α      in ANC's #2, #3, #7, ...

........................................................................
.............................. CYCLE    7 ..............................
........................................................................

 iter      E             dE          RMSdq      gap      omega  full diag
   1    -24.1728328 -0.241728E+02  0.542E-02   10.53       0.0  T
   2    -24.1728332 -0.476888E-06  0.333E-02   10.53       1.0  T
   3    -24.1728333 -0.978550E-07  0.245E-03   10.53       9.9  T
   4    -24.1728334 -0.356916E-07  0.103E-03   10.53      23.5  T
   5    -24.1728334 -0.571344E-09  0.274E-04   10.53      88.6  T
   6    -24.1728334 -0.106766E-09  0.903E-05   10.53     268.5  T
     SCC iter.                  ...        0 min,  0.164 sec
     gradient                   ...        0 min,  0.050 sec
 * total energy  :   -23.9352996 Eh     change       -0.6036989E-04 Eh
   gradient norm :     0.0023635 Eh/α   predicted    -0.3537556E-04 ( -41.40%)
   displ. norm   :     0.1466437 α      lambda       -0.7814181E-04
   maximum displ.:     0.1306690 α      in ANC's #2, #1, #7, ...

........................................................................
.............................. CYCLE    8 ..............................
........................................................................

 iter      E             dE          RMSdq      gap      omega  full diag
   1    -24.1728367 -0.241728E+02  0.657E-02   10.52       0.0  T
   2    -24.1728374 -0.735672E-06  0.404E-02   10.52       1.0  T
   3    -24.1728376 -0.151648E-06  0.302E-03   10.52       8.0  T
   4    -24.1728376 -0.547829E-07  0.125E-03   10.52      19.4  T
   5    -24.1728376 -0.975930E-09  0.357E-04   10.52      68.0  T
   6    -24.1728376 -0.139451E-09  0.112E-04   10.52     216.4  T
     SCC iter.                  ...        0 min,  0.145 sec
     gradient                   ...        0 min,  0.045 sec
 * total energy  :   -23.9353678 Eh     change       -0.6816944E-04 Eh
   gradient norm :     0.0024352 Eh/α   predicted    -0.3991166E-04 ( -41.45%)
   displ. norm   :     0.1720600 α      lambda       -0.8612219E-04
   maximum displ.:     0.1516303 α      in ANC's #2, #1, #4, ...

........................................................................
.............................. CYCLE    9 ..............................
........................................................................

 iter      E             dE          RMSdq      gap      omega  full diag
   1    -24.1727641 -0.241728E+02  0.744E-02   10.51       0.0  T
   2    -24.1727649 -0.777889E-06  0.457E-02   10.51       1.0  T
   3    -24.1727651 -0.203951E-06  0.302E-03   10.51       8.0  T
   4    -24.1727651 -0.515552E-07  0.138E-03   10.51      17.5  T
   5    -24.1727651 -0.950376E-09  0.354E-04   10.51      68.6  T
   6    -24.1727651 -0.216108E-09  0.127E-04   10.51     191.7  T
     SCC iter.                  ...        0 min,  0.181 sec
     gradient                   ...        0 min,  0.042 sec
 * total energy  :   -23.9354442 Eh     change       -0.7640785E-04 Eh
   gradient norm :     0.0035536 Eh/α   predicted    -0.4433588E-04 ( -41.97%)
   displ. norm   :     0.2199940 α      lambda       -0.1094935E-03
   maximum displ.:     0.1917303 α      in ANC's #2, #1, #4, ...

........................................................................
.............................. CYCLE   10 ..............................
........................................................................

 iter      E             dE          RMSdq      gap      omega  full diag
   1    -24.1725043 -0.241725E+02  0.918E-02   10.52       0.0  T
   2    -24.1725052 -0.978261E-06  0.564E-02   10.52       1.0  T
   3    -24.1725056 -0.317396E-06  0.331E-03   10.52       7.3  T
   4    -24.1725056 -0.527454E-07  0.167E-03   10.52      14.5  T
   5    -24.1725056 -0.108876E-08  0.397E-04   10.52      61.1  T
   6    -24.1725056 -0.422954E-09  0.142E-04   10.52     171.4  T
     SCC iter.                  ...        0 min,  0.211 sec
     gradient                   ...        0 min,  0.047 sec
 * total energy  :   -23.9355377 Eh     change       -0.9355508E-04 Eh
   gradient norm :     0.0047065 Eh/α   predicted    -0.5739801E-04 ( -38.65%)
   displ. norm   :     0.3159625 α      lambda       -0.1464066E-03
   maximum displ.:     0.2773246 α      in ANC's #2, #1, #4, ...

........................................................................
.............................. CYCLE   11 ..............................
........................................................................

 iter      E             dE          RMSdq      gap      omega  full diag
   1    -24.1716628 -0.241717E+02  0.128E-01   10.54       0.0  T
   2    -24.1716646 -0.179040E-05  0.785E-02   10.54       1.0  T
   3    -24.1716652 -0.610797E-06  0.445E-03   10.54       5.4  T
   4    -24.1716653 -0.835900E-07  0.231E-03   10.54      10.5  T
   5    -24.1716653 -0.267843E-08  0.650E-04   10.54      37.3  T
   6    -24.1716653 -0.910720E-09  0.200E-04   10.54     121.0  T
     SCC iter.                  ...        0 min,  0.175 sec
     gradient                   ...        0 min,  0.042 sec
 * total energy  :   -23.9356393 Eh     change       -0.1015635E-03 Eh
   gradient norm :     0.0063774 Eh/α   predicted    -0.8051378E-04 ( -20.73%)
   displ. norm   :     0.1991525 α      lambda       -0.1092892E-03
   maximum displ.:     0.1785910 α      in ANC's #2, #1, #3, ...

........................................................................
.............................. CYCLE   12 ..............................
........................................................................

 iter      E             dE          RMSdq      gap      omega  full diag
   1    -24.1724923 -0.241725E+02  0.757E-02   10.59       0.0  T
   2    -24.1724935 -0.117788E-05  0.464E-02   10.59       1.0  T
   3    -24.1724937 -0.232185E-06  0.343E-03   10.60       7.1  T
   4    -24.1724938 -0.407132E-07  0.146E-03   10.60      16.6  T
   5    -24.1724938 -0.260065E-08  0.630E-04   10.60      38.5  T
   6    -24.1724938 -0.258531E-09  0.155E-04   10.60     156.2  T
     SCC iter.                  ...        0 min,  0.170 sec
     gradient                   ...        0 min,  0.041 sec
 * total energy  :   -23.9357165 Eh     change       -0.7724816E-04 Eh
   gradient norm :     0.0040936 Eh/α   predicted    -0.5681068E-04 ( -26.46%)
   displ. norm   :     0.1896505 α      lambda       -0.7029562E-04
   maximum displ.:     0.1756856 α      in ANC's #2, #4, #29, ...

........................................................................
.............................. CYCLE   13 ..............................
........................................................................

 iter      E             dE          RMSdq      gap      omega  full diag
   1    -24.1728876 -0.241729E+02  0.800E-02   10.63       0.0  T
   2    -24.1728887 -0.117755E-05  0.487E-02   10.64       1.0  T
   3    -24.1728890 -0.226295E-06  0.360E-03   10.64       6.7  T
   4    -24.1728890 -0.435162E-07  0.147E-03   10.64      16.5  T
   5    -24.1728890 -0.287383E-08  0.623E-04   10.64      38.9  T
   6    -24.1728890 -0.290303E-09  0.177E-04   10.64     137.3  T
     SCC iter.                  ...        0 min,  0.156 sec
     gradient                   ...        0 min,  0.069 sec
 * total energy  :   -23.9357647 Eh     change       -0.4814586E-04 Eh
   gradient norm :     0.0023873 Eh/α   predicted    -0.3641313E-04 ( -24.37%)
   displ. norm   :     0.1128531 α      lambda       -0.4781291E-04
   maximum displ.:     0.1041465 α      in ANC's #2, #29, #9, ...

........................................................................
.............................. CYCLE   14 ..............................
........................................................................

 iter      E             dE          RMSdq      gap      omega  full diag
   1    -24.1743132 -0.241743E+02  0.466E-02   10.68       0.0  T
   2    -24.1743142 -0.103006E-05  0.285E-02   10.68       1.0  T
   3    -24.1743143 -0.668141E-07  0.384E-03   10.69       6.3  T
   4    -24.1743144 -0.698762E-07  0.119E-03   10.68      20.4  T
   5    -24.1743144 -0.479909E-08  0.535E-04   10.68      45.3  T
   6    -24.1743144 -0.243123E-09  0.200E-04   10.68     121.1  T
     SCC iter.                  ...        0 min,  0.133 sec
     gradient                   ...        0 min,  0.063 sec
 * total energy  :   -23.9357856 Eh     change       -0.2089879E-04 Eh
   gradient norm :     0.0023918 Eh/α   predicted    -0.2420941E-04 (  15.84%)
   displ. norm   :     0.2346296 α      lambda       -0.4119544E-04
   maximum displ.:     0.2214673 α      in ANC's #2, #4, #9, ...

........................................................................
.............................. CYCLE   15 ..............................
........................................................................

 iter      E             dE          RMSdq      gap      omega  full diag
   1    -24.1722305 -0.241722E+02  0.998E-02   10.69       0.0  T
   2    -24.1722315 -0.100716E-05  0.608E-02   10.69       1.0  T
   3    -24.1722319 -0.361314E-06  0.364E-03   10.69       6.7  T
   4    -24.1722319 -0.416111E-07  0.187E-03   10.69      12.9  T
   5    -24.1722319 -0.306284E-08  0.548E-04   10.69      44.2  T
   6    -24.1722319 -0.400142E-09  0.147E-04   10.69     164.8  T
     SCC iter.                  ...        0 min,  0.054 sec
     gradient                   ...        0 min,  0.034 sec
 * total energy  :   -23.9357854 Eh     change        0.1349582E-06 Eh
   gradient norm :     0.0031889 Eh/α   predicted    -0.2173168E-04 (*******%)
   displ. norm   :     0.1166267 α      lambda       -0.4314453E-04
   maximum displ.:     0.1048123 α      in ANC's #2, #1, #4, ...

........................................................................
.............................. CYCLE   16 ..............................
........................................................................

 iter      E             dE          RMSdq      gap      omega  full diag
   1    -24.1736809 -0.241737E+02  0.497E-02   10.69       0.0  T
   2    -24.1736811 -0.255614E-06  0.302E-02   10.69       1.0  T
   3    -24.1736812 -0.888406E-07  0.182E-03   10.69      13.3  T
   4    -24.1736812 -0.992331E-08  0.916E-04   10.69      26.5  T
   5    -24.1736812 -0.836454E-09  0.288E-04   10.69      84.2  T
     SCC iter.                  ...        0 min,  0.085 sec
     gradient                   ...        0 min,  0.044 sec
 * total energy  :   -23.9358063 Eh     change       -0.2083435E-04 Eh
   gradient norm :     0.0014404 Eh/α   predicted    -0.2186675E-04 (   4.96%)
   displ. norm   :     0.0481909 α      lambda       -0.8494622E-05
   maximum displ.:     0.0370916 α      in ANC's #2, #1, #4, ...

........................................................................
.............................. CYCLE   17 ..............................
........................................................................

 iter      E             dE          RMSdq      gap      omega  full diag
   1    -24.1737128 -0.241737E+02  0.162E-02   10.69       0.0  T
   2    -24.1737128 -0.307579E-07  0.977E-03   10.69       2.5  T
   3    -24.1737128 -0.958668E-08  0.703E-04   10.69      34.5  T
   4    -24.1737128 -0.156152E-08  0.370E-04   10.69      65.6  T
     SCC iter.                  ...        0 min,  0.052 sec
     gradient                   ...        0 min,  0.039 sec
 * total energy  :   -23.9358171 Eh     change       -0.1079644E-04 Eh
   gradient norm :     0.0010584 Eh/α   predicted    -0.4251158E-05 ( -60.62%)
   displ. norm   :     0.2103203 α      lambda       -0.2349272E-04
   maximum displ.:     0.1808833 α      in ANC's #2, #1, #4, ...

........................................................................
.............................. CYCLE   18 ..............................
........................................................................

 iter      E             dE          RMSdq      gap      omega  full diag
   1    -24.1731200 -0.241731E+02  0.740E-02   10.70       0.0  T
   2    -24.1731206 -0.566473E-06  0.448E-02   10.70       1.0  T
   3    -24.1731207 -0.180152E-06  0.300E-03   10.70       8.1  T
   4    -24.1731208 -0.274466E-07  0.157E-03   10.70      15.5  T
   5    -24.1731208 -0.227368E-08  0.466E-04   10.70      52.0  T
   6    -24.1731208 -0.315797E-09  0.151E-04   10.70     160.6  T
     SCC iter.                  ...        0 min,  0.064 sec
     gradient                   ...        0 min,  0.038 sec
 * total energy  :   -23.9358359 Eh     change       -0.1885554E-04 Eh
   gradient norm :     0.0016161 Eh/α   predicted    -0.1197845E-04 ( -36.47%)
   displ. norm   :     0.0608493 α      lambda       -0.9384617E-05
   maximum displ.:     0.0397049 α      in ANC's #2, #4, #1, ...

........................................................................
.............................. CYCLE   19 ..............................
........................................................................

 iter      E             dE          RMSdq      gap      omega  full diag
   1    -24.1733954 -0.241734E+02  0.222E-02   10.70       0.0  T
   2    -24.1733955 -0.104583E-06  0.134E-02   10.70       1.8  T
   3    -24.1733956 -0.259230E-07  0.144E-03   10.70      16.8  T
   4    -24.1733956 -0.109556E-07  0.709E-04   10.70      34.2  T
   5    -24.1733956 -0.501238E-09  0.246E-04   10.70      98.7  T
     SCC iter.                  ...        0 min,  0.068 sec
     gradient                   ...        0 min,  0.038 sec
 * total energy  :   -23.9358417 Eh     change       -0.5804345E-05 Eh
   gradient norm :     0.0014785 Eh/α   predicted    -0.4699417E-05 ( -19.04%)
   displ. norm   :     0.0419094 α      lambda       -0.3147865E-05
   maximum displ.:     0.0366170 α      in ANC's #2, #1, #3, ...

........................................................................
.............................. CYCLE   20 ..............................
........................................................................

 iter      E             dE          RMSdq      gap      omega  full diag
   1    -24.1735294 -0.241735E+02  0.153E-02   10.71       0.0  T
   2    -24.1735294 -0.377172E-07  0.920E-03   10.71       2.6  T
   3    -24.1735294 -0.725089E-08  0.676E-04   10.71      35.9  T
   4    -24.1735294 -0.982109E-09  0.305E-04   10.71      79.4  T
     SCC iter.                  ...        0 min,  0.058 sec
     gradient                   ...        0 min,  0.043 sec
 * total energy  :   -23.9358447 Eh     change       -0.2933470E-05 Eh
   gradient norm :     0.0004249 Eh/α   predicted    -0.1576203E-05 ( -46.27%)
   displ. norm   :     0.0280766 α      lambda       -0.7986797E-06
   maximum displ.:     0.0252088 α      in ANC's #2, #3, #1, ...
 * RMSD in coord.:     0.5409838 α      energy gain  -0.3053488E-02 Eh

generating ANC from exact Hessian ...
Using Lindh-Hessian (1995)
 Shifting diagonal of input Hessian by    5.1284863264361687E-003
 Lowest  eigenvalues of input Hessian
    0.000000    0.000000    0.000000    0.000000    0.000000    0.000000
    0.010000    0.011496    0.012686    0.020456    0.025007    0.038918
    0.046166    0.051246    0.053250    0.057032    0.058472    0.060304
 Highest eigenvalues
    1.236116    1.252728    1.288832    1.313309    1.476656    1.498981


........................................................................
.............................. CYCLE   21 ..............................
........................................................................

 iter      E             dE          RMSdq      gap      omega  full diag
   1    -24.1734616 -0.241735E+02  0.103E-02   10.71       0.0  T
   2    -24.1734616 -0.102501E-07  0.620E-03   10.71       3.9  T
   3    -24.1734616 -0.389310E-08  0.407E-04   10.71      59.5  T
   4    -24.1734616 -0.385054E-09  0.220E-04   10.71     110.0  T
     SCC iter.                  ...        0 min,  0.054 sec
     gradient                   ...        0 min,  0.041 sec
 * total energy  :   -23.9358452 Eh     change       -0.5388898E-06 Eh
   gradient norm :     0.0001947 Eh/α   predicted     0.0000000E+00 (-100.00%)
   displ. norm   :     0.0018203 α      lambda       -0.1224114E-06
   maximum displ.:     0.0009156 α      in ANC's #7, #3, #16, ...

   *** GEOMETRY OPTIMIZATION CONVERGED AFTER 21 ITERATIONS ***

------------------------------------------------------------------------
 total energy gain   :        -0.0030540 Eh       -1.9164 kcal/mol
 total RMSD          :         0.5409838 a0        0.2863 Å
 total power (kW/mol):        -0.3818260 (step)   -2.0712 (real)
------------------------------------------------------------------------

 ANCopt (total)                0 d,  0 h,  0 min,  3.871 sec
 optimizer setup                ...        0 min,  0.001 sec (  0.020%)
 model hessian                  ...        0 min,  0.016 sec (  0.425%)
 ANC generation                 ...        0 min,  0.001 sec (  0.024%)
 coordinate transformation      ...        0 min,  0.000 sec (  0.004%)
 single point calculation       ...        0 min,  3.755 sec ( 96.999%)
 optimization log               ...        0 min,  0.002 sec (  0.050%)
 hessian update                 ...        0 min,  0.089 sec (  2.293%)
 rational function              ...        0 min,  0.005 sec (  0.118%)

================
 final structure:
================
17
 xtb: 6.7.1 (edcfbbe)
O           -2.81776453456103        0.35552386777171        0.40282459731258
C           -1.74928830610555        0.33171435399256       -0.50477210171271
C           -0.59608183074703       -0.53599384078267        0.01779605690390
C            0.60227526325092       -0.58335967684443       -0.94613405162611
C            1.79726318263624       -0.27674663538048       -0.04171683004525
C            1.14511940850812        0.58105936052109        1.04033206513865
O           -0.12476157027213        0.00225830500280        1.25256939289456
H           -2.43960647813009        0.50380117881700        1.27959776274853
H           -2.13658728183852       -0.07584020232760       -1.44135776390985
H           -1.37712574767319        1.35242444584734       -0.68614085048960
H           -0.98790196279607       -1.53553512122188        0.24308958352932
H            0.49250919471096        0.18926489180780       -1.70856414838291
H            0.68706386370930       -1.54822412756369       -1.43980926760052
H            2.60153279183546        0.24115658688658       -0.55820013915505
H            2.18647074037272       -1.19449936398245        0.39945180794840
H            1.04120503172323        1.62162978647349        0.69770478288926
H            1.67567823537754        0.57136619098375        1.99332910355784

 Bond Distances (Angstroems)
 ---------------------------
O1-C2=1.4021         O1-H8=0.9663         C2-O1=1.4021         C2-C3=1.5349         C2-H9=1.0924         C2-H10=1.1015        
C3-C2=1.5349         C3-C4=1.5387         C3-O7=1.4271         C3-H11=1.0970        C4-C3=1.5387         C4-C5=1.5297         
C4-H12=1.0910        C4-H13=1.0871        C5-C4=1.5297         C5-C6=1.5271         C5-H14=1.0871        C5-H15=1.0901        
C6-C5=1.5271         C6-O7=1.4116         C6-H16=1.1004        C6-H17=1.0908        O7-C3=1.4271         O7-C6=1.4116         
H8-O1=0.9663         H9-C2=1.0924         H10-C2=1.1015        H11-C3=1.0970        H12-C4=1.0910        H13-C4=1.0871        
H14-C5=1.0871        H15-C5=1.0901        H16-C6=1.1004        H17-C6=1.0908        
 C  H  Rav=1.0930 sigma=0.0051  Rmin=1.0871  Rmax=1.1015     9
 C  C  Rav=1.5326 sigma=0.0045  Rmin=1.5271  Rmax=1.5387     4
 O  H  Rav=0.9663 sigma=0.0000  Rmin=0.9663  Rmax=0.9663     1
 O  C  Rav=1.4136 sigma=0.0103  Rmin=1.4021  Rmax=1.4271     3

 selected bond angles (degree)
 --------------------
H8-O1-C2=106.96                C3-C2-O1=111.21                H9-C2-O1=106.93                H9-C2-C3=110.33                
H10-C2-O1=110.38               H10-C2-C3=109.03               H10-C2-H9=108.93               C4-C3-C2=112.91                
O7-C3-C2=109.24                O7-C3-C4=107.24                H11-C3-C2=108.46               H11-C3-C4=112.26               
H11-C3-O7=106.50               C5-C4-C3=103.41                H12-C4-C3=109.73               H12-C4-C5=110.48               
H13-C4-C3=111.87               H13-C4-C5=112.67               H13-C4-H12=108.60              C6-C5-C4=101.42                
H14-C5-C4=113.11               H14-C5-C6=112.64               H15-C5-C4=110.45               H15-C5-C6=109.79               
H15-C5-H14=109.22              O7-C6-C5=105.09                H16-C6-C5=110.54               H16-C6-O7=110.46               
H17-C6-C5=113.98               H17-C6-O7=107.61               H17-C6-H16=109.05              C6-O7-C3=108.76                

 selected dihedral angles (degree)
 ---------------------------------
C3-C2-O1-H8= 45.79            H9-C2-O1-H8=166.30            H10-C2-O1-H8=284.64           C4-C3-C2-O1=180.31            
C4-C3-C2-H9= 61.84            C4-C3-C2-H10=302.25           O7-C3-C2-O1=299.54            O7-C3-C2-H9=181.07            
O7-C3-C2-H10= 61.49           H11-C3-C2-O1= 55.24           H11-C3-C2-H9=296.76           H11-C3-C2-H10=177.18          
C5-C4-C3-C2=130.73            C5-C4-C3-O7= 10.35            C5-C4-C3-H11=253.72           H12-C4-C3-C2= 12.85           
H12-C4-C3-O7=252.48           H12-C4-C3-H11=135.84          H13-C4-C3-C2=252.24           H13-C4-C3-O7=131.86           
H13-C4-C3-H11= 15.23          C6-C5-C4-C3=331.72            C6-C5-C4-H12= 89.07           C6-C5-C4-H13=210.75           
H14-C5-C4-C3=210.84           H14-C5-C4-H12=328.20          H14-C5-C4-H13= 89.87          H15-C5-C4-C3= 88.08           
H15-C5-C4-H12=205.43          H15-C5-C4-H13=327.11          O7-C6-C5-C4= 37.82            O7-C6-C5-H14=159.03           
O7-C6-C5-H15=280.98           H16-C6-C5-C4=278.63           H16-C6-C5-H14= 39.84          H16-C6-C5-H15=161.79          
H17-C6-C5-C4=155.40           H17-C6-C5-H14=276.60          H17-C6-C5-H15= 38.55          C6-O7-C3-C2=251.28            
C6-O7-C3-C4= 13.97            C6-O7-C3-H11=134.33           C3-O7-C6-C5=327.11            C3-O7-C6-H16= 86.36           
C3-O7-C6-H17=205.30           
           -------------------------------------------------
          |                Final Singlepoint                |
           -------------------------------------------------

          ...................................................
          :                      SETUP                      :
          :.................................................:
          :  # basis functions                  38          :
          :  # atomic orbitals                  38          :
          :  # shells                           24          :
          :  # electrons                        42          :
          :  max. iterations                   250          :
          :  Hamiltonian                  GFN2-xTB          :
          :  restarted?                      false          :
          :  GBSA solvation                  false          :
          :  PC potential                    false          :
          :  electronic temp.          300.0000000     K    :
          :  accuracy                    1.0000000          :
          :  -> integral cutoff          0.2500000E+02      :
          :  -> integral neglect         0.1000000E-07      :
          :  -> SCF convergence          0.1000000E-05 Eh   :
          :  -> wf. convergence          0.1000000E-03 e    :
          :  Broyden damping             0.4000000          :
          :  net charge                          0          :
          :  unpaired electrons                  0          :
          ...................................................

 iter      E             dE          RMSdq      gap      omega  full diag
   1    -24.1734616 -0.241735E+02  0.652E-05   10.71       0.0  T
   2    -24.1734616 -0.606093E-11  0.408E-05   10.71     595.1  T
   3    -24.1734616 -0.792255E-12  0.147E-05   10.71    1647.2  T

   *** convergence criteria satisfied after 3 iterations ***

         #    Occupation            Energy/Eh            Energy/eV
      -------------------------------------------------------------
         1        2.0000           -0.7052901             -19.1919
       ...           ...                  ...                  ...
        15        2.0000           -0.4845395             -13.1850
        16        2.0000           -0.4713944             -12.8273
        17        2.0000           -0.4614972             -12.5580
        18        2.0000           -0.4485317             -12.2052
        19        2.0000           -0.4443517             -12.0914
        20        2.0000           -0.4192447             -11.4082
        21        2.0000           -0.3947877             -10.7427 (HOMO)
        22                         -0.0012827              -0.0349 (LUMO)
        23                          0.0373433               1.0162
        24                          0.0632695               1.7217
        25                          0.0856744               2.3313
        26                          0.0938968               2.5551
       ...                                ...                  ...
        38                          0.3168385               8.6216
      -------------------------------------------------------------
                  HL-Gap            0.3935050 Eh           10.7078 eV
             Fermi-level           -0.1980352 Eh           -5.3888 eV

 SCC (total)                   0 d,  0 h,  0 min,  0.112 sec
 SCC setup                      ...        0 min,  0.004 sec (  3.981%)
 Dispersion                     ...        0 min,  0.008 sec (  7.526%)
 classical contributions        ...        0 min,  0.004 sec (  3.890%)
 integral evaluation            ...        0 min,  0.014 sec ( 12.242%)
 iterations                     ...        0 min,  0.043 sec ( 38.354%)
 molecular gradient             ...        0 min,  0.038 sec ( 33.889%)
 printout                       ...        0 min,  0.000 sec (  0.092%)

         :::::::::::::::::::::::::::::::::::::::::::::::::::::
         ::                     SUMMARY                     ::
         :::::::::::::::::::::::::::::::::::::::::::::::::::::
         :: total energy             -23.935845205296 Eh    ::
         :: gradient norm              0.000194773237 Eh/a0 ::
         :: HOMO-LUMO gap             10.707816397073 eV    ::
         ::.................................................::
         :: SCC energy               -24.173435568170 Eh    ::
         :: -> isotropic ES            0.043645266804 Eh    ::
         :: -> anisotropic ES          0.002197677508 Eh    ::
         :: -> anisotropic XC          0.002741479792 Eh    ::
         :: -> dispersion             -0.010277588692 Eh    ::
         :: repulsion energy           0.237590362874 Eh    ::
         :: add. restraining           0.000000000000 Eh    ::
         :: total charge               0.000000000000 e     ::
         :::::::::::::::::::::::::::::::::::::::::::::::::::::

           -------------------------------------------------
          |                Property Printout                |
           -------------------------------------------------

    * Orbital Energies and Occupations

         #    Occupation            Energy/Eh            Energy/eV
      -------------------------------------------------------------
         1        2.0000           -0.7052901             -19.1919
       ...           ...                  ...                  ...
         9        2.0000           -0.5616463             -15.2832
        10        2.0000           -0.5450595             -14.8318
        11        2.0000           -0.5269625             -14.3394
        12        2.0000           -0.5222675             -14.2116
        13        2.0000           -0.5081153             -13.8265
        14        2.0000           -0.4944682             -13.4552
        15        2.0000           -0.4845395             -13.1850
        16        2.0000           -0.4713944             -12.8273
        17        2.0000           -0.4614972             -12.5580
        18        2.0000           -0.4485317             -12.2052
        19        2.0000           -0.4443517             -12.0914
        20        2.0000           -0.4192447             -11.4082
        21        2.0000           -0.3947877             -10.7427 (HOMO)
        22                         -0.0012827              -0.0349 (LUMO)
        23                          0.0373433               1.0162
        24                          0.0632695               1.7217
        25                          0.0856744               2.3313
        26                          0.0938968               2.5551
        27                          0.1152154               3.1352
        28                          0.1330188               3.6196
        29                          0.1373941               3.7387
        30                          0.1408008               3.8314
        31                          0.1543011               4.1987
        32                          0.1815678               4.9407
       ...                                ...                  ...
        38                          0.3168385               8.6216
      -------------------------------------------------------------
                  HL-Gap            0.3935050 Eh           10.7078 eV
             Fermi-level           -0.1980352 Eh           -5.3888 eV

     #   Z          covCN         q      C6AA      α(0)
     1   8 O        1.656    -0.438    21.591     6.273
     2   6 C        3.674     0.073    19.587     6.342
     3   6 C        3.785     0.096    19.010     6.210
     4   6 C        3.826    -0.069    21.807     6.645
     5   6 C        3.816    -0.063    21.689     6.628
     6   6 C        3.748     0.083    19.268     6.261
     7   8 O        1.701    -0.332    19.553     5.970
     8   1 H        0.805     0.303     0.711     1.324
     9   1 H        0.924     0.044     2.391     2.418
    10   1 H        0.923     0.024     2.672     2.556
    11   1 H        0.924     0.043     2.404     2.425
    12   1 H        0.924     0.038     2.470     2.458
    13   1 H        0.925     0.043     2.410     2.428
    14   1 H        0.925     0.040     2.451     2.448
    15   1 H        0.925     0.046     2.374     2.409
    16   1 H        0.923     0.022     2.697     2.568
    17   1 H        0.924     0.045     2.387     2.416

 Mol. C6AA /au·bohr⁶  :       2157.639704
 Mol. C8AA /au·bohr⁸  :      45556.184163
 Mol. α(0) /au        :         67.779604


Wiberg/Mayer (AO) data.
largest (>0.10) Wiberg bond orders for each atom

 ---------------------------------------------------------------------------
     #   Z sym  total        # sym  WBO       # sym  WBO       # sym  WBO
 ---------------------------------------------------------------------------
     1   8 O    1.961 --     2 C    1.010     8 H    0.889
     2   6 C    3.964 --     1 O    1.010     3 C    0.979     9 H    0.972
                            10 H    0.966
     3   6 C    3.952 --     4 C    0.987     2 C    0.979     7 O    0.967
                            11 H    0.964
     4   6 C    3.997 --     5 C    1.006     3 C    0.987    13 H    0.981
                            12 H    0.979
     5   6 C    3.997 --     4 C    1.006     6 C    1.000    15 H    0.980
                            14 H    0.979
     6   6 C    3.957 --     5 C    1.000     7 O    0.983    17 H    0.973
                            16 H    0.970
     7   8 O    2.064 --     6 C    0.983     3 C    0.967
     8   1 H    0.908 --     1 O    0.889
     9   1 H    0.998 --     2 C    0.972
    10   1 H    0.999 --     2 C    0.966
    11   1 H    0.998 --     3 C    0.964
    12   1 H    0.999 --     4 C    0.979
    13   1 H    0.998 --     4 C    0.981
    14   1 H    0.998 --     5 C    0.979
    15   1 H    0.998 --     5 C    0.980
    16   1 H    0.999 --     6 C    0.970
    17   1 H    0.998 --     6 C    0.973
 ---------------------------------------------------------------------------

Topologies differ in total number of bonds
Writing topology from bond orders to xtbtopo.mol

molecular dipole:
                 x           y           z       tot (Debye)
 q only:        0.886      -0.009      -0.341
   full:        1.152       0.054      -0.368       3.077
molecular quadrupole (traceless):
                xx          xy          yy          xz          yz          zz
 q only:       -3.694       0.732       1.799       0.157       1.224       1.895
  q+dip:       -7.450       0.642       5.047       0.744       0.515       2.403
   full:       -6.635       0.843       3.879       0.452       1.067       2.756

           -------------------------------------------------
          |                Geometry Summary                 |
           -------------------------------------------------

      molecular mass/u    :      102.1318968
   center of mass at/Å    :       -0.3027189       0.0004478       0.1961789
  moments of inertia/u·Å² :        0.8970996E+02   0.2682470E+03   0.3215943E+03
rotational constants/cm⁻¹ :        0.1879126E+00   0.6284370E-01   0.5241895E-01

 * 17 selected distances

     #   Z          #   Z                                           value/Å
     1   8 O        2   6 C                                       1.4021200
     2   6 C        3   6 C                                       1.5348878
     3   6 C        4   6 C                                       1.5386569 (max)
     4   6 C        5   6 C                                       1.5296989
     5   6 C        6   6 C                                       1.5270733
     3   6 C        7   8 O                                       1.4270682
     6   6 C        7   8 O                                       1.4116138
     1   8 O        8   1 H                                       0.9662924 (min)
     2   6 C        9   1 H                                       1.0923800
     2   6 C       10   1 H                                       1.1014758
     3   6 C       11   1 H                                       1.0969791
     4   6 C       12   1 H                                       1.0910074
     4   6 C       13   1 H                                       1.0871375
     5   6 C       14   1 H                                       1.0871194
     5   6 C       15   1 H                                       1.0901296
     6   6 C       16   1 H                                       1.1004448
     6   6 C       17   1 H                                       1.0907750

 * 4 distinct bonds (by element types)

   Z      Z             #   av. dist./Å        max./Å        min./Å
   1 H    6 C           9     1.0930499     1.1014758     1.0871194
   6 C    6 C           4     1.5325792     1.5386569     1.5270733
   1 H    8 O           1     0.9662924     0.9662924     0.9662924
   6 C    8 O           3     1.4136007     1.4270682     1.4021200


optimized geometry written to: xtbopt.xyz


           -------------------------------------------------
          | TOTAL ENERGY              -23.935845205296 Eh   |
          | GRADIENT NORM               0.000194773237 Eh/α |
          | HOMO-LUMO GAP              10.707816397073 eV   |
           -------------------------------------------------

------------------------------------------------------------------------
 * finished run on 2026/07/08 at 18:43:12.615     
------------------------------------------------------------------------
 total:
 * wall-time:     0 d,  0 h,  0 min,  4.222 sec
 *  cpu-time:     0 d,  0 h,  1 min,  6.868 sec
 * ratio c/w:    15.840 speedup
 SCF:
 * wall-time:     0 d,  0 h,  0 min,  0.184 sec
 *  cpu-time:     0 d,  0 h,  0 min,  2.940 sec
 * ratio c/w:    15.979 speedup
 ANC optimizer:
 * wall-time:     0 d,  0 h,  0 min,  3.990 sec
 *  cpu-time:     0 d,  0 h,  1 min,  3.236 sec
 * ratio c/w:    15.851 speedup

