42
REP_00029 MMFF geometry for GFN2-xTB preoptimization
C   5.611751367905  1.528446600017 -1.621163301626
O   4.634456172821  0.510194463803 -1.837015507606
C   3.360684075234  0.897767620853 -1.557438577371
O   3.027235142316  2.004531748408 -1.154827174117
C   2.397853593025 -0.237150248169 -1.791121846684
C   2.437629075152 -1.273092243598 -0.672467330138
C   2.118355433336 -0.742540552241  0.733677197653
C   0.789343596926  0.006364837322  0.875772088795
C  -0.443125959948 -0.870393031075  0.689955472731
O  -0.323619224734 -2.090352346411  0.571872787855
N  -1.690644184079 -0.232710743609  0.667637883698
C  -1.866660052284  1.226820373554  0.869253261451
C  -2.855152760440  1.552292037088  1.992875161695
C  -2.245407141702  1.925744996028 -0.437119463081
C  -2.898840614233 -1.040520341822  0.372440750544
C  -2.845609402470 -1.704602737269 -1.007043003971
C  -3.211474609009 -2.052932096568  1.476305866610
H   5.419657680774  2.388297383967 -2.270548178411
H   5.623885175305  1.831004663496 -0.569348444093
H   6.592435599785  1.116025405659 -1.873919887441
H   1.392078777067  0.178201648011 -1.916181109170
H   2.645537998875 -0.706390583406 -2.750892853218
H   1.745041465750 -2.082864204422 -0.927563898232
H   3.435682303797 -1.728497761703 -0.640106479789
H   2.138522932687 -1.587533090994  1.433448831435
H   2.925921957470 -0.069760674070  1.048133807041
H   0.746624093587  0.415949258151  1.892190568004
H   0.759826244935  0.837150820331  0.165764711234
H  -0.918687873256  1.663124144865  1.189940720761
H  -2.851375424713  2.627084030464  2.204813174163
H  -2.579608468298  1.026546265769  2.913317096235
H  -3.882923380865  1.274136559028  1.741882348486
H  -3.225179886478  1.603379799855 -0.803736321154
H  -1.509859704992  1.708336633990 -1.219170717444
H  -2.281330705922  3.011456944200 -0.298596976992
H  -3.751832572393 -0.355015749779  0.332680615860
H  -2.603736433048 -0.969770864256 -1.782273447077
H  -2.100863354351 -2.503599606523 -1.060558254461
H  -3.816533497205 -2.147700450139 -1.254056002823
H  -4.183290566037 -2.525581509719  1.297425371921
H  -2.465557238229 -2.850557238518  1.535592918406
H  -3.251209632061 -1.561290160565  2.454019811816
