      -----------------------------------------------------------      
     |                   =====================                   |     
     |                           x T B                           |     
     |                   =====================                   |     
     |                         S. Grimme                         |     
     |          Mulliken Center for Theoretical Chemistry        |     
     |                    University of Bonn                     |     
      -----------------------------------------------------------      

   * xtb version 6.7.1 (edcfbbe) compiled by 'conda@5dfe00f5fb80' on 2026-06-10

   xtb is free software: you can redistribute it and/or modify it under
   the terms of the GNU Lesser General Public License as published by
   the Free Software Foundation, either version 3 of the License, or
   (at your option) any later version.
   
   xtb is distributed in the hope that it will be useful,
   but WITHOUT ANY WARRANTY; without even the implied warranty of
   MERCHANTABILITY or FITNESS FOR A PARTICULAR PURPOSE.  See the
   GNU Lesser General Public License for more details.
   
   Cite this work as:
   * C. Bannwarth, E. Caldeweyher, S. Ehlert, A. Hansen, P. Pracht,
     J. Seibert, S. Spicher, S. Grimme, WIREs Comput. Mol. Sci., 2020, 11,
     e01493. DOI: 10.1002/wcms.1493
   
   for GFN2-xTB:
   * C. Bannwarth, S. Ehlert and S. Grimme., J. Chem. Theory Comput., 2019,
     15, 1652-1671. DOI: 10.1021/acs.jctc.8b01176
   for GFN1-xTB:
   * S. Grimme, C. Bannwarth, P. Shushkov, J. Chem. Theory Comput., 2017,
     13, 1989-2009. DOI: 10.1021/acs.jctc.7b00118
   for GFN0-xTB:
   * P. Pracht, E. Caldeweyher, S. Ehlert, S. Grimme, ChemRxiv, 2019, preprint.
     DOI: 10.26434/chemrxiv.8326202.v1
   for GFN-FF:
   * S. Spicher and S. Grimme, Angew. Chem. Int. Ed., 2020, 59, 15665-15673.
     DOI: 10.1002/anie.202004239
   
   for ALPB and GBSA implicit solvation:
   * S. Ehlert, M. Stahn, S. Spicher, S. Grimme, J. Chem. Theory Comput.,
     2021, 17, 4250-4261. DOI: 10.1021/acs.jctc.1c00471
   
   for ddCOSMO and CPCM-X implicit solvation:
   * M. Stahn, S. Ehlert, S. Grimme, J. Phys. Chem. A,
     2023, XX, XXXX-XXXX. DOI: 10.1021/acs.jpca.3c04382
   
   for DFT-D4:
   * E. Caldeweyher, C. Bannwarth and S. Grimme, J. Chem. Phys., 2017,
     147, 034112. DOI: 10.1063/1.4993215
   * E. Caldeweyher, S. Ehlert, A. Hansen, H. Neugebauer, S. Spicher,
     C. Bannwarth and S. Grimme, J. Chem. Phys., 2019, 150, 154122.
     DOI: 10.1063/1.5090222
   * E. Caldeweyher, J.-M. Mewes, S. Ehlert and S. Grimme, Phys. Chem. Chem. Phys.
     2020, 22, 8499-8512. DOI: 10.1039/D0CP00502A
   
   for sTDA-xTB:
   * S. Grimme and C. Bannwarth, J. Chem. Phys., 2016, 145, 054103.
     DOI: 10.1063/1.4959605
   
   in the mass-spec context:
   * V. Asgeirsson, C. Bauer and S. Grimme, Chem. Sci., 2017, 8, 4879.
     DOI: 10.1039/c7sc00601b
   * J. Koopman and S. Grimme, ACS Omega 2019, 4, 12, 15120-15133.
     DOI: 10.1021/acsomega.9b02011
   
   for metadynamics refer to:
   * S. Grimme, J. Chem. Theory Comput., 2019, 155, 2847-2862
     DOI: 10.1021/acs.jctc.9b00143
   
   for SPH calculations refer to:
   * S. Spicher and S. Grimme, J. Chem. Theory Comput., 2021, 17, 1701-1714
     DOI: 10.1021/acs.jctc.0c01306
   
   for ONIOM refer to:
   * C. Plett, A. Katbashev, S. Ehlert, S. Grimme, M. Bursch,
     Phys. Chem. Chem. Phys., 2023, 25, 17860-17868. DOI: 10.1039/D3CP02178E
   
   for DIPRO refer to:
   * J. Kohn, N. Gildemeister, S. Grimme, D. Fazzi, A. Hansen,
     J. Chem. Phys., 2023, just accepted.
   
   for PTB refer to:
   * S. Grimme, M. Mueller, A. Hansen, J. Chem. Phys., 2023, 158, 124111.
     DOI: 10.1063/5.0137838
   
   with help from (in alphabetical order)
   P. Atkinson, C. Bannwarth, F. Bohle, G. Brandenburg, E. Caldeweyher
   M. Checinski, S. Dohm, S. Ehlert, S. Ehrlich, I. Gerasimov, C. Hölzer
   A. Katbashev, J. Kohn, J. Koopman, C. Lavigne, S. Lehtola, F. März, M. Müller,
   F. Musil, H. Neugebauer, J. Pisarek, C. Plett, P. Pracht, F. Pultar,
   J. Seibert, P. Shushkov, S. Spicher, M. Stahn, M. Steiner, T. Strunk,
   J. Stückrath, T. Rose, and J. Unsleber
   
 * started run on 2026/07/09 at 20:26:15.703     
   ID    Z sym.   atoms
    1    6 C      1, 2, 4, 6-8, 11, 12
    2    8 O      3, 5, 9, 10
    3    1 H      13-26

           -------------------------------------------------
          |                Calculation Setup                |
           -------------------------------------------------

          program call               : /home/ws/xd2484/miniforge3/envs/p3z_dft/bin/xtb xtb_input.xyz --gfn 2 --opt tight --cycles 500 --chrg 0 --uhf 0
          hostname                   : gpu10
          coordinate file            : xtb_input.xyz
          omp threads                :                    16


           -------------------------------------------------
          |                 G F N 2 - x T B                 |
           -------------------------------------------------

        Reference                      10.1021/acs.jctc.8b01176
      * Hamiltonian:
        H0-scaling (s, p, d)           1.850000    2.230000    2.230000
        zeta-weighting                 0.500000
      * Dispersion:
        s8                             2.700000
        a1                             0.520000
        a2                             5.000000
        s9                             5.000000
      * Repulsion:
        kExp                           1.500000    1.000000
        rExp                           1.000000
      * Coulomb:
        alpha                          2.000000
        third order                    shell-resolved
        anisotropic                    true
        a3                             3.000000
        a5                             4.000000
        cn-shift                       1.200000
        cn-exp                         4.000000
        max-rad                        5.000000


          ...................................................
          :                      SETUP                      :
          :.................................................:
          :  # basis functions                  62          :
          :  # atomic orbitals                  62          :
          :  # shells                           38          :
          :  # electrons                        70          :
          :  max. iterations                   250          :
          :  Hamiltonian                  GFN2-xTB          :
          :  restarted?                      false          :
          :  GBSA solvation                  false          :
          :  PC potential                    false          :
          :  electronic temp.          300.0000000     K    :
          :  accuracy                    1.0000000          :
          :  -> integral cutoff          0.2500000E+02      :
          :  -> integral neglect         0.1000000E-07      :
          :  -> SCF convergence          0.1000000E-05 Eh   :
          :  -> wf. convergence          0.1000000E-03 e    :
          :  Broyden damping             0.4000000          :
          :  net charge                          0          :
          :  unpaired electrons                  0          :
          ...................................................

 iter      E             dE          RMSdq      gap      omega  full diag
   1    -40.8523806 -0.408524E+02  0.436E+00    5.73       0.0  T
   2    -40.9506577 -0.982771E-01  0.222E+00    4.59       1.0  T
   3    -40.9563342 -0.567649E-02  0.130E+00    5.08       1.0  T
   4    -40.9618827 -0.554851E-02  0.160E-01    4.79       1.0  T
   5    -40.9622080 -0.325307E-03  0.680E-02    4.85       1.0  T
   6    -40.9622123 -0.434617E-05  0.225E-02    4.85       1.0  T
   7    -40.9622138 -0.148025E-05  0.677E-03    4.85       2.9  T
   8    -40.9622140 -0.136865E-06  0.183E-03    4.85      10.7  T
   9    -40.9622140 -0.804353E-08  0.862E-04    4.85      22.8  T
  10    -40.9622140 -0.357434E-08  0.237E-04    4.85      82.6  T

   *** convergence criteria satisfied after 10 iterations ***

         #    Occupation            Energy/Eh            Energy/eV
      -------------------------------------------------------------
         1        2.0000           -0.7368481             -20.0507
       ...           ...                  ...                  ...
        29        2.0000           -0.4668879             -12.7047
        30        2.0000           -0.4639486             -12.6247
        31        2.0000           -0.4478760             -12.1873
        32        2.0000           -0.4435989             -12.0709
        33        2.0000           -0.4365752             -11.8798
        34        2.0000           -0.4203072             -11.4371
        35        2.0000           -0.4153291             -11.3017 (HOMO)
        36                         -0.2372587              -6.4561 (LUMO)
        37                         -0.2362729              -6.4293
        38                         -0.0061852              -0.1683
        39                          0.0059457               0.1618
        40                          0.0945285               2.5723
       ...                                ...                  ...
        62                          0.5988221              16.2948
      -------------------------------------------------------------
                  HL-Gap            0.1780705 Eh            4.8455 eV
             Fermi-level           -0.3262939 Eh           -8.8789 eV

 SCC (total)                   0 d,  0 h,  0 min,  0.406 sec
 SCC setup                      ...        0 min,  0.002 sec (  0.428%)
 Dispersion                     ...        0 min,  0.007 sec (  1.820%)
 classical contributions        ...        0 min,  0.004 sec (  1.080%)
 integral evaluation            ...        0 min,  0.009 sec (  2.170%)
 iterations                     ...        0 min,  0.342 sec ( 84.094%)
 molecular gradient             ...        0 min,  0.042 sec ( 10.353%)
 printout                       ...        0 min,  0.000 sec (  0.046%)

         :::::::::::::::::::::::::::::::::::::::::::::::::::::
         ::                     SUMMARY                     ::
         :::::::::::::::::::::::::::::::::::::::::::::::::::::
         :: total energy             -40.562200843124 Eh    ::
         :: gradient norm              0.074692589249 Eh/a0 ::
         :: HOMO-LUMO gap              4.845544144819 eV    ::
         ::.................................................::
         :: SCC energy               -40.962231630889 Eh    ::
         :: -> isotropic ES            0.090959250944 Eh    ::
         :: -> anisotropic ES          0.001579444033 Eh    ::
         :: -> anisotropic XC          0.007704698095 Eh    ::
         :: -> dispersion             -0.017088689800 Eh    ::
         :: repulsion energy           0.400030787765 Eh    ::
         :: add. restraining           0.000000000000 Eh    ::
         :: total charge               0.000000000000 e     ::
         :::::::::::::::::::::::::::::::::::::::::::::::::::::

      ----------------------------------------------------------- 
     |                   =====================                   |
     |                        A N C O P T                        |
     |                   =====================                   |
     |               Approximate Normal Coordinate               |
     |                Rational Function Optimizer                |
      ----------------------------------------------------------- 
      ----------------------------------------------------------- 
     |                   =====================                   |
     |                        A N C O P T                        |
     |                   =====================                   |
     |               Approximate Normal Coordinate               |
     |                Rational Function Optimizer                |
      ----------------------------------------------------------- 

          ...................................................
          :                      SETUP                      :
          :.................................................:
          :   optimization level             tight          :
          :   max. optcycles                   500          :
          :   ANC micro-cycles                  20          :
          :   degrees of freedom                72          :
          :.................................................:
          :   RF solver                   davidson          :
          :   write xtbopt.log                true          :
          :   linear?                        false          :
          :   energy convergence         0.1000000E-05 Eh   :
          :   grad. convergence          0.8000000E-03 Eh/α :
          :   maxmium RF displ.          1.0000000          :
          :   Hlow (freq-cutoff)         0.1000000E-01      :
          :   Hmax (freq-cutoff)         5.0000000          :
          :   S6 in model hess.         20.0000000          :
          ...................................................

generating ANC from exact Hessian ...
Using Lindh-Hessian (1995)
 Shifting diagonal of input Hessian by    9.6039726954748397E-003
 Lowest  eigenvalues of input Hessian
    0.000000    0.000000    0.000000    0.000000    0.000000    0.000000
    0.010000    0.010737    0.011095    0.012286    0.013334    0.015247
    0.016356    0.017865    0.019098    0.023002    0.024530    0.032863
 Highest eigenvalues
    1.284648    1.339154    1.680429    1.692855    2.250219    2.251688


........................................................................
.............................. CYCLE    1 ..............................
........................................................................

 iter      E             dE          RMSdq      gap      omega  full diag
   1    -40.9622140 -0.409622E+02  0.104E-04    4.85       0.0  T
   2    -40.9622140 -0.255369E-10  0.619E-05    4.85     316.9  T
   3    -40.9622140 -0.182609E-11  0.319E-05    4.85     615.4  T
     SCC iter.                  ...        0 min,  0.098 sec
     gradient                   ...        0 min,  0.036 sec
 * total energy  :   -40.5622008 Eh     change       -0.4740173E-09 Eh
   gradient norm :     0.0746941 Eh/α   predicted     0.0000000E+00 (-100.00%)
   displ. norm   :     0.1440181 α      lambda       -0.7035275E-02
   maximum displ.:     0.0681069 α      in ANC's #50, #54, #30, ...

........................................................................
.............................. CYCLE    2 ..............................
........................................................................

 iter      E             dE          RMSdq      gap      omega  full diag
   1    -40.9866245 -0.409866E+02  0.173E-01    5.10       0.0  T
   2    -40.9867229 -0.984412E-04  0.106E-01    5.06       1.0  T
   3    -40.9867257 -0.281589E-05  0.497E-02    5.08       1.0  T
   4    -40.9867396 -0.138658E-04  0.578E-03    5.07       3.4  T
   5    -40.9867397 -0.867216E-07  0.358E-03    5.07       5.5  T
   6    -40.9867397 -0.269178E-07  0.939E-04    5.07      20.9  T
   7    -40.9867397 -0.114989E-08  0.307E-04    5.07      64.0  T
     SCC iter.                  ...        0 min,  0.150 sec
     gradient                   ...        0 min,  0.027 sec
 * total energy  :   -40.5664795 Eh     change       -0.4278697E-02 Eh
   gradient norm :     0.0178069 Eh/α   predicted    -0.3590690E-02 ( -16.08%)
   displ. norm   :     0.0846243 α      lambda       -0.6472531E-03
   maximum displ.:     0.0303091 α      in ANC's #10, #6, #8, ...

........................................................................
.............................. CYCLE    3 ..............................
........................................................................

 iter      E             dE          RMSdq      gap      omega  full diag
   1    -40.9922393 -0.409922E+02  0.587E-02    5.13       0.0  T
   2    -40.9922569 -0.176433E-04  0.343E-02    5.12       1.0  T
   3    -40.9922582 -0.128313E-05  0.177E-02    5.12       1.1  T
   4    -40.9922590 -0.817375E-06  0.249E-03    5.12       7.9  T
   5    -40.9922591 -0.504509E-07  0.120E-03    5.12      16.3  T
   6    -40.9922591 -0.238455E-08  0.302E-04    5.12      64.9  T
   7    -40.9922591 -0.216289E-09  0.127E-04    5.12     154.6  T
     SCC iter.                  ...        0 min,  0.074 sec
     gradient                   ...        0 min,  0.035 sec
 * total energy  :   -40.5668501 Eh     change       -0.3705117E-03 Eh
   gradient norm :     0.0077274 Eh/α   predicted    -0.3260203E-03 ( -12.01%)
   displ. norm   :     0.0538494 α      lambda       -0.7547752E-04
   maximum displ.:     0.0245274 α      in ANC's #8, #1, #6, ...

........................................................................
.............................. CYCLE    4 ..............................
........................................................................

 iter      E             dE          RMSdq      gap      omega  full diag
   1    -40.9923013 -0.409923E+02  0.201E-02    5.12       0.0  T
   2    -40.9923061 -0.484688E-05  0.111E-02    5.12       1.8  T
   3    -40.9923063 -0.110230E-06  0.641E-03    5.12       3.1  T
   4    -40.9923062  0.842469E-08  0.153E-03    5.12      12.8  T
   5    -40.9923063 -0.333771E-07  0.314E-04    5.12      62.5  T
   6    -40.9923063 -0.221050E-09  0.120E-04    5.12     163.9  T
     SCC iter.                  ...        0 min,  0.420 sec
     gradient                   ...        0 min,  0.097 sec
 * total energy  :   -40.5669055 Eh     change       -0.5546624E-04 Eh
   gradient norm :     0.0032080 Eh/α   predicted    -0.3948335E-04 ( -28.82%)
   displ. norm   :     0.0681902 α      lambda       -0.4470227E-04
   maximum displ.:     0.0358913 α      in ANC's #1, #8, #5, ...

........................................................................
.............................. CYCLE    5 ..............................
........................................................................

 iter      E             dE          RMSdq      gap      omega  full diag
   1    -40.9919648 -0.409920E+02  0.193E-02    5.12       0.0  T
   2    -40.9919680 -0.321258E-05  0.107E-02    5.11       1.8  T
   3    -40.9919681 -0.627782E-07  0.574E-03    5.11       3.4  T
   4    -40.9919681 -0.281644E-08  0.122E-03    5.11      16.1  T
   5    -40.9919681 -0.225263E-07  0.286E-04    5.11      68.7  T
   6    -40.9919681 -0.152156E-09  0.947E-05    5.11     207.1  T
     SCC iter.                  ...        0 min,  0.315 sec
     gradient                   ...        0 min,  0.063 sec
 * total energy  :   -40.5669343 Eh     change       -0.2878445E-04 Eh
   gradient norm :     0.0014746 Eh/α   predicted    -0.2247765E-04 ( -21.91%)
   displ. norm   :     0.0758828 α      lambda       -0.1576429E-04
   maximum displ.:     0.0475317 α      in ANC's #1, #8, #5, ...

........................................................................
.............................. CYCLE    6 ..............................
........................................................................

 iter      E             dE          RMSdq      gap      omega  full diag
   1    -40.9917875 -0.409918E+02  0.178E-02    5.11       0.0  T
   2    -40.9917882 -0.630597E-06  0.103E-02    5.11       1.9  T
   3    -40.9917882 -0.217069E-08  0.306E-03    5.11       6.4  T
   4    -40.9917882 -0.253397E-07  0.622E-04    5.11      31.5  T
   5    -40.9917882 -0.525813E-08  0.261E-04    5.11      75.2  T
     SCC iter.                  ...        0 min,  0.158 sec
     gradient                   ...        0 min,  0.063 sec
 * total energy  :   -40.5669486 Eh     change       -0.1425768E-04 Eh
   gradient norm :     0.0021780 Eh/α   predicted    -0.7945461E-05 ( -44.27%)
   displ. norm   :     0.0307514 α      lambda       -0.8502745E-05
   maximum displ.:     0.0214268 α      in ANC's #1, #8, #2, ...

........................................................................
.............................. CYCLE    7 ..............................
........................................................................

 iter      E             dE          RMSdq      gap      omega  full diag
   1    -40.9918974 -0.409919E+02  0.990E-03    5.11       0.0  T
   2    -40.9918974 -0.538349E-07  0.584E-03    5.11       3.4  T
   3    -40.9918974 -0.187621E-08  0.644E-04    5.11      30.5  T
   4    -40.9918974 -0.217200E-08  0.196E-04    5.11     100.2  T
     SCC iter.                  ...        0 min,  0.073 sec
     gradient                   ...        0 min,  0.061 sec
 * total energy  :   -40.5669556 Eh     change       -0.6999618E-05 Eh
   gradient norm :     0.0012170 Eh/α   predicted    -0.4274261E-05 ( -38.94%)
   displ. norm   :     0.0843656 α      lambda       -0.1199116E-04
   maximum displ.:     0.0585454 α      in ANC's #1, #2, #8, ...

........................................................................
.............................. CYCLE    8 ..............................
........................................................................

 iter      E             dE          RMSdq      gap      omega  full diag
   1    -40.9920954 -0.409921E+02  0.261E-02    5.11       0.0  T
   2    -40.9920959 -0.438660E-06  0.154E-02    5.12       1.3  T
   3    -40.9920959 -0.496062E-08  0.215E-03    5.11       9.1  T
   4    -40.9920959 -0.311202E-07  0.645E-04    5.12      30.4  T
   5    -40.9920959 -0.341200E-08  0.333E-04    5.12      59.0  T
     SCC iter.                  ...        0 min,  0.198 sec
     gradient                   ...        0 min,  0.041 sec
 * total energy  :   -40.5669658 Eh     change       -0.1022825E-04 Eh
   gradient norm :     0.0016004 Eh/α   predicted    -0.6016941E-05 ( -41.17%)
   displ. norm   :     0.0423451 α      lambda       -0.4462658E-05
   maximum displ.:     0.0308229 α      in ANC's #1, #2, #8, ...

........................................................................
.............................. CYCLE    9 ..............................
........................................................................

 iter      E             dE          RMSdq      gap      omega  full diag
   1    -40.9920481 -0.409920E+02  0.130E-02    5.12       0.0  T
   2    -40.9920482 -0.110374E-06  0.761E-03    5.11       2.6  T
   3    -40.9920482 -0.555575E-08  0.100E-03    5.11      19.6  T
   4    -40.9920482 -0.461824E-08  0.326E-04    5.11      60.2  T
   5    -40.9920482 -0.608260E-09  0.194E-04    5.11     101.0  T
     SCC iter.                  ...        0 min,  0.125 sec
     gradient                   ...        0 min,  0.058 sec
 * total energy  :   -40.5669713 Eh     change       -0.5484818E-05 Eh
   gradient norm :     0.0010550 Eh/α   predicted    -0.2235890E-05 ( -59.23%)
   displ. norm   :     0.0642460 α      lambda       -0.6836944E-05
   maximum displ.:     0.0464303 α      in ANC's #1, #2, #10, ...

........................................................................
.............................. CYCLE   10 ..............................
........................................................................

 iter      E             dE          RMSdq      gap      omega  full diag
   1    -40.9919921 -0.409920E+02  0.178E-02    5.11       0.0  T
   2    -40.9919923 -0.231202E-06  0.105E-02    5.11       1.9  T
   3    -40.9919923 -0.161679E-07  0.138E-03    5.11      14.2  T
   4    -40.9919923 -0.628769E-08  0.451E-04    5.11      43.4  T
   5    -40.9919923 -0.636476E-09  0.269E-04    5.11      72.8  T
     SCC iter.                  ...        0 min,  0.276 sec
     gradient                   ...        0 min,  0.036 sec
 * total energy  :   -40.5669788 Eh     change       -0.7487590E-05 Eh
   gradient norm :     0.0005350 Eh/α   predicted    -0.3428582E-05 ( -54.21%)
   displ. norm   :     0.0653676 α      lambda       -0.4718387E-05
   maximum displ.:     0.0473963 α      in ANC's #1, #2, #10, ...

........................................................................
.............................. CYCLE   11 ..............................
........................................................................

 iter      E             dE          RMSdq      gap      omega  full diag
   1    -40.9918841 -0.409919E+02  0.178E-02    5.11       0.0  T
   2    -40.9918842 -0.140239E-06  0.104E-02    5.11       1.9  T
   3    -40.9918842 -0.114875E-07  0.111E-03    5.11      17.6  T
   4    -40.9918843 -0.771124E-08  0.432E-04    5.11      45.4  T
   5    -40.9918843 -0.774882E-09  0.255E-04    5.11      76.8  T
     SCC iter.                  ...        0 min,  0.125 sec
     gradient                   ...        0 min,  0.056 sec
 * total energy  :   -40.5669847 Eh     change       -0.5941241E-05 Eh
   gradient norm :     0.0009696 Eh/α   predicted    -0.2364685E-05 ( -60.20%)
   displ. norm   :     0.0818994 α      lambda       -0.5813478E-05
   maximum displ.:     0.0589344 α      in ANC's #1, #2, #10, ...

........................................................................
.............................. CYCLE   12 ..............................
........................................................................

 iter      E             dE          RMSdq      gap      omega  full diag
   1    -40.9918889 -0.409919E+02  0.200E-02    5.11       0.0  T
   2    -40.9918890 -0.105473E-06  0.118E-02    5.11       1.7  T
   3    -40.9918890 -0.314287E-08  0.131E-03    5.11      15.0  T
   4    -40.9918890 -0.213897E-07  0.479E-04    5.11      41.0  T
   5    -40.9918890 -0.680728E-09  0.258E-04    5.11      76.1  T
     SCC iter.                  ...        0 min,  0.074 sec
     gradient                   ...        0 min,  0.041 sec
 * total energy  :   -40.5669924 Eh     change       -0.7660636E-05 Eh
   gradient norm :     0.0009043 Eh/α   predicted    -0.2916767E-05 ( -61.93%)
   displ. norm   :     0.1129763 α      lambda       -0.7776573E-05
   maximum displ.:     0.0805191 α      in ANC's #1, #2, #10, ...

........................................................................
.............................. CYCLE   13 ..............................
........................................................................

 iter      E             dE          RMSdq      gap      omega  full diag
   1    -40.9918338 -0.409918E+02  0.262E-02    5.11       0.0  T
   2    -40.9918339 -0.101914E-06  0.155E-02    5.10       1.3  T
   3    -40.9918339 -0.908849E-08  0.141E-03    5.10      13.9  T
   4    -40.9918339 -0.251124E-07  0.577E-04    5.10      34.0  T
   5    -40.9918339 -0.611408E-09  0.244E-04    5.10      80.4  T
     SCC iter.                  ...        0 min,  0.114 sec
     gradient                   ...        0 min,  0.048 sec
 * total energy  :   -40.5670023 Eh     change       -0.9920633E-05 Eh
   gradient norm :     0.0006691 Eh/α   predicted    -0.3912916E-05 ( -60.56%)
   displ. norm   :     0.1367633 α      lambda       -0.8440591E-05
   maximum displ.:     0.0963417 α      in ANC's #1, #2, #7, ...

........................................................................
.............................. CYCLE   14 ..............................
........................................................................

 iter      E             dE          RMSdq      gap      omega  full diag
   1    -40.9918512 -0.409919E+02  0.304E-02    5.10       0.0  T
   2    -40.9918513 -0.137772E-06  0.181E-02    5.10       1.1  T
   3    -40.9918513  0.158586E-07  0.196E-03    5.10      10.0  T
   4    -40.9918513 -0.611111E-07  0.644E-04    5.10      30.5  T
   5    -40.9918513 -0.646430E-09  0.211E-04    5.10      92.9  T
     SCC iter.                  ...        0 min,  0.069 sec
     gradient                   ...        0 min,  0.042 sec
 * total energy  :   -40.5670125 Eh     change       -0.1018961E-04 Eh
   gradient norm :     0.0007063 Eh/α   predicted    -0.4256428E-05 ( -58.23%)
   displ. norm   :     0.1492940 α      lambda       -0.8469767E-05
   maximum displ.:     0.1049752 α      in ANC's #1, #2, #6, ...

........................................................................
.............................. CYCLE   15 ..............................
........................................................................

 iter      E             dE          RMSdq      gap      omega  full diag
   1    -40.9918398 -0.409918E+02  0.344E-02    5.10       0.0  T
   2    -40.9918400 -0.156952E-06  0.204E-02    5.10       1.0  T
   3    -40.9918399  0.232105E-07  0.211E-03    5.10       9.3  T
   4    -40.9918400 -0.741484E-07  0.665E-04    5.10      29.5  T
   5    -40.9918400 -0.720860E-09  0.239E-04    5.10      82.1  T
     SCC iter.                  ...        0 min,  0.078 sec
     gradient                   ...        0 min,  0.042 sec
 * total energy  :   -40.5670225 Eh     change       -0.1002298E-04 Eh
   gradient norm :     0.0009388 Eh/α   predicted    -0.4281742E-05 ( -57.28%)
   displ. norm   :     0.1276903 α      lambda       -0.7115887E-05
   maximum displ.:     0.0890614 α      in ANC's #1, #2, #6, ...

........................................................................
.............................. CYCLE   16 ..............................
........................................................................

 iter      E             dE          RMSdq      gap      omega  full diag
   1    -40.9918910 -0.409919E+02  0.301E-02    5.10       0.0  T
   2    -40.9918911 -0.116069E-06  0.179E-02    5.09       1.1  T
   3    -40.9918911  0.856248E-08  0.169E-03    5.10      11.6  T
   4    -40.9918912 -0.461559E-07  0.576E-04    5.10      34.1  T
   5    -40.9918912 -0.626066E-09  0.225E-04    5.10      87.2  T
     SCC iter.                  ...        0 min,  0.072 sec
     gradient                   ...        0 min,  0.032 sec
 * total energy  :   -40.5670317 Eh     change       -0.9220463E-05 Eh
   gradient norm :     0.0007555 Eh/α   predicted    -0.3587492E-05 ( -61.09%)
   displ. norm   :     0.1451770 α      lambda       -0.8119671E-05
   maximum displ.:     0.1007041 α      in ANC's #1, #2, #4, ...

........................................................................
.............................. CYCLE   17 ..............................
........................................................................

 iter      E             dE          RMSdq      gap      omega  full diag
   1    -40.9919726 -0.409920E+02  0.372E-02    5.09       0.0  T
   2    -40.9919728 -0.208483E-06  0.222E-02    5.09       1.0  T
   3    -40.9919728  0.308503E-07  0.242E-03    5.09       8.1  T
   4    -40.9919729 -0.996810E-07  0.756E-04    5.09      26.0  T
   5    -40.9919729 -0.994625E-09  0.295E-04    5.09      66.5  T
     SCC iter.                  ...        0 min,  0.068 sec
     gradient                   ...        0 min,  0.042 sec
 * total energy  :   -40.5670419 Eh     change       -0.1021621E-04 Eh
   gradient norm :     0.0006934 Eh/α   predicted    -0.4100332E-05 ( -59.86%)
   displ. norm   :     0.1443130 α      lambda       -0.7068127E-05
   maximum displ.:     0.1008385 α      in ANC's #1, #2, #4, ...

........................................................................
.............................. CYCLE   18 ..............................
........................................................................

 iter      E             dE          RMSdq      gap      omega  full diag
   1    -40.9918796 -0.409919E+02  0.387E-02    5.09       0.0  T
   2    -40.9918798 -0.197829E-06  0.231E-02    5.09       1.0  T
   3    -40.9918799 -0.183341E-07  0.189E-03    5.09      10.4  T
   4    -40.9918799 -0.489912E-07  0.798E-04    5.09      24.6  T
   5    -40.9918799 -0.137724E-08  0.346E-04    5.09      56.7  T
     SCC iter.                  ...        0 min,  0.072 sec
     gradient                   ...        0 min,  0.040 sec
 * total energy  :   -40.5670503 Eh     change       -0.8392261E-05 Eh
   gradient norm :     0.0004763 Eh/α   predicted    -0.3569348E-05 ( -57.47%)
   displ. norm   :     0.1119348 α      lambda       -0.4473259E-05
   maximum displ.:     0.0790691 α      in ANC's #1, #2, #8, ...

........................................................................
.............................. CYCLE   19 ..............................
........................................................................

 iter      E             dE          RMSdq      gap      omega  full diag
   1    -40.9920166 -0.409920E+02  0.315E-02    5.09       0.0  T
   2    -40.9920167 -0.148422E-06  0.188E-02    5.09       1.0  T
   3    -40.9920167  0.113653E-07  0.202E-03    5.09       9.7  T
   4    -40.9920168 -0.669399E-07  0.702E-04    5.09      27.9  T
   5    -40.9920168 -0.755989E-09  0.240E-04    5.09      81.7  T
     SCC iter.                  ...        0 min,  0.077 sec
     gradient                   ...        0 min,  0.042 sec
 * total energy  :   -40.5670556 Eh     change       -0.5267083E-05 Eh
   gradient norm :     0.0004164 Eh/α   predicted    -0.2249763E-05 ( -57.29%)
   displ. norm   :     0.0867217 α      lambda       -0.2877888E-05
   maximum displ.:     0.0621008 α      in ANC's #1, #2, #8, ...

........................................................................
.............................. CYCLE   20 ..............................
........................................................................

 iter      E             dE          RMSdq      gap      omega  full diag
   1    -40.9920073 -0.409920E+02  0.242E-02    5.09       0.0  T
   2    -40.9920074 -0.590039E-07  0.144E-02    5.09       1.4  T
   3    -40.9920074 -0.112849E-07  0.112E-03    5.09      17.6  T
   4    -40.9920074 -0.158632E-07  0.518E-04    5.09      37.9  T
   5    -40.9920074 -0.422148E-09  0.139E-04    5.09     140.9  T
     SCC iter.                  ...        0 min,  0.071 sec
     gradient                   ...        0 min,  0.042 sec
 * total energy  :   -40.5670590 Eh     change       -0.3416974E-05 Eh
   gradient norm :     0.0004254 Eh/α   predicted    -0.1446427E-05 ( -57.67%)
   displ. norm   :     0.0688420 α      lambda       -0.1891318E-05
   maximum displ.:     0.0498525 α      in ANC's #1, #2, #3, ...
 * RMSD in coord.:     0.2941645 α      energy gain  -0.4858166E-02 Eh

generating ANC from exact Hessian ...
Using Lindh-Hessian (1995)
 Shifting diagonal of input Hessian by    9.5969529768327160E-003
 Lowest  eigenvalues of input Hessian
    0.000000    0.000000    0.000000    0.000000    0.000000    0.000000
    0.010000    0.010821    0.011162    0.012462    0.013524    0.015464
    0.016475    0.018166    0.019744    0.023938    0.024892    0.034524
 Highest eigenvalues
    1.294967    1.347258    1.790537    1.800601    2.366798    2.369202


........................................................................
.............................. CYCLE   21 ..............................
........................................................................

 iter      E             dE          RMSdq      gap      omega  full diag
   1    -40.9920673 -0.409921E+02  0.187E-02    5.09       0.0  T
   2    -40.9920674 -0.493107E-07  0.112E-02    5.08       1.8  T
   3    -40.9920674 -0.338907E-08  0.103E-03    5.09      19.1  T
   4    -40.9920674 -0.147918E-07  0.415E-04    5.09      47.2  T
   5    -40.9920674 -0.318778E-09  0.165E-04    5.09     118.8  T
     SCC iter.                  ...        0 min,  0.062 sec
     gradient                   ...        0 min,  0.035 sec
 * total energy  :   -40.5670611 Eh     change       -0.2137273E-05 Eh
   gradient norm :     0.0002600 Eh/α   predicted     0.0000000E+00 (-100.00%)
   displ. norm   :     0.0062518 α      lambda       -0.2907371E-06
   maximum displ.:     0.0036867 α      in ANC's #1, #6, #9, ...

........................................................................
.............................. CYCLE   22 ..............................
........................................................................

 iter      E             dE          RMSdq      gap      omega  full diag
   1    -40.9921239 -0.409921E+02  0.199E-03    5.09       0.0  T
   2    -40.9921239 -0.241130E-08  0.118E-03    5.09      16.7  T
   3    -40.9921239  0.128580E-09  0.199E-04    5.09      98.5  T
   4    -40.9921239 -0.509871E-09  0.525E-05    5.09     373.4  T
     SCC iter.                  ...        0 min,  0.058 sec
     gradient                   ...        0 min,  0.058 sec
 * total energy  :   -40.5670616 Eh     change       -0.4045112E-06 Eh
   gradient norm :     0.0001058 Eh/α   predicted    -0.1674587E-06 ( -58.60%)
   displ. norm   :     0.0186535 α      lambda       -0.6699826E-06
   maximum displ.:     0.0107381 α      in ANC's #1, #6, #9, ...

   *** GEOMETRY OPTIMIZATION CONVERGED AFTER 22 ITERATIONS ***

------------------------------------------------------------------------
 total energy gain   :        -0.0048607 Eh       -3.0501 kcal/mol
 total RMSD          :         0.2946741 a0        0.1559 Å
 total power (kW/mol):        -0.5800813 (step)   -2.6706 (real)
------------------------------------------------------------------------

 ANCopt (total)                0 d,  0 h,  0 min,  4.779 sec
 optimizer setup                ...        0 min,  0.001 sec (  0.012%)
 model hessian                  ...        0 min,  0.012 sec (  0.261%)
 ANC generation                 ...        0 min,  0.057 sec (  1.189%)
 coordinate transformation      ...        0 min,  0.000 sec (  0.005%)
 single point calculation       ...        0 min,  4.595 sec ( 96.149%)
 optimization log               ...        0 min,  0.003 sec (  0.059%)
 hessian update                 ...        0 min,  0.106 sec (  2.211%)
 rational function              ...        0 min,  0.002 sec (  0.037%)

================
 final structure:
================
26
 xtb: 6.7.1 (edcfbbe)
C           -4.40996197442156        0.53359236223197       -0.68613807611981
C           -3.47462349552072       -0.61028528845502       -0.32110473904644
O           -2.56623580253148       -0.23150535597111        0.71547335047510
C           -1.45745518299114        0.41100484917810        0.34943698965632
O           -1.17652839252447        0.69252656609603       -0.78538120850188
C           -0.60857727608706        0.74788695310566        1.56007318433373
C            0.82841118678383        1.02159289233099        1.13545506741879
C            1.44117931861542       -0.22305342882378        0.52401309638669
O            1.00132381916744       -1.33668965612197        0.63762028290091
O            2.55183719176298        0.07400426454612       -0.14796736198002
C            3.22500057261551       -1.01588599873733       -0.78435826470332
C            4.48782134059271       -0.48399278711328       -1.43455980335966
H           -5.12586969463979        0.19586628602089       -1.42991298580759
H           -3.83931404482543        1.36240725921295       -1.09783697255943
H           -4.94726590412479        0.87632906462467        0.19496500817268
H           -4.02869058972138       -1.45919666176469        0.08413875194228
H           -2.89809617123336       -0.92384612722946       -1.19717092610831
H           -0.65733034121788       -0.09233922615422        2.25261873565434
H           -1.04074333311439        1.62453956883794        2.04617772980468
H            1.43677630439136        1.31911055341581        1.99127217157071
H            0.86742261031237        1.81686402568554        0.39060392535009
H            3.45176737207152       -1.77911750738799       -0.03126945600648
H            2.55011250042076       -1.45882085950037       -1.52490188597661
H            5.01510992021325       -1.29615678929185       -1.92638633068368
H            4.23680274661153        0.27524732964435       -2.16995449052255
H            5.13712731939523       -0.04008228838026       -0.68477645037857

 Bond Distances (Angstroems)
 ---------------------------
C1-C2=1.5220         C1-H13=1.0862        C1-H14=1.0872        C1-H15=1.0874        C2-C1=1.5220         C2-O3=1.4294         
C2-H16=1.0917        C2-H17=1.0946        O3-C2=1.4294         O3-C4=1.3327         C4-O3=1.3327         C4-O5=1.2025         
C4-C6=1.5165         O5-C4=1.2025         C6-C4=1.5165         C6-C7=1.5232         C6-H18=1.0899        C6-H19=1.0916        
C7-C6=1.5232         C7-C8=1.5161         C7-H20=1.0914        C7-H21=1.0903        C8-C7=1.5161         C8-O9=1.2027         
C8-O10=1.3317        O9-C8=1.2027         O10-C8=1.3317        O10-C11=1.4304       C11-O10=1.4304       C11-C12=1.5167       
C11-H22=1.0959       C11-H23=1.0955       C12-C11=1.5167       C12-H24=1.0861       C12-H25=1.0864       C12-H26=1.0867       
H13-C1=1.0862        H14-C1=1.0872        H15-C1=1.0874        H16-C2=1.0917        H17-C2=1.0946        H18-C6=1.0899        
H19-C6=1.0916        H20-C7=1.0914        H21-C7=1.0903        H22-C11=1.0959       H23-C11=1.0955       H24-C12=1.0861       
H25-C12=1.0864       H26-C12=1.0867       
 C  H  Rav=1.0901 sigma=0.0034  Rmin=1.0861  Rmax=1.0959    14
 C  C  Rav=1.5189 sigma=0.0031  Rmin=1.5161  Rmax=1.5232     5
 O  C  Rav=1.3216 sigma=0.0931  Rmin=1.2025  Rmax=1.4304     6

 selected bond angles (degree)
 --------------------
H13-C1-C2=109.61               H14-C1-C2=109.95               H14-C1-H13=108.89              H15-C1-C2=110.25               
H15-C1-H13=109.10              H15-C1-H14=109.02              O3-C2-C1=111.43                H16-C2-C1=111.19               
H16-C2-O3=105.03               H17-C2-C1=110.30               H17-C2-O3=108.76               H17-C2-H16=109.98              
C4-O3-C2=117.21                O5-C4-O3=124.50                C6-C4-O3=110.70                C6-C4-O5=124.79                
C7-C6-C4=110.21                H18-C6-C4=108.12               H18-C6-C7=110.97               H19-C6-C4=108.20               
H19-C6-C7=110.69               H19-C6-H18=108.57              C8-C7-C6=110.26                H20-C7-C6=110.87               
H20-C7-C8=108.35               H21-C7-C6=110.81               H21-C7-C8=107.99               H21-C7-H20=108.48              
O9-C8-C7=125.05                O10-C8-C7=110.95               O10-C8-O9=124.00               C11-O10-C8=116.55              

 selected dihedral angles (degree)
 ---------------------------------
O3-C2-C1-H13=183.51           O3-C2-C1-H14= 63.85           O3-C2-C1-H15=303.62           H16-C2-C1-H13=300.32          
H16-C2-C1-H14=180.66          H16-C2-C1-H15= 60.43          H17-C2-C1-H13= 62.61          H17-C2-C1-H14=302.95          
H17-C2-C1-H15=182.72          C4-O3-C2-C1=275.82            C4-O3-C2-H16=155.32           C4-O3-C2-H17= 37.62           
O5-C4-O3-C2=  0.18            C6-C4-O3-C2=179.66            C7-C6-C4-O3=160.20            C7-C6-C4-O5=339.67            
H18-C6-C4-O3= 38.75           H18-C6-C4-O5=218.23           H19-C6-C4-O3=281.35           H19-C6-C4-O5=100.83           
C8-C7-C6-C4=296.85            C8-C7-C6-H18= 56.59           C8-C7-C6-H19=177.20           H20-C7-C6-C4=176.87           
H20-C7-C6-H18=296.60          H20-C7-C6-H19= 57.21          H21-C7-C6-C4= 56.35           H21-C7-C6-H18=176.08          
H21-C7-C6-H19=296.70          O9-C8-C7-C6=343.53            O9-C8-C7-H20=105.03           O9-C8-C7-H21=222.33           
O10-C8-C7-C6=164.38           O10-C8-C7-H20=285.88          O10-C8-C7-H21= 43.19          C11-O10-C8-C7=180.45          
C11-O10-C8-O9=  1.29          
           -------------------------------------------------
          |                Final Singlepoint                |
           -------------------------------------------------

          ...................................................
          :                      SETUP                      :
          :.................................................:
          :  # basis functions                  62          :
          :  # atomic orbitals                  62          :
          :  # shells                           38          :
          :  # electrons                        70          :
          :  max. iterations                   250          :
          :  Hamiltonian                  GFN2-xTB          :
          :  restarted?                      false          :
          :  GBSA solvation                  false          :
          :  PC potential                    false          :
          :  electronic temp.          300.0000000     K    :
          :  accuracy                    1.0000000          :
          :  -> integral cutoff          0.2500000E+02      :
          :  -> integral neglect         0.1000000E-07      :
          :  -> SCF convergence          0.1000000E-05 Eh   :
          :  -> wf. convergence          0.1000000E-03 e    :
          :  Broyden damping             0.4000000          :
          :  net charge                          0          :
          :  unpaired electrons                  0          :
          ...................................................

 iter      E             dE          RMSdq      gap      omega  full diag
   1    -40.9921239 -0.409921E+02  0.312E-05    5.09       0.0  T
   2    -40.9921239 -0.179057E-11  0.188E-05    5.09    1043.2  T
   3    -40.9921239 -0.220268E-12  0.880E-06    5.09    2229.4  T

   *** convergence criteria satisfied after 3 iterations ***

         #    Occupation            Energy/Eh            Energy/eV
      -------------------------------------------------------------
         1        2.0000           -0.7406744             -20.1548
       ...           ...                  ...                  ...
        29        2.0000           -0.4661682             -12.6851
        30        2.0000           -0.4613387             -12.5537
        31        2.0000           -0.4477380             -12.1836
        32        2.0000           -0.4431668             -12.0592
        33        2.0000           -0.4364973             -11.8777
        34        2.0000           -0.4172658             -11.3544
        35        2.0000           -0.4118334             -11.2066 (HOMO)
        36                         -0.2249429              -6.1210 (LUMO)
        37                         -0.2228324              -6.0636
        38                         -0.0006013              -0.0164
        39                          0.0067598               0.1839
        40                          0.1020645               2.7773
       ...                                ...                  ...
        62                          0.6654056              18.1066
      -------------------------------------------------------------
                  HL-Gap            0.1868906 Eh            5.0856 eV
             Fermi-level           -0.3183882 Eh           -8.6638 eV

 SCC (total)                   0 d,  0 h,  0 min,  0.140 sec
 SCC setup                      ...        0 min,  0.006 sec (  4.262%)
 Dispersion                     ...        0 min,  0.010 sec (  7.378%)
 classical contributions        ...        0 min,  0.006 sec (  4.178%)
 integral evaluation            ...        0 min,  0.018 sec ( 13.070%)
 iterations                     ...        0 min,  0.056 sec ( 39.862%)
 molecular gradient             ...        0 min,  0.044 sec ( 31.138%)
 printout                       ...        0 min,  0.000 sec (  0.093%)

         :::::::::::::::::::::::::::::::::::::::::::::::::::::
         ::                     SUMMARY                     ::
         :::::::::::::::::::::::::::::::::::::::::::::::::::::
         :: total energy             -40.567061551321 Eh    ::
         :: gradient norm              0.000106137292 Eh/a0 ::
         :: HOMO-LUMO gap              5.085551919289 eV    ::
         ::.................................................::
         :: SCC energy               -40.992125060965 Eh    ::
         :: -> isotropic ES            0.091521140360 Eh    ::
         :: -> anisotropic ES          0.000068162137 Eh    ::
         :: -> anisotropic XC          0.006241290409 Eh    ::
         :: -> dispersion             -0.017328590636 Eh    ::
         :: repulsion energy           0.425063509644 Eh    ::
         :: add. restraining           0.000000000000 Eh    ::
         :: total charge               0.000000000000 e     ::
         :::::::::::::::::::::::::::::::::::::::::::::::::::::

           -------------------------------------------------
          |                Property Printout                |
           -------------------------------------------------

    * Orbital Energies and Occupations

         #    Occupation            Energy/Eh            Energy/eV
      -------------------------------------------------------------
         1        2.0000           -0.7406744             -20.1548
       ...           ...                  ...                  ...
        23        2.0000           -0.4937641             -13.4360
        24        2.0000           -0.4892507             -13.3132
        25        2.0000           -0.4816778             -13.1071
        26        2.0000           -0.4770696             -12.9817
        27        2.0000           -0.4728630             -12.8673
        28        2.0000           -0.4696883             -12.7809
        29        2.0000           -0.4661682             -12.6851
        30        2.0000           -0.4613387             -12.5537
        31        2.0000           -0.4477380             -12.1836
        32        2.0000           -0.4431668             -12.0592
        33        2.0000           -0.4364973             -11.8777
        34        2.0000           -0.4172658             -11.3544
        35        2.0000           -0.4118334             -11.2066 (HOMO)
        36                         -0.2249429              -6.1210 (LUMO)
        37                         -0.2228324              -6.0636
        38                         -0.0006013              -0.0164
        39                          0.0067598               0.1839
        40                          0.1020645               2.7773
        41                          0.1075805               2.9274
        42                          0.1134429               3.0869
        43                          0.1179435               3.2094
        44                          0.1322018               3.5974
        45                          0.1446611               3.9364
        46                          0.1475427               4.0148
       ...                                ...                  ...
        62                          0.6654056              18.1066
      -------------------------------------------------------------
                  HL-Gap            0.1868906 Eh            5.0856 eV
             Fermi-level           -0.3183882 Eh           -8.6638 eV

     #   Z          covCN         q      C6AA      α(0)
     1   6 C        3.750    -0.115    22.761     6.804
     2   6 C        3.700     0.078    19.435     6.305
     3   8 O        1.704    -0.263    18.364     5.786
     4   6 C        2.718     0.365    20.803     7.466
     5   8 O        0.856    -0.413    21.934     6.279
     6   6 C        3.806    -0.089    22.190     6.706
     7   6 C        3.806    -0.088    22.181     6.705
     8   6 C        2.721     0.362    20.852     7.475
     9   8 O        0.856    -0.414    21.961     6.283
    10   8 O        1.704    -0.263    18.356     5.784
    11   6 C        3.702     0.084    19.333     6.287
    12   6 C        3.751    -0.116    22.791     6.808
    13   1 H        0.925     0.051     2.311     2.377
    14   1 H        0.925     0.060     2.204     2.322
    15   1 H        0.925     0.052     2.296     2.370
    16   1 H        0.924     0.058     2.221     2.331
    17   1 H        0.924     0.060     2.197     2.318
    18   1 H        0.925     0.084     1.938     2.177
    19   1 H        0.924     0.072     2.063     2.246
    20   1 H        0.924     0.072     2.062     2.246
    21   1 H        0.924     0.085     1.923     2.169
    22   1 H        0.924     0.051     2.306     2.375
    23   1 H        0.924     0.054     2.271     2.357
    24   1 H        0.925     0.053     2.278     2.360
    25   1 H        0.925     0.061     2.187     2.313
    26   1 H        0.925     0.058     2.222     2.331

 Mol. C6AA /au·bohr⁶  :       5666.068979
 Mol. C8AA /au·bohr⁸  :     122441.432407
 Mol. α(0) /au        :        110.979247


Wiberg/Mayer (AO) data.
largest (>0.10) Wiberg bond orders for each atom

 ---------------------------------------------------------------------------
     #   Z sym  total        # sym  WBO       # sym  WBO       # sym  WBO
 ---------------------------------------------------------------------------
     1   6 C    3.992 --     2 C    1.013    15 H    0.986    14 H    0.985
                            13 H    0.984
     2   6 C    3.925 --     1 C    1.013    16 H    0.972    17 H    0.969
                             3 O    0.936
     3   8 O    2.312 --     4 C    1.144     2 C    0.936     5 O    0.173
     4   6 C    3.918 --     5 O    1.752     3 O    1.144     6 C    0.966
     5   8 O    2.037 --     4 C    1.752     3 O    0.173
     6   6 C    3.994 --     7 C    1.009     4 C    0.966    18 H    0.962
                            19 H    0.952
     7   6 C    3.994 --     6 C    1.009     8 C    0.966    21 H    0.960
                            20 H    0.952
     8   6 C    3.918 --     9 O    1.752    10 O    1.145     7 C    0.966
     9   8 O    2.035 --     8 C    1.752    10 O    0.174
    10   8 O    2.309 --     8 C    1.145    11 C    0.934     9 O    0.174
    11   6 C    3.926 --    12 C    1.020    22 H    0.969    23 H    0.969
                            10 O    0.934
    12   6 C    3.991 --    11 C    1.020    26 H    0.985    25 H    0.985
                            24 H    0.984
    13   1 H    0.997 --     1 C    0.984
    14   1 H    0.996 --     1 C    0.985
    15   1 H    0.997 --     1 C    0.986
    16   1 H    0.996 --     2 C    0.972
    17   1 H    0.996 --     2 C    0.969
    18   1 H    0.993 --     6 C    0.962
    19   1 H    0.994 --     6 C    0.952
    20   1 H    0.994 --     7 C    0.952
    21   1 H    0.993 --     7 C    0.960
    22   1 H    0.997 --    11 C    0.969
    23   1 H    0.997 --    11 C    0.969
    24   1 H    0.996 --    12 C    0.984
    25   1 H    0.996 --    12 C    0.985
    26   1 H    0.997 --    12 C    0.985
 ---------------------------------------------------------------------------

Topologies differ in total number of bonds
Writing topology from bond orders to xtbtopo.mol

molecular dipole:
                 x           y           z       tot (Debye)
 q only:        0.117       0.408       0.197
   full:        0.111       0.421       0.312       1.362
molecular quadrupole (traceless):
                xx          xy          yy          xz          yz          zz
 q only:       13.502      -0.024      -8.381      -2.536       6.050      -5.122
  q+dip:       11.278      -0.440      -7.502      -1.337       6.489      -3.775
   full:       11.976      -0.961      -7.719      -1.125       6.838      -4.258

           -------------------------------------------------
          |                Geometry Summary                 |
           -------------------------------------------------

      molecular mass/u    :      174.1946774
   center of mass at/Å    :       -0.0143093      -0.0449359       0.0442384
  moments of inertia/u·Å² :        0.2281043E+03   0.1339718E+04   0.1402306E+04
rotational constants/cm⁻¹ :        0.7390317E-01   0.1258297E-01   0.1202137E-01

 * 23 selected distances

     #   Z          #   Z                                           value/Å
     1   6 C        2   6 C                                       1.5220263
     2   6 C        3   8 O                                       1.4293834
     3   8 O        4   6 C                                       1.3327403
     4   6 C        5   8 O                                       1.2024920
     6   6 C        7   6 C                                       1.5232044 (max)
     8   6 C        9   8 O                                       1.2027325
     8   6 C       10   8 O                                       1.3316765
    10   8 O       11   6 C                                       1.4303858
    11   6 C       12   6 C                                       1.5167034
     1   6 C       13   1 H                                       1.0861787
     1   6 C       14   1 H                                       1.0872301
     1   6 C       15   1 H                                       1.0874313
     2   6 C       16   1 H                                       1.0917250
     2   6 C       17   1 H                                       1.0946216
     6   6 C       18   1 H                                       1.0899433
     6   6 C       19   1 H                                       1.0915975
     7   6 C       20   1 H                                       1.0913515
     7   6 C       21   1 H                                       1.0903126
    11   6 C       22   1 H                                       1.0959418
    11   6 C       23   1 H                                       1.0954772
    12   6 C       24   1 H                                       1.0860650 (min)
    12   6 C       25   1 H                                       1.0863984
    12   6 C       26   1 H                                       1.0866601

 * 3 distinct bonds (by element types)

   Z      Z             #   av. dist./Å        max./Å        min./Å
   1 H    6 C          14     1.0900667     1.0959418     1.0860650
   6 C    6 C           3     1.5206447     1.5232044     1.5167034
   6 C    8 O           6     1.3215684     1.4303858     1.2024920


optimized geometry written to: xtbopt.xyz


           -------------------------------------------------
          | TOTAL ENERGY              -40.567061551321 Eh   |
          | GRADIENT NORM               0.000106137292 Eh/α |
          | HOMO-LUMO GAP               5.085551919289 eV   |
           -------------------------------------------------

------------------------------------------------------------------------
 * finished run on 2026/07/09 at 20:26:21.193     
------------------------------------------------------------------------
 total:
 * wall-time:     0 d,  0 h,  0 min,  5.490 sec
 *  cpu-time:     0 d,  0 h,  1 min, 24.480 sec
 * ratio c/w:    15.388 speedup
 SCF:
 * wall-time:     0 d,  0 h,  0 min,  0.406 sec
 *  cpu-time:     0 d,  0 h,  0 min,  6.143 sec
 * ratio c/w:    15.116 speedup
 ANC optimizer:
 * wall-time:     0 d,  0 h,  0 min,  4.944 sec
 *  cpu-time:     0 d,  0 h,  1 min, 16.618 sec
 * ratio c/w:    15.497 speedup

