19
DEC_00039 MMFF geometry for GFN2-xTB preoptimization
C  -2.445037993673  1.012259980805 -0.331999162236
C  -1.362470983049 -0.056961582636 -0.358127439954
O  -1.750600744479 -1.085935080572  0.549192780664
C   0.003081419010  0.521338732287  0.037382806150
C   1.143144697666 -0.485166923599 -0.167393184864
C   2.479972842719  0.099356762418  0.268751659736
O   0.876026143613 -1.664399734450  0.593209135618
H  -2.222497329757  1.821965992638 -1.033498680080
H  -2.552872750676  1.436877129497  0.672268708792
H  -3.416097607542  0.579483841600 -0.596059372236
H  -1.312416284878 -0.494629975876 -1.361319163745
H  -0.938269869503 -1.602089352710  0.743855794210
H  -0.032211162483  0.804276010446  1.097656671020
H   0.210515740581  1.424609080636 -0.548498195895
H   1.195292838175 -0.774898357510 -1.222911060769
H   2.473541430897  0.337053784709  1.338171628059
H   3.284926720516 -0.627074320576  0.113484241558
H   2.719329452254  1.007490701528 -0.292692619994
H   1.646643440608 -2.253556688635  0.498525453966
