28
DEC_00376 MMFF geometry for GFN2-xTB preoptimization
C  -1.237566679002  2.220005856812 -2.243377971450
C  -0.701946108147  0.934494284040 -1.630482838462
C  -1.370589742811  0.641459061823 -0.281292277550
C  -0.924440407228 -0.678738316641  0.373888638611
C  -1.479482155616 -1.905453868385 -0.338719296562
C  -1.069878230938 -3.263850195077  0.178042567340
O  -2.284854674535 -1.820324828222 -1.268426632631
C   0.574205403722 -0.714569813920  0.554494155739
O   1.337817876083 -1.473775476739 -0.024344379722
O   0.958248207070  0.221495758828  1.469332971632
C   2.372297573903  0.282662961049  1.696227514109
C   2.641302511987  1.378534153251  2.708735015254
H  -1.053884009145  3.074901800201 -1.584790007548
H  -2.314935574825  2.149344860457 -2.423873794779
H  -0.745202268107  2.416961416941 -3.200848932815
H   0.381784552064  1.033424530493 -1.502780030301
H  -0.870659623477  0.110817057160 -2.331898528246
H  -2.460372641100  0.632710759491 -0.411596532048
H  -1.151198354599  1.472029706429  0.402354405921
H  -1.369211277453 -0.722867295572  1.378186102769
H  -0.959387937030 -3.235216812600  1.265123947793
H  -1.850194504420 -3.991941951459 -0.062350234823
H  -0.134371280636 -3.576493856358 -0.289810354632
H   2.724601420914 -0.678277570796  2.087318920437
H   2.887983735596  0.511823529959  0.756953572171
H   2.114571080425  1.174431010741  3.646811809796
H   3.711616562375  1.464347059654  2.915873826800
H   2.273746544932  2.342066178441  2.340430662780
