16
 energy: -24.118672789571 gnorm: 0.000107994530 xtb: 6.7.1 (edcfbbe)
C           -2.26167398181377       -0.68305344030649        0.18888535560282
C           -1.10203980387610        0.07981801959688       -0.43894242791542
C            0.19132066813741       -0.14078414295408        0.34223063422974
C            1.35841444439948        0.62506881003303       -0.28697069972756
N            2.56525118698036        0.36701751628162        0.51412431555430
O            2.78223451450826        1.10910615741446        1.44083521283709
O            3.23479255431478       -0.59045859291037        0.21159454352131
H           -2.05466838897344       -1.75049358655053        0.20155987912166
H           -3.17479759800951       -0.51712043392778       -0.37671329524449
H           -2.42665013801676       -0.35352702487305        1.21193746947143
H           -1.33606271855446        1.14610353670166       -0.45904461528662
H           -0.96385830646032       -0.25169987532297       -1.47002796504482
H            0.05694865930869        0.19556921451680        1.37275994222440
H            0.43029626483456       -1.20652350985028        0.35867258052620
H            1.53998201455959        0.27294282995104       -1.30366080133625
H            1.16051062866124        1.69803452220206       -0.27293818777878
