      -----------------------------------------------------------      
     |                   =====================                   |     
     |                           x T B                           |     
     |                   =====================                   |     
     |                         S. Grimme                         |     
     |          Mulliken Center for Theoretical Chemistry        |     
     |                    University of Bonn                     |     
      -----------------------------------------------------------      

   * xtb version 6.7.1 (edcfbbe) compiled by 'conda@5dfe00f5fb80' on 2026-06-10

   xtb is free software: you can redistribute it and/or modify it under
   the terms of the GNU Lesser General Public License as published by
   the Free Software Foundation, either version 3 of the License, or
   (at your option) any later version.
   
   xtb is distributed in the hope that it will be useful,
   but WITHOUT ANY WARRANTY; without even the implied warranty of
   MERCHANTABILITY or FITNESS FOR A PARTICULAR PURPOSE.  See the
   GNU Lesser General Public License for more details.
   
   Cite this work as:
   * C. Bannwarth, E. Caldeweyher, S. Ehlert, A. Hansen, P. Pracht,
     J. Seibert, S. Spicher, S. Grimme, WIREs Comput. Mol. Sci., 2020, 11,
     e01493. DOI: 10.1002/wcms.1493
   
   for GFN2-xTB:
   * C. Bannwarth, S. Ehlert and S. Grimme., J. Chem. Theory Comput., 2019,
     15, 1652-1671. DOI: 10.1021/acs.jctc.8b01176
   for GFN1-xTB:
   * S. Grimme, C. Bannwarth, P. Shushkov, J. Chem. Theory Comput., 2017,
     13, 1989-2009. DOI: 10.1021/acs.jctc.7b00118
   for GFN0-xTB:
   * P. Pracht, E. Caldeweyher, S. Ehlert, S. Grimme, ChemRxiv, 2019, preprint.
     DOI: 10.26434/chemrxiv.8326202.v1
   for GFN-FF:
   * S. Spicher and S. Grimme, Angew. Chem. Int. Ed., 2020, 59, 15665-15673.
     DOI: 10.1002/anie.202004239
   
   for ALPB and GBSA implicit solvation:
   * S. Ehlert, M. Stahn, S. Spicher, S. Grimme, J. Chem. Theory Comput.,
     2021, 17, 4250-4261. DOI: 10.1021/acs.jctc.1c00471
   
   for ddCOSMO and CPCM-X implicit solvation:
   * M. Stahn, S. Ehlert, S. Grimme, J. Phys. Chem. A,
     2023, XX, XXXX-XXXX. DOI: 10.1021/acs.jpca.3c04382
   
   for DFT-D4:
   * E. Caldeweyher, C. Bannwarth and S. Grimme, J. Chem. Phys., 2017,
     147, 034112. DOI: 10.1063/1.4993215
   * E. Caldeweyher, S. Ehlert, A. Hansen, H. Neugebauer, S. Spicher,
     C. Bannwarth and S. Grimme, J. Chem. Phys., 2019, 150, 154122.
     DOI: 10.1063/1.5090222
   * E. Caldeweyher, J.-M. Mewes, S. Ehlert and S. Grimme, Phys. Chem. Chem. Phys.
     2020, 22, 8499-8512. DOI: 10.1039/D0CP00502A
   
   for sTDA-xTB:
   * S. Grimme and C. Bannwarth, J. Chem. Phys., 2016, 145, 054103.
     DOI: 10.1063/1.4959605
   
   in the mass-spec context:
   * V. Asgeirsson, C. Bauer and S. Grimme, Chem. Sci., 2017, 8, 4879.
     DOI: 10.1039/c7sc00601b
   * J. Koopman and S. Grimme, ACS Omega 2019, 4, 12, 15120-15133.
     DOI: 10.1021/acsomega.9b02011
   
   for metadynamics refer to:
   * S. Grimme, J. Chem. Theory Comput., 2019, 155, 2847-2862
     DOI: 10.1021/acs.jctc.9b00143
   
   for SPH calculations refer to:
   * S. Spicher and S. Grimme, J. Chem. Theory Comput., 2021, 17, 1701-1714
     DOI: 10.1021/acs.jctc.0c01306
   
   for ONIOM refer to:
   * C. Plett, A. Katbashev, S. Ehlert, S. Grimme, M. Bursch,
     Phys. Chem. Chem. Phys., 2023, 25, 17860-17868. DOI: 10.1039/D3CP02178E
   
   for DIPRO refer to:
   * J. Kohn, N. Gildemeister, S. Grimme, D. Fazzi, A. Hansen,
     J. Chem. Phys., 2023, just accepted.
   
   for PTB refer to:
   * S. Grimme, M. Mueller, A. Hansen, J. Chem. Phys., 2023, 158, 124111.
     DOI: 10.1063/5.0137838
   
   with help from (in alphabetical order)
   P. Atkinson, C. Bannwarth, F. Bohle, G. Brandenburg, E. Caldeweyher
   M. Checinski, S. Dohm, S. Ehlert, S. Ehrlich, I. Gerasimov, C. Hölzer
   A. Katbashev, J. Kohn, J. Koopman, C. Lavigne, S. Lehtola, F. März, M. Müller,
   F. Musil, H. Neugebauer, J. Pisarek, C. Plett, P. Pracht, F. Pultar,
   J. Seibert, P. Shushkov, S. Spicher, M. Stahn, M. Steiner, T. Strunk,
   J. Stückrath, T. Rose, and J. Unsleber
   
 * started run on 2026/07/08 at 21:42:01.356     
   ID    Z sym.   atoms
    1    6 C      1-8
    2    7 N      9
    3    1 H      10-22

           -------------------------------------------------
          |                Calculation Setup                |
           -------------------------------------------------

          program call               : /home/ws/xd2484/miniforge3/envs/p3z_dft/bin/xtb xtb_input.xyz --gfn 2 --opt tight --cycles 500 --chrg 0 --uhf 0
          hostname                   : gpu10
          coordinate file            : xtb_input.xyz
          omp threads                :                    16


           -------------------------------------------------
          |                 G F N 2 - x T B                 |
           -------------------------------------------------

        Reference                      10.1021/acs.jctc.8b01176
      * Hamiltonian:
        H0-scaling (s, p, d)           1.850000    2.230000    2.230000
        zeta-weighting                 0.500000
      * Dispersion:
        s8                             2.700000
        a1                             0.520000
        a2                             5.000000
        s9                             5.000000
      * Repulsion:
        kExp                           1.500000    1.000000
        rExp                           1.000000
      * Coulomb:
        alpha                          2.000000
        third order                    shell-resolved
        anisotropic                    true
        a3                             3.000000
        a5                             4.000000
        cn-shift                       1.200000
        cn-exp                         4.000000
        max-rad                        5.000000


          ...................................................
          :                      SETUP                      :
          :.................................................:
          :  # basis functions                  49          :
          :  # atomic orbitals                  49          :
          :  # shells                           31          :
          :  # electrons                        50          :
          :  max. iterations                   250          :
          :  Hamiltonian                  GFN2-xTB          :
          :  restarted?                      false          :
          :  GBSA solvation                  false          :
          :  PC potential                    false          :
          :  electronic temp.          300.0000000     K    :
          :  accuracy                    1.0000000          :
          :  -> integral cutoff          0.2500000E+02      :
          :  -> integral neglect         0.1000000E-07      :
          :  -> SCF convergence          0.1000000E-05 Eh   :
          :  -> wf. convergence          0.1000000E-03 e    :
          :  Broyden damping             0.4000000          :
          :  net charge                          0          :
          :  unpaired electrons                  0          :
          ...................................................

 iter      E             dE          RMSdq      gap      omega  full diag
   1    -27.0274549 -0.270275E+02  0.402E+00    3.97       0.0  T
   2    -27.0488856 -0.214307E-01  0.253E+00    3.90       1.0  T
   3    -27.0242982  0.245874E-01  0.178E+00    3.84       1.0  T
   4    -27.0702725 -0.459744E-01  0.420E-01    3.70       1.0  T
   5    -27.0716866 -0.141406E-02  0.108E-01    3.72       1.0  T
   6    -27.0717310 -0.444223E-04  0.358E-02    3.74       1.0  T
   7    -27.0717328 -0.173080E-05  0.157E-02    3.74       1.4  T
   8    -27.0717323  0.451204E-06  0.945E-03    3.74       2.3  T
   9    -27.0717337 -0.142368E-05  0.125E-03    3.74      17.1  T
  10    -27.0717337 -0.215889E-08  0.697E-04    3.74      30.6  T
  11    -27.0717337 -0.157991E-08  0.135E-04    3.74     157.6  T

   *** convergence criteria satisfied after 11 iterations ***

         #    Occupation            Energy/Eh            Energy/eV
      -------------------------------------------------------------
         1        2.0000           -0.6491226             -17.6635
       ...           ...                  ...                  ...
        19        2.0000           -0.4639777             -12.6255
        20        2.0000           -0.4538421             -12.3497
        21        2.0000           -0.4503354             -12.2542
        22        2.0000           -0.4474908             -12.1768
        23        2.0000           -0.4344264             -11.8213
        24        2.0000           -0.4115567             -11.1990
        25        2.0000           -0.3949534             -10.7472 (HOMO)
        26                         -0.2575753              -7.0090 (LUMO)
        27                         -0.2026572              -5.5146
        28                         -0.1376156              -3.7447
        29                          0.0468823               1.2757
        30                          0.0640942               1.7441
       ...                                ...                  ...
        49                          1.0911552              29.6918
      -------------------------------------------------------------
                  HL-Gap            0.1373781 Eh            3.7382 eV
             Fermi-level           -0.3262644 Eh           -8.8781 eV

 SCC (total)                   0 d,  0 h,  0 min,  0.265 sec
 SCC setup                      ...        0 min,  0.003 sec (  1.175%)
 Dispersion                     ...        0 min,  0.012 sec (  4.466%)
 classical contributions        ...        0 min,  0.006 sec (  2.206%)
 integral evaluation            ...        0 min,  0.020 sec (  7.683%)
 iterations                     ...        0 min,  0.188 sec ( 70.937%)
 molecular gradient             ...        0 min,  0.036 sec ( 13.463%)
 printout                       ...        0 min,  0.000 sec (  0.059%)

         :::::::::::::::::::::::::::::::::::::::::::::::::::::
         ::                     SUMMARY                     ::
         :::::::::::::::::::::::::::::::::::::::::::::::::::::
         :: total energy             -26.629908798849 Eh    ::
         :: gradient norm              0.042145160392 Eh/a0 ::
         :: HOMO-LUMO gap              3.738249455437 eV    ::
         ::.................................................::
         :: SCC energy               -27.071654473504 Eh    ::
         :: -> isotropic ES            0.012289249714 Eh    ::
         :: -> anisotropic ES          0.006762839222 Eh    ::
         :: -> anisotropic XC          0.029693828169 Eh    ::
         :: -> dispersion             -0.015371086984 Eh    ::
         :: repulsion energy           0.441745674656 Eh    ::
         :: add. restraining           0.000000000000 Eh    ::
         :: total charge               0.000000000000 e     ::
         :::::::::::::::::::::::::::::::::::::::::::::::::::::

      ----------------------------------------------------------- 
     |                   =====================                   |
     |                        A N C O P T                        |
     |                   =====================                   |
     |               Approximate Normal Coordinate               |
     |                Rational Function Optimizer                |
      ----------------------------------------------------------- 
      ----------------------------------------------------------- 
     |                   =====================                   |
     |                        A N C O P T                        |
     |                   =====================                   |
     |               Approximate Normal Coordinate               |
     |                Rational Function Optimizer                |
      ----------------------------------------------------------- 

          ...................................................
          :                      SETUP                      :
          :.................................................:
          :   optimization level             tight          :
          :   max. optcycles                   500          :
          :   ANC micro-cycles                  20          :
          :   degrees of freedom                60          :
          :.................................................:
          :   RF solver                   davidson          :
          :   write xtbopt.log                true          :
          :   linear?                        false          :
          :   energy convergence         0.1000000E-05 Eh   :
          :   grad. convergence          0.8000000E-03 Eh/α :
          :   maxmium RF displ.          1.0000000          :
          :   Hlow (freq-cutoff)         0.1000000E-01      :
          :   Hmax (freq-cutoff)         5.0000000          :
          :   S6 in model hess.         20.0000000          :
          ...................................................

generating ANC from exact Hessian ...
Using Lindh-Hessian (1995)
 Shifting diagonal of input Hessian by    9.8894692204082504E-003
 Lowest  eigenvalues of input Hessian
    0.000000    0.000000    0.000000    0.000000    0.000000    0.010000
    0.000000    0.011460    0.012213    0.012917    0.013928    0.017420
    0.017499    0.020004    0.020507    0.022797    0.023823    0.031943
 Highest eigenvalues
    1.206223    1.213173    1.246187    1.415148    1.795496    2.518485


........................................................................
.............................. CYCLE    1 ..............................
........................................................................

 iter      E             dE          RMSdq      gap      omega  full diag
   1    -27.0717337 -0.270717E+02  0.510E-05    3.74       0.0  T
   2    -27.0717337  0.245137E-12  0.363E-05    3.74     587.9  T
   3    -27.0717337 -0.122000E-10  0.235E-05    3.74     909.1  T
     SCC iter.                  ...        0 min,  0.043 sec
     gradient                   ...        0 min,  0.041 sec
 * total energy  :   -26.6299088 Eh     change       -0.8838796E-10 Eh
   gradient norm :     0.0421459 Eh/α   predicted     0.0000000E+00 (-100.00%)
   displ. norm   :     0.2153721 α      lambda       -0.4670979E-02
   maximum displ.:     0.0961274 α      in ANC's #25, #11, #22, ...

........................................................................
.............................. CYCLE    2 ..............................
........................................................................

 iter      E             dE          RMSdq      gap      omega  full diag
   1    -27.0996951 -0.270997E+02  0.201E-01    3.84       0.0  T
   2    -27.0997009 -0.580890E-05  0.131E-01    3.84       1.0  T
   3    -27.0996449  0.560571E-04  0.895E-02    3.85       1.0  T
   4    -27.0997513 -0.106403E-03  0.594E-03    3.84       3.6  T
   5    -27.0997514 -0.147180E-06  0.354E-03    3.84       6.0  T
   6    -27.0997515 -0.656054E-07  0.204E-03    3.84      10.5  T
   7    -27.0997515 -0.449834E-07  0.303E-04    3.84      70.4  T
   8    -27.0997515 -0.464730E-09  0.117E-04    3.84     182.9  T
     SCC iter.                  ...        0 min,  0.123 sec
     gradient                   ...        0 min,  0.041 sec
 * total energy  :   -26.6326595 Eh     change       -0.2750732E-02 Eh
   gradient norm :     0.0148543 Eh/α   predicted    -0.2444287E-02 ( -11.14%)
   displ. norm   :     0.1414675 α      lambda       -0.6437888E-03
   maximum displ.:     0.0595628 α      in ANC's #6, #11, #1, ...

........................................................................
.............................. CYCLE    3 ..............................
........................................................................

 iter      E             dE          RMSdq      gap      omega  full diag
   1    -27.1043701 -0.271044E+02  0.123E-01    3.83       0.0  T
   2    -27.1043757 -0.559324E-05  0.750E-02    3.83       1.0  T
   3    -27.1043466  0.291668E-04  0.497E-02    3.84       1.0  T
   4    -27.1043864 -0.397965E-04  0.440E-03    3.84       4.8  T
   5    -27.1043864 -0.924591E-07  0.225E-03    3.84       9.5  T
   6    -27.1043865 -0.108738E-07  0.118E-03    3.84      18.1  T
   7    -27.1043865 -0.226773E-07  0.290E-04    3.84      73.6  T
   8    -27.1043865 -0.430560E-09  0.825E-05    3.84     258.6  T
     SCC iter.                  ...        0 min,  0.109 sec
     gradient                   ...        0 min,  0.034 sec
 * total energy  :   -26.6328994 Eh     change       -0.2398471E-03 Eh
   gradient norm :     0.0062811 Eh/α   predicted    -0.3283399E-03 (  36.90%)
   displ. norm   :     0.1748058 α      lambda       -0.5869298E-03
   maximum displ.:     0.0896349 α      in ANC's #4, #11, #12, ...

........................................................................
.............................. CYCLE    4 ..............................
........................................................................

 iter      E             dE          RMSdq      gap      omega  full diag
   1    -27.1053950 -0.271054E+02  0.214E-01    3.82       0.0  T
   2    -27.1054090 -0.139548E-04  0.121E-01    3.82       1.0  T
   3    -27.1053779  0.311352E-04  0.464E-02    3.83       1.0  T
   4    -27.1054178 -0.399231E-04  0.519E-03    3.83       4.1  T
   5    -27.1054179 -0.795045E-07  0.232E-03    3.83       9.2  T
   6    -27.1054179 -0.134305E-07  0.113E-03    3.83      18.9  T
   7    -27.1054179 -0.217146E-07  0.344E-04    3.83      61.9  T
   8    -27.1054179 -0.764320E-09  0.108E-04    3.83     197.6  T
     SCC iter.                  ...        0 min,  0.106 sec
     gradient                   ...        0 min,  0.041 sec
 * total energy  :   -26.6327634 Eh     change        0.1359768E-03 Eh
   gradient norm :     0.0162089 Eh/α   predicted    -0.3024350E-03 (-322.42%)
   displ. norm   :     0.0968652 α      lambda       -0.6094721E-03
   maximum displ.:     0.0471050 α      in ANC's #1, #11, #4, ...

........................................................................
.............................. CYCLE    5 ..............................
........................................................................

 iter      E             dE          RMSdq      gap      omega  full diag
   1    -27.1045848 -0.271046E+02  0.136E-01    3.84       0.0  T
   2    -27.1045919 -0.712099E-05  0.782E-02    3.83       1.0  T
   3    -27.1045675  0.244835E-04  0.406E-02    3.83       1.0  T
   4    -27.1045977 -0.302194E-04  0.397E-03    3.83       5.4  T
   5    -27.1045978 -0.920473E-07  0.180E-03    3.83      11.8  T
   6    -27.1045978 -0.113521E-07  0.498E-04    3.83      42.8  T
   7    -27.1045978 -0.219757E-08  0.258E-04    3.83      82.6  T
     SCC iter.                  ...        0 min,  0.134 sec
     gradient                   ...        0 min,  0.046 sec
 * total energy  :   -26.6330722 Eh     change       -0.3088109E-03 Eh
   gradient norm :     0.0021630 Eh/α   predicted    -0.3075981E-03 (  -0.39%)
   displ. norm   :     0.0377059 α      lambda       -0.2342774E-04
   maximum displ.:     0.0226803 α      in ANC's #1, #6, #2, ...

........................................................................
.............................. CYCLE    6 ..............................
........................................................................

 iter      E             dE          RMSdq      gap      omega  full diag
   1    -27.1037404 -0.271037E+02  0.205E-02    3.83       0.0  T
   2    -27.1037405 -0.119176E-06  0.116E-02    3.83       1.8  T
   3    -27.1037402  0.272378E-06  0.425E-03    3.83       5.0  T
   4    -27.1037406 -0.343415E-06  0.583E-04    3.83      36.6  T
   5    -27.1037406 -0.130437E-08  0.272E-04    3.83      78.4  T
     SCC iter.                  ...        0 min,  0.128 sec
     gradient                   ...        0 min,  0.052 sec
 * total energy  :   -26.6330922 Eh     change       -0.1999903E-04 Eh
   gradient norm :     0.0010337 Eh/α   predicted    -0.1173078E-04 ( -41.34%)
   displ. norm   :     0.2469337 α      lambda       -0.7333717E-04
   maximum displ.:     0.1464542 α      in ANC's #1, #6, #2, ...

........................................................................
.............................. CYCLE    7 ..............................
........................................................................

 iter      E             dE          RMSdq      gap      omega  full diag
   1    -27.1008811 -0.271009E+02  0.120E-01    3.82       0.0  T
   2    -27.1008850 -0.392524E-05  0.676E-02    3.82       1.0  T
   3    -27.1008830  0.203496E-05  0.145E-02    3.82       1.5  T
   4    -27.1008866 -0.363623E-05  0.359E-03    3.82       5.9  T
   5    -27.1008867 -0.645888E-07  0.144E-03    3.82      14.8  T
   6    -27.1008867  0.132363E-09  0.443E-04    3.82      48.1  T
   7    -27.1008867 -0.325374E-08  0.172E-04    3.82     123.9  T
     SCC iter.                  ...        0 min,  0.096 sec
     gradient                   ...        0 min,  0.040 sec
 * total energy  :   -26.6331420 Eh     change       -0.4974655E-04 Eh
   gradient norm :     0.0050640 Eh/α   predicted    -0.3766329E-04 ( -24.29%)
   displ. norm   :     0.0392107 α      lambda       -0.2602775E-04
   maximum displ.:     0.0198678 α      in ANC's #7, #1, #4, ...

........................................................................
.............................. CYCLE    8 ..............................
........................................................................

 iter      E             dE          RMSdq      gap      omega  full diag
   1    -27.1019825 -0.271020E+02  0.137E-02    3.82       0.0  T
   2    -27.1019826 -0.392271E-07  0.788E-03    3.82       2.7  T
   3    -27.1019825  0.106379E-06  0.259E-03    3.82       8.2  T
   4    -27.1019826 -0.126314E-06  0.496E-04    3.82      43.0  T
   5    -27.1019826 -0.138029E-08  0.214E-04    3.82      99.5  T
     SCC iter.                  ...        0 min,  0.060 sec
     gradient                   ...        0 min,  0.033 sec
 * total energy  :   -26.6331645 Eh     change       -0.2258139E-04 Eh
   gradient norm :     0.0030225 Eh/α   predicted    -0.1303687E-04 ( -42.27%)
   displ. norm   :     0.1853125 α      lambda       -0.7428422E-04
   maximum displ.:     0.0917862 α      in ANC's #7, #1, #2, ...

........................................................................
.............................. CYCLE    9 ..............................
........................................................................

 iter      E             dE          RMSdq      gap      omega  full diag
   1    -27.1040849 -0.271041E+02  0.668E-02    3.83       0.0  T
   2    -27.1040859 -0.937772E-06  0.380E-02    3.83       1.0  T
   3    -27.1040855  0.365710E-06  0.685E-03    3.83       3.1  T
   4    -27.1040863 -0.752265E-06  0.224E-03    3.83       9.5  T
   5    -27.1040863 -0.205460E-07  0.644E-04    3.83      33.1  T
   6    -27.1040863 -0.156985E-08  0.222E-04    3.83      95.9  T
     SCC iter.                  ...        0 min,  0.070 sec
     gradient                   ...        0 min,  0.034 sec
 * total energy  :   -26.6332101 Eh     change       -0.4555270E-04 Eh
   gradient norm :     0.0017066 Eh/α   predicted    -0.3842457E-04 ( -15.65%)
   displ. norm   :     0.1612505 α      lambda       -0.1620057E-04
   maximum displ.:     0.0776324 α      in ANC's #1, #7, #2, ...

........................................................................
.............................. CYCLE   10 ..............................
........................................................................

 iter      E             dE          RMSdq      gap      omega  full diag
   1    -27.1039787 -0.271040E+02  0.550E-02    3.83       0.0  T
   2    -27.1039794 -0.706324E-06  0.313E-02    3.83       1.0  T
   3    -27.1039789  0.518092E-06  0.681E-03    3.83       3.1  T
   4    -27.1039797 -0.840668E-06  0.180E-03    3.83      11.8  T
   5    -27.1039798 -0.951568E-08  0.472E-04    3.83      45.2  T
   6    -27.1039798 -0.540989E-09  0.261E-04    3.83      81.5  T
     SCC iter.                  ...        0 min,  0.085 sec
     gradient                   ...        0 min,  0.040 sec
 * total energy  :   -26.6332249 Eh     change       -0.1479764E-04 Eh
   gradient norm :     0.0018055 Eh/α   predicted    -0.8194476E-05 ( -44.62%)
   displ. norm   :     0.0734726 α      lambda       -0.1065664E-04
   maximum displ.:     0.0356328 α      in ANC's #2, #7, #6, ...

........................................................................
.............................. CYCLE   11 ..............................
........................................................................

 iter      E             dE          RMSdq      gap      omega  full diag
   1    -27.1040477 -0.271040E+02  0.229E-02    3.82       0.0  T
   2    -27.1040478 -0.126119E-06  0.132E-02    3.82       1.6  T
   3    -27.1040471  0.644779E-06  0.638E-03    3.82       3.3  T
   4    -27.1040479 -0.766514E-06  0.767E-04    3.82      27.8  T
   5    -27.1040479 -0.673534E-09  0.338E-04    3.82      63.0  T
     SCC iter.                  ...        0 min,  0.058 sec
     gradient                   ...        0 min,  0.028 sec
 * total energy  :   -26.6332370 Eh     change       -0.1212140E-04 Eh
   gradient norm :     0.0009451 Eh/α   predicted    -0.5342084E-05 ( -55.93%)
   displ. norm   :     0.1286948 α      lambda       -0.1579792E-04
   maximum displ.:     0.0653079 α      in ANC's #6, #2, #7, ...

........................................................................
.............................. CYCLE   12 ..............................
........................................................................

 iter      E             dE          RMSdq      gap      omega  full diag
   1    -27.1035482 -0.271035E+02  0.406E-02    3.82       0.0  T
   2    -27.1035484 -0.222673E-06  0.235E-02    3.82       1.0  T
   3    -27.1035463  0.208446E-05  0.115E-02    3.82       1.8  T
   4    -27.1035487 -0.241496E-05  0.124E-03    3.82      17.2  T
   5    -27.1035487  0.106144E-08  0.506E-04    3.82      42.1  T
   6    -27.1035487 -0.189236E-08  0.233E-04    3.82      91.6  T
     SCC iter.                  ...        0 min,  0.069 sec
     gradient                   ...        0 min,  0.034 sec
 * total energy  :   -26.6332527 Eh     change       -0.1570710E-04 Eh
   gradient norm :     0.0012276 Eh/α   predicted    -0.7959935E-05 ( -49.32%)
   displ. norm   :     0.0850305 α      lambda       -0.1260267E-04
   maximum displ.:     0.0381764 α      in ANC's #6, #4, #1, ...

........................................................................
.............................. CYCLE   13 ..............................
........................................................................

 iter      E             dE          RMSdq      gap      omega  full diag
   1    -27.1038634 -0.271039E+02  0.519E-02    3.82       0.0  T
   2    -27.1038640 -0.567341E-06  0.291E-02    3.82       1.0  T
   3    -27.1038631  0.858057E-06  0.788E-03    3.82       2.7  T
   4    -27.1038643 -0.115888E-05  0.130E-03    3.82      16.5  T
   5    -27.1038643 -0.413528E-08  0.580E-04    3.82      36.8  T
   6    -27.1038643  0.249276E-09  0.227E-04    3.82      94.1  T
     SCC iter.                  ...        0 min,  0.076 sec
     gradient                   ...        0 min,  0.036 sec
 * total energy  :   -26.6332641 Eh     change       -0.1135416E-04 Eh
   gradient norm :     0.0013777 Eh/α   predicted    -0.6322626E-05 ( -44.31%)
   displ. norm   :     0.0873440 α      lambda       -0.7900946E-05
   maximum displ.:     0.0498282 α      in ANC's #6, #9, #7, ...

........................................................................
.............................. CYCLE   14 ..............................
........................................................................

 iter      E             dE          RMSdq      gap      omega  full diag
   1    -27.1033454 -0.271033E+02  0.304E-02    3.82       0.0  T
   2    -27.1033455 -0.181111E-06  0.175E-02    3.82       1.2  T
   3    -27.1033454  0.166308E-06  0.388E-03    3.82       5.5  T
   4    -27.1033456 -0.240856E-06  0.101E-03    3.81      21.2  T
   5    -27.1033456 -0.353159E-08  0.375E-04    3.81      56.9  T
   6    -27.1033456 -0.721769E-10  0.633E-05    3.81     336.8  T
     SCC iter.                  ...        0 min,  0.073 sec
     gradient                   ...        0 min,  0.029 sec
 * total energy  :   -26.6332721 Eh     change       -0.8063869E-05 Eh
   gradient norm :     0.0015560 Eh/α   predicted    -0.3964525E-05 ( -50.84%)
   displ. norm   :     0.1027019 α      lambda       -0.1271357E-04
   maximum displ.:     0.0593992 α      in ANC's #4, #1, #6, ...

........................................................................
.............................. CYCLE   15 ..............................
........................................................................

 iter      E             dE          RMSdq      gap      omega  full diag
   1    -27.1035570 -0.271036E+02  0.448E-02    3.82       0.0  T
   2    -27.1035576 -0.534933E-06  0.253E-02    3.82       1.0  T
   3    -27.1035577 -0.101855E-06  0.281E-03    3.82       7.6  T
   4    -27.1035578 -0.100025E-06  0.147E-03    3.82      14.5  T
   5    -27.1035578 -0.149492E-07  0.235E-04    3.82      90.5  T
   6    -27.1035578 -0.404135E-09  0.114E-04    3.82     187.8  T
     SCC iter.                  ...        0 min,  0.078 sec
     gradient                   ...        0 min,  0.033 sec
 * total energy  :   -26.6332850 Eh     change       -0.1285991E-04 Eh
   gradient norm :     0.0014263 Eh/α   predicted    -0.6387605E-05 ( -50.33%)
   displ. norm   :     0.1420813 α      lambda       -0.1530872E-04
   maximum displ.:     0.0848875 α      in ANC's #4, #9, #6, ...

........................................................................
.............................. CYCLE   16 ..............................
........................................................................

 iter      E             dE          RMSdq      gap      omega  full diag
   1    -27.1031193 -0.271031E+02  0.380E-02    3.82       0.0  T
   2    -27.1031197 -0.393308E-06  0.222E-02    3.82       1.0  T
   3    -27.1031197 -0.162391E-07  0.260E-03    3.82       8.2  T
   4    -27.1031198 -0.374478E-07  0.155E-03    3.82      13.7  T
   5    -27.1031198 -0.333828E-07  0.698E-04    3.82      30.5  T
   6    -27.1031198 -0.251094E-08  0.107E-04    3.82     198.6  T
     SCC iter.                  ...        0 min,  0.058 sec
     gradient                   ...        0 min,  0.033 sec
 * total energy  :   -26.6332989 Eh     change       -0.1387451E-04 Eh
   gradient norm :     0.0031143 Eh/α   predicted    -0.7723882E-05 ( -44.33%)
   displ. norm   :     0.0993355 α      lambda       -0.2802590E-04
   maximum displ.:     0.0690886 α      in ANC's #4, #2, #1, ...

........................................................................
.............................. CYCLE   17 ..............................
........................................................................

 iter      E             dE          RMSdq      gap      omega  full diag
   1    -27.1035210 -0.271035E+02  0.401E-02    3.82       0.0  T
   2    -27.1035213 -0.297008E-06  0.227E-02    3.82       1.0  T
   3    -27.1035209  0.372716E-06  0.550E-03    3.82       3.9  T
   4    -27.1035215 -0.534446E-06  0.108E-03    3.82      19.8  T
   5    -27.1035215 -0.120019E-08  0.176E-04    3.82     121.3  T
   6    -27.1035215 -0.329514E-10  0.102E-04    3.82     208.9  T
     SCC iter.                  ...        0 min,  0.081 sec
     gradient                   ...        0 min,  0.040 sec
 * total energy  :   -26.6333194 Eh     change       -0.2050602E-04 Eh
   gradient norm :     0.0024430 Eh/α   predicted    -0.1415198E-04 ( -30.99%)
   displ. norm   :     0.1458747 α      lambda       -0.2989921E-04
   maximum displ.:     0.0978071 α      in ANC's #4, #7, #9, ...

........................................................................
.............................. CYCLE   18 ..............................
........................................................................

 iter      E             dE          RMSdq      gap      omega  full diag
   1    -27.1032309 -0.271032E+02  0.503E-02    3.81       0.0  T
   2    -27.1032313 -0.429121E-06  0.288E-02    3.81       1.0  T
   3    -27.1032313  0.358484E-08  0.331E-03    3.81       6.4  T
   4    -27.1032314 -0.129159E-06  0.178E-03    3.81      12.0  T
   5    -27.1032315 -0.293231E-07  0.653E-04    3.81      32.7  T
   6    -27.1032315 -0.853753E-09  0.109E-04    3.81     196.5  T
     SCC iter.                  ...        0 min,  0.091 sec
     gradient                   ...        0 min,  0.041 sec
 * total energy  :   -26.6333403 Eh     change       -0.2089527E-04 Eh
   gradient norm :     0.0026580 Eh/α   predicted    -0.1527071E-04 ( -26.92%)
   displ. norm   :     0.0960713 α      lambda       -0.2916452E-04
   maximum displ.:     0.0589508 α      in ANC's #4, #7, #2, ...

........................................................................
.............................. CYCLE   19 ..............................
........................................................................

 iter      E             dE          RMSdq      gap      omega  full diag
   1    -27.1036433 -0.271036E+02  0.440E-02    3.81       0.0  T
   2    -27.1036436 -0.349450E-06  0.250E-02    3.81       1.0  T
   3    -27.1036434  0.254388E-06  0.457E-03    3.81       4.7  T
   4    -27.1036438 -0.407654E-06  0.127E-03    3.81      16.8  T
   5    -27.1036438 -0.637379E-08  0.369E-04    3.81      57.8  T
   6    -27.1036438 -0.100354E-09  0.126E-04    3.81     169.5  T
     SCC iter.                  ...        0 min,  0.067 sec
     gradient                   ...        0 min,  0.034 sec
 * total energy  :   -26.6333589 Eh     change       -0.1864566E-04 Eh
   gradient norm :     0.0013874 Eh/α   predicted    -0.1471949E-04 ( -21.06%)
   displ. norm   :     0.2296137 α      lambda       -0.2505183E-04
   maximum displ.:     0.1233422 α      in ANC's #4, #7, #9, ...

........................................................................
.............................. CYCLE   20 ..............................
........................................................................

 iter      E             dE          RMSdq      gap      omega  full diag
   1    -27.1019566 -0.271020E+02  0.602E-02    3.80       0.0  T
   2    -27.1019577 -0.116931E-05  0.353E-02    3.80       1.0  T
   3    -27.1019560  0.177575E-05  0.110E-02    3.80       1.9  T
   4    -27.1019580 -0.199691E-05  0.332E-03    3.80       6.4  T
   5    -27.1019581 -0.139224E-06  0.109E-03    3.80      19.5  T
   6    -27.1019581  0.243734E-08  0.444E-04    3.80      48.1  T
   7    -27.1019581 -0.345438E-08  0.106E-04    3.80     200.4  T
     SCC iter.                  ...        0 min,  0.073 sec
     gradient                   ...        0 min,  0.035 sec
 * total energy  :   -26.6333550 Eh     change        0.3873814E-05 Eh
   gradient norm :     0.0053946 Eh/α   predicted    -0.1282073E-04 (-430.96%)
   displ. norm   :     0.0806168 α      lambda       -0.6124714E-04
   maximum displ.:     0.0497432 α      in ANC's #4, #1, #7, ...
 * RMSD in coord.:     0.2846028 α      energy gain  -0.3446245E-02 Eh

generating ANC from exact Hessian ...
Using Lindh-Hessian (1995)
 Shifting diagonal of input Hessian by    9.1757937803350603E-003
 Lowest  eigenvalues of input Hessian
    0.000000    0.000000    0.000000    0.000000    0.000000    0.000000
    0.010000    0.010914    0.011797    0.013379    0.013889    0.016914
    0.017604    0.019579    0.020687    0.022939    0.024104    0.032681
 Highest eigenvalues
    1.206693    1.237515    1.255511    1.502012    1.873830    2.612272


........................................................................
.............................. CYCLE   21 ..............................
........................................................................

 iter      E             dE          RMSdq      gap      omega  full diag
   1    -27.1035910 -0.271036E+02  0.401E-02    3.80       0.0  T
   2    -27.1035920 -0.990282E-06  0.223E-02    3.80       1.0  T
   3    -27.1035917  0.253504E-06  0.564E-03    3.80       3.8  T
   4    -27.1035921 -0.384243E-06  0.230E-03    3.80       9.3  T
   5    -27.1035922 -0.797115E-07  0.787E-04    3.80      27.1  T
   6    -27.1035922 -0.545072E-09  0.229E-04    3.80      93.1  T
     SCC iter.                  ...        0 min,  0.051 sec
     gradient                   ...        0 min,  0.020 sec
 * total energy  :   -26.6333918 Eh     change       -0.3671042E-04 Eh
   gradient norm :     0.0022483 Eh/α   predicted     0.0000000E+00 (-100.00%)
   displ. norm   :     0.0228769 α      lambda       -0.1957863E-04
   maximum displ.:     0.0137182 α      in ANC's #9, #6, #11, ...

........................................................................
.............................. CYCLE   22 ..............................
........................................................................

 iter      E             dE          RMSdq      gap      omega  full diag
   1    -27.1040009 -0.271040E+02  0.162E-02    3.81       0.0  T
   2    -27.1040009 -0.890013E-07  0.916E-03    3.81       2.3  T
   3    -27.1040008  0.123807E-06  0.274E-03    3.81       7.8  T
   4    -27.1040010 -0.151391E-06  0.790E-04    3.81      27.0  T
   5    -27.1040010 -0.726704E-08  0.291E-04    3.81      73.2  T
     SCC iter.                  ...        0 min,  0.037 sec
     gradient                   ...        0 min,  0.021 sec
 * total energy  :   -26.6334060 Eh     change       -0.1427259E-04 Eh
   gradient norm :     0.0010325 Eh/α   predicted    -0.9822749E-05 ( -31.18%)
   displ. norm   :     0.1037322 α      lambda       -0.3330042E-04
   maximum displ.:     0.0466775 α      in ANC's #9, #1, #6, ...

........................................................................
.............................. CYCLE   23 ..............................
........................................................................

 iter      E             dE          RMSdq      gap      omega  full diag
   1    -27.1044224 -0.271044E+02  0.109E-01    3.81       0.0  T
   2    -27.1044260 -0.357967E-05  0.605E-02    3.81       1.0  T
   3    -27.1044257  0.269463E-06  0.919E-03    3.81       2.3  T
   4    -27.1044274 -0.167295E-05  0.289E-03    3.81       7.4  T
   5    -27.1044275 -0.632254E-07  0.105E-03    3.81      20.4  T
   6    -27.1044275 -0.188653E-08  0.163E-04    3.81     130.4  T
   7    -27.1044275 -0.592522E-10  0.914E-05    3.81     233.2  T
     SCC iter.                  ...        0 min,  0.061 sec
     gradient                   ...        0 min,  0.029 sec
 * total energy  :   -26.6333700 Eh     change        0.3598095E-04 Eh
   gradient norm :     0.0046250 Eh/α   predicted    -0.1674683E-04 (-146.54%)
   displ. norm   :     0.0246702 α      lambda       -0.7516997E-04
   maximum displ.:     0.0111122 α      in ANC's #11, #1, #5, ...

........................................................................
.............................. CYCLE   24 ..............................
........................................................................

 iter      E             dE          RMSdq      gap      omega  full diag
   1    -27.1044040 -0.271044E+02  0.484E-02    3.81       0.0  T
   2    -27.1044048 -0.750443E-06  0.269E-02    3.81       1.0  T
   3    -27.1044050 -0.228690E-06  0.200E-03    3.81      10.7  T
   4    -27.1044051 -0.461893E-07  0.115E-03    3.81      18.5  T
   5    -27.1044051 -0.142936E-07  0.408E-04    3.81      52.3  T
   6    -27.1044051 -0.701871E-09  0.776E-05    3.81     274.9  T
     SCC iter.                  ...        0 min,  0.053 sec
     gradient                   ...        0 min,  0.028 sec
 * total energy  :   -26.6334188 Eh     change       -0.4876231E-04 Eh
   gradient norm :     0.0023227 Eh/α   predicted    -0.3760834E-04 ( -22.87%)
   displ. norm   :     0.0229815 α      lambda       -0.2197914E-04
   maximum displ.:     0.0152189 α      in ANC's #6, #12, #11, ...

........................................................................
.............................. CYCLE   25 ..............................
........................................................................

 iter      E             dE          RMSdq      gap      omega  full diag
   1    -27.1039549 -0.271040E+02  0.193E-02    3.81       0.0  T
   2    -27.1039550 -0.135160E-06  0.109E-02    3.81       2.0  T
   3    -27.1039546  0.374657E-06  0.467E-03    3.81       4.6  T
   4    -27.1039551 -0.455066E-06  0.807E-04    3.81      26.4  T
   5    -27.1039551 -0.511562E-08  0.349E-04    3.81      61.1  T
     SCC iter.                  ...        0 min,  0.059 sec
     gradient                   ...        0 min,  0.040 sec
 * total energy  :   -26.6334318 Eh     change       -0.1298268E-04 Eh
   gradient norm :     0.0006883 Eh/α   predicted    -0.1099574E-04 ( -15.30%)
   displ. norm   :     0.0408728 α      lambda       -0.6672939E-05
   maximum displ.:     0.0223559 α      in ANC's #9, #11, #5, ...

........................................................................
.............................. CYCLE   26 ..............................
........................................................................

 iter      E             dE          RMSdq      gap      omega  full diag
   1    -27.1038813 -0.271039E+02  0.137E-02    3.81       0.0  T
   2    -27.1038813 -0.280426E-07  0.798E-03    3.81       2.7  T
   3    -27.1038811  0.199066E-06  0.367E-03    3.81       5.8  T
   4    -27.1038814 -0.230277E-06  0.447E-04    3.81      47.7  T
   5    -27.1038814 -0.448903E-09  0.176E-04    3.81     121.0  T
     SCC iter.                  ...        0 min,  0.115 sec
     gradient                   ...        0 min,  0.033 sec
 * total energy  :   -26.6334401 Eh     change       -0.8335359E-05 Eh
   gradient norm :     0.0008137 Eh/α   predicted    -0.3344249E-05 ( -59.88%)
   displ. norm   :     0.1817815 α      lambda       -0.2439473E-04
   maximum displ.:     0.1027530 α      in ANC's #9, #11, #5, ...

........................................................................
.............................. CYCLE   27 ..............................
........................................................................

 iter      E             dE          RMSdq      gap      omega  full diag
   1    -27.1031179 -0.271031E+02  0.676E-02    3.80       0.0  T
   2    -27.1031189 -0.102067E-05  0.388E-02    3.80       1.0  T
   3    -27.1031167  0.220913E-05  0.126E-02    3.80       1.7  T
   4    -27.1031195 -0.279602E-05  0.227E-03    3.80       9.4  T
   5    -27.1031195 -0.119232E-07  0.809E-04    3.80      26.3  T
   6    -27.1031195  0.584279E-10  0.224E-04    3.80      95.4  T
     SCC iter.                  ...        0 min,  0.065 sec
     gradient                   ...        0 min,  0.034 sec
 * total energy  :   -26.6334599 Eh     change       -0.1977309E-04 Eh
   gradient norm :     0.0027739 Eh/α   predicted    -0.1237917E-04 ( -37.39%)
   displ. norm   :     0.0259937 α      lambda       -0.1018296E-04
   maximum displ.:     0.0148691 α      in ANC's #9, #5, #4, ...

........................................................................
.............................. CYCLE   28 ..............................
........................................................................

 iter      E             dE          RMSdq      gap      omega  full diag
   1    -27.1035228 -0.271035E+02  0.105E-02    3.80       0.0  T
   2    -27.1035228 -0.475734E-07  0.597E-03    3.80       3.6  T
   3    -27.1035228 -0.268491E-08  0.925E-04    3.80      23.1  T
   4    -27.1035228 -0.700135E-08  0.489E-04    3.80      43.6  T
     SCC iter.                  ...        0 min,  0.046 sec
     gradient                   ...        0 min,  0.030 sec
 * total energy  :   -26.6334687 Eh     change       -0.8820812E-05 Eh
   gradient norm :     0.0020902 Eh/α   predicted    -0.5095684E-05 ( -42.23%)
   displ. norm   :     0.1290017 α      lambda       -0.2888782E-04
   maximum displ.:     0.0762684 α      in ANC's #9, #5, #4, ...

........................................................................
.............................. CYCLE   29 ..............................
........................................................................

 iter      E             dE          RMSdq      gap      omega  full diag
   1    -27.1039294 -0.271039E+02  0.406E-02    3.80       0.0  T
   2    -27.1039297 -0.358773E-06  0.234E-02    3.80       1.0  T
   3    -27.1039297  0.665845E-07  0.381E-03    3.80       5.6  T
   4    -27.1039299 -0.206999E-06  0.142E-03    3.80      15.0  T
   5    -27.1039299 -0.817843E-08  0.435E-04    3.80      49.0  T
   6    -27.1039299 -0.586361E-09  0.816E-05    3.80     261.2  T
     SCC iter.                  ...        0 min,  0.117 sec
     gradient                   ...        0 min,  0.035 sec
 * total energy  :   -26.6334890 Eh     change       -0.2024456E-04 Eh
   gradient norm :     0.0010359 Eh/α   predicted    -0.1468429E-04 ( -27.47%)
   displ. norm   :     0.2034568 α      lambda       -0.1704207E-04
   maximum displ.:     0.1188414 α      in ANC's #9, #5, #4, ...

........................................................................
.............................. CYCLE   30 ..............................
........................................................................

 iter      E             dE          RMSdq      gap      omega  full diag
   1    -27.1034462 -0.271034E+02  0.542E-02    3.80       0.0  T
   2    -27.1034468 -0.558095E-06  0.318E-02    3.80       1.0  T
   3    -27.1034469 -0.827597E-07  0.301E-03    3.80       7.1  T
   4    -27.1034469 -0.369981E-07  0.191E-03    3.80      11.1  T
   5    -27.1034469 -0.355532E-07  0.866E-04    3.80      24.6  T
   6    -27.1034469 -0.465707E-08  0.118E-04    3.80     180.3  T
     SCC iter.                  ...        0 min,  0.075 sec
     gradient                   ...        0 min,  0.034 sec
 * total energy  :   -26.6335017 Eh     change       -0.1272252E-04 Eh
   gradient norm :     0.0023079 Eh/α   predicted    -0.8678132E-05 ( -31.79%)
   displ. norm   :     0.0578507 α      lambda       -0.2456830E-04
   maximum displ.:     0.0253184 α      in ANC's #1, #5, #9, ...

........................................................................
.............................. CYCLE   31 ..............................
........................................................................

 iter      E             dE          RMSdq      gap      omega  full diag
   1    -27.1042904 -0.271043E+02  0.385E-02    3.80       0.0  T
   2    -27.1042908 -0.356536E-06  0.216E-02    3.80       1.0  T
   3    -27.1042904  0.414315E-06  0.575E-03    3.80       3.7  T
   4    -27.1042909 -0.576116E-06  0.115E-03    3.80      18.5  T
   5    -27.1042909 -0.528704E-08  0.483E-04    3.80      44.2  T
   6    -27.1042909  0.351186E-10  0.117E-04    3.80     182.9  T
     SCC iter.                  ...        0 min,  0.069 sec
     gradient                   ...        0 min,  0.036 sec
 * total energy  :   -26.6335161 Eh     change       -0.1436989E-04 Eh
   gradient norm :     0.0009052 Eh/α   predicted    -0.1232650E-04 ( -14.22%)
   displ. norm   :     0.1422333 α      lambda       -0.1022329E-04
   maximum displ.:     0.0702366 α      in ANC's #9, #4, #5, ...

........................................................................
.............................. CYCLE   32 ..............................
........................................................................

 iter      E             dE          RMSdq      gap      omega  full diag
   1    -27.1037808 -0.271038E+02  0.475E-02    3.80       0.0  T
   2    -27.1037813 -0.457835E-06  0.273E-02    3.80       1.0  T
   3    -27.1037808  0.476827E-06  0.624E-03    3.80       3.4  T
   4    -27.1037814 -0.634033E-06  0.171E-03    3.80      12.4  T
   5    -27.1037815 -0.188096E-07  0.758E-04    3.80      28.1  T
   6    -27.1037815 -0.344158E-09  0.131E-04    3.80     162.8  T
     SCC iter.                  ...        0 min,  0.083 sec
     gradient                   ...        0 min,  0.039 sec
 * total energy  :   -26.6335244 Eh     change       -0.8379938E-05 Eh
   gradient norm :     0.0010968 Eh/α   predicted    -0.5160077E-05 ( -38.42%)
   displ. norm   :     0.0314140 α      lambda       -0.4968484E-05
   maximum displ.:     0.0211901 α      in ANC's #1, #9, #6, ...

........................................................................
.............................. CYCLE   33 ..............................
........................................................................

 iter      E             dE          RMSdq      gap      omega  full diag
   1    -27.1042764 -0.271043E+02  0.221E-02    3.80       0.0  T
   2    -27.1042766 -0.195298E-06  0.123E-02    3.80       1.7  T
   3    -27.1042765  0.305926E-07  0.242E-03    3.80       8.8  T
   4    -27.1042766 -0.931144E-07  0.826E-04    3.80      25.8  T
   5    -27.1042766 -0.618386E-08  0.307E-04    3.80      69.5  T
     SCC iter.                  ...        0 min,  0.089 sec
     gradient                   ...        0 min,  0.045 sec
 * total energy  :   -26.6335272 Eh     change       -0.2773972E-05 Eh
   gradient norm :     0.0006101 Eh/α   predicted    -0.2485735E-05 ( -10.39%)
   displ. norm   :     0.0267841 α      lambda       -0.1425593E-05
   maximum displ.:     0.0141369 α      in ANC's #4, #5, #7, ...

........................................................................
.............................. CYCLE   34 ..............................
........................................................................

 iter      E             dE          RMSdq      gap      omega  full diag
   1    -27.1041090 -0.271041E+02  0.695E-03    3.80       0.0  T
   2    -27.1041090 -0.187700E-07  0.412E-03    3.80       5.2  T
   3    -27.1041090  0.212877E-07  0.122E-03    3.80      17.4  T
   4    -27.1041090 -0.226113E-07  0.399E-04    3.80      53.4  T
   5    -27.1041090 -0.265962E-08  0.111E-04    3.80     192.7  T
     SCC iter.                  ...        0 min,  0.063 sec
     gradient                   ...        0 min,  0.033 sec
 * total energy  :   -26.6335286 Eh     change       -0.1403847E-05 Eh
   gradient norm :     0.0003773 Eh/α   predicted    -0.7160916E-06 ( -48.99%)
   displ. norm   :     0.0146631 α      lambda       -0.8239376E-06
   maximum displ.:     0.0106557 α      in ANC's #7, #4, #11, ...

........................................................................
.............................. CYCLE   35 ..............................
........................................................................

 iter      E             dE          RMSdq      gap      omega  full diag
   1    -27.1039858 -0.271040E+02  0.829E-03    3.80       0.0  T
   2    -27.1039859 -0.125467E-07  0.469E-03    3.80       4.5  T
   3    -27.1039858  0.245730E-07  0.133E-03    3.80      16.0  T
   4    -27.1039859 -0.317783E-07  0.217E-04    3.80      98.3  T
   5    -27.1039859 -0.750937E-10  0.764E-05    3.80     279.2  T
     SCC iter.                  ...        0 min,  0.059 sec
     gradient                   ...        0 min,  0.032 sec
 * total energy  :   -26.6335296 Eh     change       -0.9573184E-06 Eh
   gradient norm :     0.0004418 Eh/α   predicted    -0.4127448E-06 ( -56.89%)
   displ. norm   :     0.0299969 α      lambda       -0.1370899E-05
   maximum displ.:     0.0242642 α      in ANC's #7, #2, #1, ...

   *** GEOMETRY OPTIMIZATION CONVERGED AFTER 35 ITERATIONS ***

------------------------------------------------------------------------
 total energy gain   :        -0.0036208 Eh       -2.2721 kcal/mol
 total RMSD          :         0.4284190 a0        0.2267 Å
 total power (kW/mol):        -0.2716097 (step)   -1.8774 (real)
------------------------------------------------------------------------

 ANCopt (total)                0 d,  0 h,  0 min,  5.064 sec
 optimizer setup                ...        0 min,  0.001 sec (  0.013%)
 model hessian                  ...        0 min,  0.018 sec (  0.355%)
 ANC generation                 ...        0 min,  0.002 sec (  0.032%)
 coordinate transformation      ...        0 min,  0.000 sec (  0.006%)
 single point calculation       ...        0 min,  4.903 sec ( 96.826%)
 optimization log               ...        0 min,  0.004 sec (  0.077%)
 hessian update                 ...        0 min,  0.125 sec (  2.473%)
 rational function              ...        0 min,  0.006 sec (  0.124%)

================
 final structure:
================
22
 xtb: 6.7.1 (edcfbbe)
C           -2.61017403976516        1.19043586522191        0.82469670169364
C           -1.34389433124212        0.34590701174065        0.87333197826406
C           -0.78918651695780        0.08603732970512       -0.53474369913432
C            0.47765960940339       -0.71476023730144       -0.48083080355340
C            0.30798586548870       -2.20049883031820       -0.47989976899003
C            1.68632192907605       -0.13231602343807       -0.41221143353828
C            1.92959176400772        1.35471961644590       -0.41927094933645
C            2.85887694461255       -0.91446422633961       -0.33916152033719
N            3.83894749929104       -1.50971949605212       -0.27543557758808
H           -2.99294792188430        1.36046156320062        1.82823626853332
H           -3.38160620178885        0.68986139477470        0.24340157761925
H           -2.40942309227997        2.15643789347689        0.36613451599002
H           -1.56115636447289       -0.60797564227926        1.35825108820563
H           -0.58740309453522        0.85490094750309        1.47425954965791
H           -1.53929676576441       -0.46127317938248       -1.10998854932009
H           -0.61650315076046        1.04426499244697       -1.02764119234872
H           -0.13909942355844       -2.52316875571839       -1.42080896491540
H            1.25796672024433       -2.71290864994449       -0.35172741156036
H           -0.36592467460116       -2.49949109217334        0.32258810686711
H            1.37561826608597        1.84317370280636        0.38059383835528
H            2.98894266742966        1.56246973177534       -0.28334771235879
H            1.61470431197604        1.78790608384857       -1.36937664153969

 Bond Distances (Angstroems)
 ---------------------------
C1-C2=1.5228         C1-H10=1.0874        C1-H11=1.0879        C1-H12=1.0880        C2-C1=1.5228         C2-C3=1.5355         
C2-H13=1.0919        C2-H14=1.0920        C3-C2=1.5355         C3-C4=1.4997         C3-H15=1.0923        C3-H16=1.0913        
C4-C3=1.4997         C4-C5=1.4954         C4-C6=1.3434         C5-C4=1.4954         C5-H17=1.0906        C5-H18=1.0869        
C5-H19=1.0897        C6-C4=1.3434         C6-C7=1.5068         C6-C8=1.4114         C7-C6=1.5068         C7-H20=1.0887        
C7-H21=1.0881        C7-H22=1.0906        C8-C6=1.4114         C8-N9=1.1484         N9-C8=1.1484         H10-C1=1.0874        
H11-C1=1.0879        H12-C1=1.0880        H13-C2=1.0919        H14-C2=1.0920        H15-C3=1.0923        H16-C3=1.0913        
H17-C5=1.0906        H18-C5=1.0869        H19-C5=1.0897        H20-C7=1.0887        H21-C7=1.0881        H22-C7=1.0906        
 C  H  Rav=1.0897 sigma=0.0018  Rmin=1.0869  Rmax=1.0923    13
 C  C  Rav=1.4736 sigma=0.0647  Rmin=1.3434  Rmax=1.5355     7
 N  C  Rav=1.1484 sigma=0.0000  Rmin=1.1484  Rmax=1.1484     1

 selected bond angles (degree)
 --------------------
H10-C1-C2=110.48               H11-C1-C2=110.58               H11-C1-H10=108.39              H12-C1-C2=110.64               
H12-C1-H10=108.37              H12-C1-H11=108.31              C3-C2-C1=111.40                H13-C2-C1=109.46               
H13-C2-C3=109.35               H14-C2-C1=109.58               H14-C2-C3=109.47               H14-C2-H13=107.50              
C4-C3-C2=111.26                H15-C3-C2=108.64               H15-C3-C4=109.36               H16-C3-C2=108.83               
H16-C3-C4=110.57               H16-C3-H15=108.11              C5-C4-C3=115.77                C6-C4-C3=122.03                
C6-C4-C5=122.19                H17-C5-C4=109.87               H18-C5-C4=111.67               H18-C5-H17=108.70              
H19-C5-C4=110.07               H19-C5-H17=107.50              H19-C5-H18=108.92              C7-C6-C4=124.95                
C8-C6-C4=120.65                C8-C6-C7=114.39                H20-C7-C6=110.93               H21-C7-C6=110.18               
H21-C7-H20=108.54              H22-C7-C6=110.45               H22-C7-H20=108.36              H22-C7-H21=108.31              
N9-C8-C6=177.56                

 selected dihedral angles (degree)
 ---------------------------------
C3-C2-C1-H10=179.68           C3-C2-C1-H11= 59.68           C3-C2-C1-H12=299.69           H13-C2-C1-H10= 58.62          
H13-C2-C1-H11=298.63          H13-C2-C1-H12=178.63          H14-C2-C1-H10=300.97          H14-C2-C1-H11=180.97          
H14-C2-C1-H12= 60.97          C4-C3-C2-C1=178.48            C4-C3-C2-H13=299.61           C4-C3-C2-H14= 57.13           
H15-C3-C2-C1=298.92           H15-C3-C2-H13= 60.05          H15-C3-C2-H14=177.57          H16-C3-C2-C1= 56.41           
H16-C3-C2-H13=177.53          H16-C3-C2-H14=295.05          C5-C4-C3-C2= 87.88            C5-C4-C3-H15=327.87           
C5-C4-C3-H16=208.94           C6-C4-C3-C2=269.09            C6-C4-C3-H15=149.08           C6-C4-C3-H16= 30.15           
H17-C5-C4-C3= 64.31           H17-C5-C4-C6=243.10           H18-C5-C4-C3=185.01           H18-C5-C4-C6=  3.79           
H19-C5-C4-C3=306.12           H19-C5-C4-C6=124.91           C7-C6-C4-C3=358.22            C7-C6-C4-C5=179.51            
C8-C6-C4-C3=178.88            C8-C6-C4-C5=  0.17            H20-C7-C6-C4= 55.80           H20-C7-C6-C8=235.17           
H21-C7-C6-C4=176.01           H21-C7-C6-C8=355.39           H22-C7-C6-C4=295.63           H22-C7-C6-C8=115.01           
N9-C8-C6-C4=183.45            N9-C8-C6-C7=  4.05            
           -------------------------------------------------
          |                Final Singlepoint                |
           -------------------------------------------------

          ...................................................
          :                      SETUP                      :
          :.................................................:
          :  # basis functions                  49          :
          :  # atomic orbitals                  49          :
          :  # shells                           31          :
          :  # electrons                        50          :
          :  max. iterations                   250          :
          :  Hamiltonian                  GFN2-xTB          :
          :  restarted?                      false          :
          :  GBSA solvation                  false          :
          :  PC potential                    false          :
          :  electronic temp.          300.0000000     K    :
          :  accuracy                    1.0000000          :
          :  -> integral cutoff          0.2500000E+02      :
          :  -> integral neglect         0.1000000E-07      :
          :  -> SCF convergence          0.1000000E-05 Eh   :
          :  -> wf. convergence          0.1000000E-03 e    :
          :  Broyden damping             0.4000000          :
          :  net charge                          0          :
          :  unpaired electrons                  0          :
          ...................................................

 iter      E             dE          RMSdq      gap      omega  full diag
   1    -27.1039859 -0.271040E+02  0.140E-05    3.80       0.0  T
   2    -27.1039859 -0.653699E-12  0.763E-06    3.80    2795.0  T
   3    -27.1039859 -0.461853E-13  0.554E-06    3.80    3851.2  T

   *** convergence criteria satisfied after 3 iterations ***

         #    Occupation            Energy/Eh            Energy/eV
      -------------------------------------------------------------
         1        2.0000           -0.6532911             -17.7770
       ...           ...                  ...                  ...
        19        2.0000           -0.4637957             -12.6205
        20        2.0000           -0.4537196             -12.3463
        21        2.0000           -0.4512902             -12.2802
        22        2.0000           -0.4473593             -12.1733
        23        2.0000           -0.4360053             -11.8643
        24        2.0000           -0.4089288             -11.1275
        25        2.0000           -0.3946228             -10.7382 (HOMO)
        26                         -0.2548106              -6.9338 (LUMO)
        27                         -0.1949184              -5.3040
        28                         -0.1257767              -3.4226
        29                          0.0690746               1.8796
        30                          0.0802290               2.1831
       ...                                ...                  ...
        49                          1.1701321              31.8409
      -------------------------------------------------------------
                  HL-Gap            0.1398121 Eh            3.8045 eV
             Fermi-level           -0.3247167 Eh           -8.8360 eV

 SCC (total)                   0 d,  0 h,  0 min,  0.106 sec
 SCC setup                      ...        0 min,  0.003 sec (  2.869%)
 Dispersion                     ...        0 min,  0.006 sec (  5.826%)
 classical contributions        ...        0 min,  0.003 sec (  2.440%)
 integral evaluation            ...        0 min,  0.011 sec ( 10.822%)
 iterations                     ...        0 min,  0.043 sec ( 40.317%)
 molecular gradient             ...        0 min,  0.040 sec ( 37.594%)
 printout                       ...        0 min,  0.000 sec (  0.108%)

         :::::::::::::::::::::::::::::::::::::::::::::::::::::
         ::                     SUMMARY                     ::
         :::::::::::::::::::::::::::::::::::::::::::::::::::::
         :: total energy             -26.633529572130 Eh    ::
         :: gradient norm              0.000441701864 Eh/a0 ::
         :: HOMO-LUMO gap              3.804481839214 eV    ::
         ::.................................................::
         :: SCC energy               -27.103904844493 Eh    ::
         :: -> isotropic ES            0.012838755890 Eh    ::
         :: -> anisotropic ES          0.006306869125 Eh    ::
         :: -> anisotropic XC          0.028741737458 Eh    ::
         :: -> dispersion             -0.015568530980 Eh    ::
         :: repulsion energy           0.470375272364 Eh    ::
         :: add. restraining           0.000000000000 Eh    ::
         :: total charge              -0.000000000000 e     ::
         :::::::::::::::::::::::::::::::::::::::::::::::::::::

           -------------------------------------------------
          |                Property Printout                |
           -------------------------------------------------

    * Orbital Energies and Occupations

         #    Occupation            Energy/Eh            Energy/eV
      -------------------------------------------------------------
         1        2.0000           -0.6532911             -17.7770
       ...           ...                  ...                  ...
        13        2.0000           -0.4972524             -13.5309
        14        2.0000           -0.4934013             -13.4261
        15        2.0000           -0.4825449             -13.1307
        16        2.0000           -0.4786744             -13.0254
        17        2.0000           -0.4727504             -12.8642
        18        2.0000           -0.4711580             -12.8209
        19        2.0000           -0.4637957             -12.6205
        20        2.0000           -0.4537196             -12.3463
        21        2.0000           -0.4512902             -12.2802
        22        2.0000           -0.4473593             -12.1733
        23        2.0000           -0.4360053             -11.8643
        24        2.0000           -0.4089288             -11.1275
        25        2.0000           -0.3946228             -10.7382 (HOMO)
        26                         -0.2548106              -6.9338 (LUMO)
        27                         -0.1949184              -5.3040
        28                         -0.1257767              -3.4226
        29                          0.0690746               1.8796
        30                          0.0802290               2.1831
        31                          0.1051630               2.8616
        32                          0.1111169               3.0236
        33                          0.1228341               3.3425
        34                          0.1382998               3.7633
        35                          0.1473999               4.0110
        36                          0.1660070               4.5173
       ...                                ...                  ...
        49                          1.1701321              31.8409
      -------------------------------------------------------------
                  HL-Gap            0.1398121 Eh            3.8045 eV
             Fermi-level           -0.3247167 Eh           -8.8360 eV

     #   Z          covCN         q      C6AA      α(0)
     1   6 C        3.752    -0.103    22.533     6.769
     2   6 C        3.802    -0.045    21.385     6.584
     3   6 C        3.809    -0.065    21.745     6.638
     4   6 C        2.959     0.019    27.574     8.613
     5   6 C        3.758    -0.109    22.637     6.783
     6   6 C        2.947    -0.006    28.161     8.704
     7   6 C        3.761    -0.096    22.384     6.745
     8   6 C        1.916     0.110    28.370     8.602
     9   7 N        0.911    -0.258    26.691     7.472
    10   1 H        0.925     0.037     2.491     2.468
    11   1 H        0.925     0.036     2.498     2.472
    12   1 H        0.925     0.036     2.507     2.476
    13   1 H        0.924     0.032     2.563     2.504
    14   1 H        0.924     0.031     2.578     2.511
    15   1 H        0.924     0.042     2.420     2.433
    16   1 H        0.924     0.044     2.392     2.419
    17   1 H        0.924     0.052     2.291     2.367
    18   1 H        0.925     0.050     2.316     2.380
    19   1 H        0.925     0.053     2.282     2.362
    20   1 H        0.925     0.047     2.355     2.400
    21   1 H        0.925     0.047     2.359     2.402
    22   1 H        0.924     0.045     2.380     2.412

 Mol. C6AA /au·bohr⁶  :       4183.703289
 Mol. C8AA /au·bohr⁸  :      93626.413963
 Mol. α(0) /au        :         98.513991


Wiberg/Mayer (AO) data.
largest (>0.10) Wiberg bond orders for each atom

 ---------------------------------------------------------------------------
     #   Z sym  total        # sym  WBO       # sym  WBO       # sym  WBO
 ---------------------------------------------------------------------------
     1   6 C    3.995 --     2 C    1.019    11 H    0.988    12 H    0.988
                            10 H    0.986
     2   6 C    3.991 --     1 C    1.019     3 C    0.982    13 H    0.978
                            14 H    0.978
     3   6 C    3.997 --     4 C    1.019     2 C    0.982    15 H    0.971
                            16 H    0.968
     4   6 C    3.986 --     6 C    1.733     5 C    1.035     3 C    1.019
                             9 N    0.115
     5   6 C    3.996 --     4 C    1.035    18 H    0.980    19 H    0.966
                            17 H    0.965
     6   6 C    3.984 --     4 C    1.733     8 C    1.108     7 C    0.998
     7   6 C    3.996 --     6 C    0.998    21 H    0.986    20 H    0.974
                            22 H    0.970
     8   6 C    3.945 --     9 N    2.777     6 C    1.108
     9   7 N    2.991 --     8 C    2.777     4 C    0.115
    10   1 H    0.997 --     1 C    0.986
    11   1 H    0.999 --     1 C    0.988
    12   1 H    0.999 --     1 C    0.988
    13   1 H    0.999 --     2 C    0.978
    14   1 H    0.999 --     2 C    0.978
    15   1 H    0.996 --     3 C    0.971
    16   1 H    0.998 --     3 C    0.968
    17   1 H    0.997 --     5 C    0.965
    18   1 H    0.997 --     5 C    0.980
    19   1 H    0.997 --     5 C    0.966
    20   1 H    0.998 --     7 C    0.974
    21   1 H    0.998 --     7 C    0.986
    22   1 H    0.998 --     7 C    0.970
 ---------------------------------------------------------------------------

Topologies differ in total number of bonds
Writing topology from bond orders to xtbtopo.mol

molecular dipole:
                 x           y           z       tot (Debye)
 q only:       -1.276       0.504      -0.034
   full:       -1.683       0.749      -0.058       4.685
molecular quadrupole (traceless):
                xx          xy          yy          xz          yz          zz
 q only:       -9.492       7.123       4.899       0.627      -0.174       4.594
  q+dip:      -12.665      11.137       6.209       1.203      -0.487       6.456
   full:      -14.155      11.745       6.285       0.861      -0.349       7.871

           -------------------------------------------------
          |                Geometry Summary                 |
           -------------------------------------------------

      molecular mass/u    :      123.1958202
   center of mass at/Å    :        0.6298720      -0.2472614      -0.1223384
  moments of inertia/u·Å² :        0.1644038E+03   0.5841708E+03   0.6920812E+03
rotational constants/cm⁻¹ :        0.1025379E+00   0.2885737E-01   0.2435788E-01

 * 17 selected distances

     #   Z          #   Z                                           value/Å
     1   6 C        2   6 C                                       1.5228457
     2   6 C        3   6 C                                       1.5355489 (max)
     4   6 C        6   6 C                                       1.3434340
     8   6 C        9   7 N                                       1.1484461
     1   6 C       10   1 H                                       1.0874357
     1   6 C       11   1 H                                       1.0879277
     1   6 C       12   1 H                                       1.0879983
     2   6 C       13   1 H                                       1.0918982
     2   6 C       14   1 H                                       1.0920018
     3   6 C       15   1 H                                       1.0923008
     3   6 C       16   1 H                                       1.0913148
     5   6 C       17   1 H                                       1.0905556
     5   6 C       18   1 H                                       1.0869479 (min)
     5   6 C       19   1 H                                       1.0897425
     7   6 C       20   1 H                                       1.0886955
     7   6 C       21   1 H                                       1.0880532
     7   6 C       22   1 H                                       1.0906446

 * 3 distinct bonds (by element types)

   Z      Z             #   av. dist./Å        max./Å        min./Å
   1 H    6 C          13     1.0896551     1.0923008     1.0869479
   6 C    6 C           3     1.4672762     1.5355489     1.3434340
   6 C    7 N           1     1.1484461     1.1484461     1.1484461


optimized geometry written to: xtbopt.xyz


           -------------------------------------------------
          | TOTAL ENERGY              -26.633529572130 Eh   |
          | GRADIENT NORM               0.000441701864 Eh/α |
          | HOMO-LUMO GAP               3.804481839214 eV   |
           -------------------------------------------------

------------------------------------------------------------------------
 * finished run on 2026/07/08 at 21:42:06.864     
------------------------------------------------------------------------
 total:
 * wall-time:     0 d,  0 h,  0 min,  5.508 sec
 *  cpu-time:     0 d,  0 h,  1 min, 27.808 sec
 * ratio c/w:    15.942 speedup
 SCF:
 * wall-time:     0 d,  0 h,  0 min,  0.265 sec
 *  cpu-time:     0 d,  0 h,  0 min,  4.235 sec
 * ratio c/w:    15.987 speedup
 ANC optimizer:
 * wall-time:     0 d,  0 h,  0 min,  5.174 sec
 *  cpu-time:     0 d,  0 h,  1 min, 22.518 sec
 * ratio c/w:    15.948 speedup

