77
 energy: -101.220357605431 gnorm: 0.000178396844 xtb: 6.7.1 (edcfbbe)
C            0.93307274390292        1.69509377567976        3.16868441306763
C            0.84249832742109        1.53427030666140        1.85374192655369
C           -0.47347746007198        1.36538440089836        1.13921330167788
C           -0.88743993878592       -0.10800893306493        1.11237644747751
C            0.04615283849974       -0.99217407022699        0.27742915701958
C           -0.76141174257924       -2.26711319560159        0.02159388816322
C           -2.19243828905292       -1.86683078890023        0.22567324192280
N           -3.09504596049806       -2.74631665389872        0.19028650985262
O           -4.40794079488053       -2.30167199619100        0.48489384033583
C           -5.36128818317089       -2.76478391983356       -0.34540532264454
O           -5.15363380218591       -3.44117718071953       -1.31787159798867
C           -6.69855795879411       -2.25990678766886        0.05855302090910
C           -7.76213765741906       -2.47047230759841       -0.81568875159480
C           -9.02067174518562       -1.99361411900137       -0.50346159648749
C           -9.22507952777270       -1.30652252491145        0.68266879197652
C           -8.17033951478306       -1.09926579196852        1.55779954441021
C           -6.90776570033815       -1.57195642650436        1.25063413521777
C           -2.28356943934005       -0.39278451693834        0.52365705135911
C           -2.58875923352024        0.40944423147900       -0.75345356152508
C           -3.94809061706504        0.06588520291748       -1.35928873385976
C           -4.31128930743454        0.99523440418339       -2.51437357649238
C           -5.64762339540296        0.62924912845874       -3.16192437109426
C           -6.84741132822923        0.92464660659188       -2.26873639530051
O            1.87614506266850        1.47168037937632        0.97308522421196
C            3.19178499719397        1.56601743010891        1.47489324971868
C            4.14013562414844        1.43556717785479        0.32182973838098
C            5.45462724969777        1.60814119885245        0.38965972599367
C            6.15489273649637        1.97187984037495        1.66560744723875
C            6.31866431512836        1.44124831050885       -0.82908540094847
C            6.81950125413248       -0.01031738095284       -0.98076648615782
C            7.70661882674160       -0.43187385832372        0.15097735185232
C            9.01086137174299       -0.20614080274974        0.26298241617601
C            9.84081542016472        0.52204874082630       -0.75200429527742
C            9.78251445433485       -0.66517628046786        1.46616074096520
H            1.86251911894459        1.80010291160050        3.69652035839516
H            0.04121938237312        1.72987341579768        3.76586644778684
H           -1.24112378882866        1.94844440108128        1.64900831750534
H           -0.35293235087392        1.73770087946406        0.12206219212102
H           -0.88346796397954       -0.47610071833034        2.14522568446299
H            0.28833833911075       -0.48929082021913       -0.65897598507312
H            0.98167421309551       -1.19525770409094        0.79480473435261
H           -0.50899036268887       -3.05704253731753        0.73004269351293
H           -0.61559179553095       -2.67371668378361       -0.97884413154750
H           -7.57550197877937       -3.00499116640334       -1.73463321561478
H           -9.84328991754630       -2.15456791109286       -1.18403324176748
H          -10.20821214467380       -0.93184857610903        0.92696717524281
H           -8.33414926972770       -0.56605267163455        2.48268217400732
H           -6.08348723973117       -1.41525937885978        1.92892987673840
H           -3.07803650235943       -0.19535637969319        1.24973286756003
H           -2.58190895529636        1.47146331167549       -0.50031585666859
H           -1.80855930872309        0.23136785033112       -1.49543416490349
H           -4.71183560046793        0.13835968810850       -0.58242852762840
H           -3.93794269867401       -0.95935453015235       -1.73382766733615
H           -3.52492228514258        0.93986810159540       -3.27139440421787
H           -4.35375320964285        2.02682851421375       -2.15557762306443
H           -5.75342248495935        1.19526023954773       -4.09065832755329
H           -5.64129600552798       -0.43222778462102       -3.41845124110241
H           -7.77272687771477        0.70572296955208       -2.79670365446624
H           -6.82700308059926        0.31743046629104       -1.36741080634880
H           -6.85794607777863        1.97373671992377       -1.97950113549485
H            3.33000978296378        2.53124665262135        1.98542249243724
H            3.36714242863086        0.76704163975076        2.21452320089025
H            3.66204822013897        1.18379297555106       -0.61325920157460
H            6.12210642450221        3.05243515221932        1.81143203957232
H            7.19641248379078        1.66432038533063        1.62841099537881
H            5.68019675873007        1.50375319697151        2.52483746998372
H            5.74739120609403        1.69995307275688       -1.72268366898805
H            7.17983413398562        2.10785639581022       -0.76309561809052
H            7.34850479059245       -0.09294179460486       -1.93256420866107
H            5.95130403551846       -0.67030281918775       -1.02115732641287
H            7.20277397377167       -0.94995531849606        0.95666566408061
H            9.30957578992539        0.67026180831102       -1.68677731941939
H           10.75665886620368       -0.03240142651342       -0.95324595552896
H           10.12790113176987        1.50001927023631       -0.36371405811870
H            9.12910119474174       -1.12335985474023        2.20406285437699
H           10.53926333374959       -1.39298667262536        1.17354224446111
H           10.29781066483016        0.17649113036218        1.92890275318114
