31
 energy: -35.683922505354 gnorm: 0.000096477034 xtb: 6.7.1 (edcfbbe)
C           -5.35385266659946       -0.33221832172888        0.85676647225628
C           -4.16522202322619       -0.71989877736465       -0.01415420748768
C           -2.87602417242298       -0.04785351813581        0.45195794619643
C           -1.68089466615793       -0.42866317738223       -0.41822869077428
C           -0.39354313568212        0.24597739187853        0.04938015409147
C            0.80229782641960       -0.13686410486158       -0.81936206022641
C            2.08468671094544        0.54542804402828       -0.35023290248369
C            3.28528022373351        0.15648575896303       -1.22345803852128
C            4.51592078835933        0.89366078274898       -0.74086886166519
C            5.31545477548099        0.16639896365789        0.31004607534152
O            4.81794953185434        1.98455364786978       -1.15265974563566
H           -5.18147262425102       -0.62580340014672        1.89007144520139
H           -5.51134013309283        0.74388055954511        0.82959792836230
H           -6.26072910062631       -0.82070237952532        0.50792279768268
H           -4.03562609233134       -1.80442525436187        0.01048370754991
H           -4.36583296437792       -0.43496542128388       -1.04951792365509
H           -3.00717297336357        1.03660497809592        0.42978097967625
H           -2.67482425148090       -0.33419181383340        1.48712134724367
H           -1.54935675372223       -1.51326431611326       -0.39614875381092
H           -1.88256074437142       -0.14263242953541       -1.45321733625602
H           -0.19373901017594       -0.03766971384705        1.08557152955933
H           -0.52457273771599        1.33014832488818        0.02423124177956
H            0.93686936855768       -1.22098916591124       -0.79154213174473
H            0.60058264877040        0.14480498960499       -1.85505959704129
H            1.95669096377512        1.62904845886678       -0.38725041289096
H            2.28113787049862        0.26837120324859        0.68826928126780
H            3.07936099860642        0.44761767762609       -2.25468413846660
H            3.44124476098930       -0.92173790206419       -1.17554764207007
H            5.82358502579479       -0.67563984181903       -0.15740193328114
H            4.65850226247215       -0.22352216320917        1.08341256522087
H            6.05720029334345        0.82806092009951        0.74908647559036
