30
 energy: -48.249138337649 gnorm: 0.000385583367 xtb: 6.7.1 (edcfbbe)
C           -4.18194132246449       -0.70898651070284       -0.94546685395846
C           -3.22294890961180        0.45307666380113       -1.15804451210609
O           -2.40826482781993        0.67364993406427       -0.00274293190826
C           -1.32258851956500       -0.07654777063923        0.12787687966788
O           -0.96759838373148       -0.92116538249388       -0.65312581595073
C           -0.58816688386081        0.25602238914916        1.42069715613538
C           -1.28099005352666       -0.44657551815189        2.58834144890130
C            0.87063966955118       -0.19888229355410        1.26895561223761
C            1.66115557249374        0.17766047610030        2.41276534432551
N            2.28105461873155        0.49396969230990        3.31923571425633
C            1.49684551224845        0.45748711505314        0.03059773652945
O            1.09248717337165        1.47198346739556       -0.46747228388670
O            2.53838899259546       -0.23976180028828       -0.38741876985814
C            3.22877395137177        0.26239081481257       -1.53843067492892
C            4.37376240170303       -0.67991013088810       -1.85337893025853
H           -4.79513925855634       -0.53550729953976       -0.06428887785896
H           -4.82795023880630       -0.81046836236271       -1.81261025677876
H           -3.62399700121339       -1.63276736594773       -0.81298986809765
H           -2.57139840223240        0.25816666276290       -2.01557788356328
H           -3.76273381540884        1.39035599534946       -1.30467710210249
H           -0.62591573501717        1.33949038364976        1.56215414877345
H           -0.76097530299363       -0.22802417330939        3.51852027410652
H           -1.28569862390710       -1.52444894278223        2.43567046428882
H           -2.30820684566251       -0.10105595367095        2.67204287100976
H            0.92421203617770       -1.28493049068123        1.13735104472295
H            3.58839303225445        1.27316418574451       -1.31695630613387
H            2.51794755387401        0.32502209607923       -2.36928677515632
H            4.91581749861814       -0.31625044111019       -2.72126136288469
H            5.05311399732612       -0.73839431811967       -1.00740271660940
H            3.99192211406195       -1.67520464587690       -2.06307677291212
