      -----------------------------------------------------------      
     |                   =====================                   |     
     |                           x T B                           |     
     |                   =====================                   |     
     |                         S. Grimme                         |     
     |          Mulliken Center for Theoretical Chemistry        |     
     |                    University of Bonn                     |     
      -----------------------------------------------------------      

   * xtb version 6.7.1 (edcfbbe) compiled by 'conda@5dfe00f5fb80' on 2026-06-10

   xtb is free software: you can redistribute it and/or modify it under
   the terms of the GNU Lesser General Public License as published by
   the Free Software Foundation, either version 3 of the License, or
   (at your option) any later version.
   
   xtb is distributed in the hope that it will be useful,
   but WITHOUT ANY WARRANTY; without even the implied warranty of
   MERCHANTABILITY or FITNESS FOR A PARTICULAR PURPOSE.  See the
   GNU Lesser General Public License for more details.
   
   Cite this work as:
   * C. Bannwarth, E. Caldeweyher, S. Ehlert, A. Hansen, P. Pracht,
     J. Seibert, S. Spicher, S. Grimme, WIREs Comput. Mol. Sci., 2020, 11,
     e01493. DOI: 10.1002/wcms.1493
   
   for GFN2-xTB:
   * C. Bannwarth, S. Ehlert and S. Grimme., J. Chem. Theory Comput., 2019,
     15, 1652-1671. DOI: 10.1021/acs.jctc.8b01176
   for GFN1-xTB:
   * S. Grimme, C. Bannwarth, P. Shushkov, J. Chem. Theory Comput., 2017,
     13, 1989-2009. DOI: 10.1021/acs.jctc.7b00118
   for GFN0-xTB:
   * P. Pracht, E. Caldeweyher, S. Ehlert, S. Grimme, ChemRxiv, 2019, preprint.
     DOI: 10.26434/chemrxiv.8326202.v1
   for GFN-FF:
   * S. Spicher and S. Grimme, Angew. Chem. Int. Ed., 2020, 59, 15665-15673.
     DOI: 10.1002/anie.202004239
   
   for ALPB and GBSA implicit solvation:
   * S. Ehlert, M. Stahn, S. Spicher, S. Grimme, J. Chem. Theory Comput.,
     2021, 17, 4250-4261. DOI: 10.1021/acs.jctc.1c00471
   
   for ddCOSMO and CPCM-X implicit solvation:
   * M. Stahn, S. Ehlert, S. Grimme, J. Phys. Chem. A,
     2023, XX, XXXX-XXXX. DOI: 10.1021/acs.jpca.3c04382
   
   for DFT-D4:
   * E. Caldeweyher, C. Bannwarth and S. Grimme, J. Chem. Phys., 2017,
     147, 034112. DOI: 10.1063/1.4993215
   * E. Caldeweyher, S. Ehlert, A. Hansen, H. Neugebauer, S. Spicher,
     C. Bannwarth and S. Grimme, J. Chem. Phys., 2019, 150, 154122.
     DOI: 10.1063/1.5090222
   * E. Caldeweyher, J.-M. Mewes, S. Ehlert and S. Grimme, Phys. Chem. Chem. Phys.
     2020, 22, 8499-8512. DOI: 10.1039/D0CP00502A
   
   for sTDA-xTB:
   * S. Grimme and C. Bannwarth, J. Chem. Phys., 2016, 145, 054103.
     DOI: 10.1063/1.4959605
   
   in the mass-spec context:
   * V. Asgeirsson, C. Bauer and S. Grimme, Chem. Sci., 2017, 8, 4879.
     DOI: 10.1039/c7sc00601b
   * J. Koopman and S. Grimme, ACS Omega 2019, 4, 12, 15120-15133.
     DOI: 10.1021/acsomega.9b02011
   
   for metadynamics refer to:
   * S. Grimme, J. Chem. Theory Comput., 2019, 155, 2847-2862
     DOI: 10.1021/acs.jctc.9b00143
   
   for SPH calculations refer to:
   * S. Spicher and S. Grimme, J. Chem. Theory Comput., 2021, 17, 1701-1714
     DOI: 10.1021/acs.jctc.0c01306
   
   for ONIOM refer to:
   * C. Plett, A. Katbashev, S. Ehlert, S. Grimme, M. Bursch,
     Phys. Chem. Chem. Phys., 2023, 25, 17860-17868. DOI: 10.1039/D3CP02178E
   
   for DIPRO refer to:
   * J. Kohn, N. Gildemeister, S. Grimme, D. Fazzi, A. Hansen,
     J. Chem. Phys., 2023, just accepted.
   
   for PTB refer to:
   * S. Grimme, M. Mueller, A. Hansen, J. Chem. Phys., 2023, 158, 124111.
     DOI: 10.1063/5.0137838
   
   with help from (in alphabetical order)
   P. Atkinson, C. Bannwarth, F. Bohle, G. Brandenburg, E. Caldeweyher
   M. Checinski, S. Dohm, S. Ehlert, S. Ehrlich, I. Gerasimov, C. Hölzer
   A. Katbashev, J. Kohn, J. Koopman, C. Lavigne, S. Lehtola, F. März, M. Müller,
   F. Musil, H. Neugebauer, J. Pisarek, C. Plett, P. Pracht, F. Pultar,
   J. Seibert, P. Shushkov, S. Spicher, M. Stahn, M. Steiner, T. Strunk,
   J. Stückrath, T. Rose, and J. Unsleber
   
 * started run on 2026/07/08 at 11:06:17.129     
   ID    Z sym.   atoms
    1    6 C      1-9
    2    8 O      10
    3    1 H      11-28

           -------------------------------------------------
          |                Calculation Setup                |
           -------------------------------------------------

          program call               : /home/ws/xd2484/miniforge3/envs/p3z_dft/bin/xtb xtb_input.xyz --gfn 2 --opt tight --cycles 500 --chrg 0 --uhf 0
          hostname                   : gpu10
          coordinate file            : xtb_input.xyz
          omp threads                :                    16


           -------------------------------------------------
          |                 G F N 2 - x T B                 |
           -------------------------------------------------

        Reference                      10.1021/acs.jctc.8b01176
      * Hamiltonian:
        H0-scaling (s, p, d)           1.850000    2.230000    2.230000
        zeta-weighting                 0.500000
      * Dispersion:
        s8                             2.700000
        a1                             0.520000
        a2                             5.000000
        s9                             5.000000
      * Repulsion:
        kExp                           1.500000    1.000000
        rExp                           1.000000
      * Coulomb:
        alpha                          2.000000
        third order                    shell-resolved
        anisotropic                    true
        a3                             3.000000
        a5                             4.000000
        cn-shift                       1.200000
        cn-exp                         4.000000
        max-rad                        5.000000


          ...................................................
          :                      SETUP                      :
          :.................................................:
          :  # basis functions                  58          :
          :  # atomic orbitals                  58          :
          :  # shells                           38          :
          :  # electrons                        60          :
          :  max. iterations                   250          :
          :  Hamiltonian                  GFN2-xTB          :
          :  restarted?                      false          :
          :  GBSA solvation                  false          :
          :  PC potential                    false          :
          :  electronic temp.          300.0000000     K    :
          :  accuracy                    1.0000000          :
          :  -> integral cutoff          0.2500000E+02      :
          :  -> integral neglect         0.1000000E-07      :
          :  -> SCF convergence          0.1000000E-05 Eh   :
          :  -> wf. convergence          0.1000000E-03 e    :
          :  Broyden damping             0.4000000          :
          :  net charge                          0          :
          :  unpaired electrons                  0          :
          ...................................................

 iter      E             dE          RMSdq      gap      omega  full diag
   1    -32.8535082 -0.328535E+02  0.341E+00    4.64       0.0  T
   2    -32.9375167 -0.840085E-01  0.180E+00    3.54       1.0  T
   3    -32.9449839 -0.746728E-02  0.117E+00    4.13       1.0  T
   4    -32.9504393 -0.545536E-02  0.223E-01    3.79       1.0  T
   5    -32.9508409 -0.401586E-03  0.782E-02    3.86       1.0  T
   6    -32.9508607 -0.197821E-04  0.241E-02    3.85       1.0  T
   7    -32.9508614 -0.695419E-06  0.552E-03    3.85       3.4  T
   8    -32.9508615 -0.135299E-06  0.173E-03    3.85      10.9  T
   9    -32.9508615 -0.621100E-08  0.811E-04    3.85      23.3  T
  10    -32.9508615 -0.188064E-08  0.184E-04    3.85     102.5  T

   *** convergence criteria satisfied after 10 iterations ***

         #    Occupation            Energy/Eh            Energy/eV
      -------------------------------------------------------------
         1        2.0000           -0.7016878             -19.0939
       ...           ...                  ...                  ...
        24        2.0000           -0.4464467             -12.1484
        25        2.0000           -0.4396472             -11.9634
        26        2.0000           -0.4279229             -11.6444
        27        2.0000           -0.4269330             -11.6174
        28        2.0000           -0.4212386             -11.4625
        29        2.0000           -0.4180573             -11.3759
        30        2.0000           -0.3943857             -10.7318 (HOMO)
        31                         -0.2528880              -6.8814 (LUMO)
        32                          0.0336933               0.9168
        33                          0.0931246               2.5341
        34                          0.0977974               2.6612
        35                          0.1024555               2.7880
       ...                                ...                  ...
        58                          0.5564279              15.1412
      -------------------------------------------------------------
                  HL-Gap            0.1414977 Eh            3.8503 eV
             Fermi-level           -0.3236368 Eh           -8.8066 eV

 SCC (total)                   0 d,  0 h,  0 min,  0.298 sec
 SCC setup                      ...        0 min,  0.004 sec (  1.341%)
 Dispersion                     ...        0 min,  0.009 sec (  3.146%)
 classical contributions        ...        0 min,  0.005 sec (  1.540%)
 integral evaluation            ...        0 min,  0.014 sec (  4.834%)
 iterations                     ...        0 min,  0.207 sec ( 69.627%)
 molecular gradient             ...        0 min,  0.058 sec ( 19.443%)
 printout                       ...        0 min,  0.000 sec (  0.059%)

         :::::::::::::::::::::::::::::::::::::::::::::::::::::
         ::                     SUMMARY                     ::
         :::::::::::::::::::::::::::::::::::::::::::::::::::::
         :: total energy             -32.517299059335 Eh    ::
         :: gradient norm              0.053969880828 Eh/a0 ::
         :: HOMO-LUMO gap              3.850347508113 eV    ::
         ::.................................................::
         :: SCC energy               -32.950966016176 Eh    ::
         :: -> isotropic ES            0.030678514251 Eh    ::
         :: -> anisotropic ES          0.007831604925 Eh    ::
         :: -> anisotropic XC          0.017167782944 Eh    ::
         :: -> dispersion             -0.017336678292 Eh    ::
         :: repulsion energy           0.433666956841 Eh    ::
         :: add. restraining           0.000000000000 Eh    ::
         :: total charge               0.000000000000 e     ::
         :::::::::::::::::::::::::::::::::::::::::::::::::::::

      ----------------------------------------------------------- 
     |                   =====================                   |
     |                        A N C O P T                        |
     |                   =====================                   |
     |               Approximate Normal Coordinate               |
     |                Rational Function Optimizer                |
      ----------------------------------------------------------- 
      ----------------------------------------------------------- 
     |                   =====================                   |
     |                        A N C O P T                        |
     |                   =====================                   |
     |               Approximate Normal Coordinate               |
     |                Rational Function Optimizer                |
      ----------------------------------------------------------- 

          ...................................................
          :                      SETUP                      :
          :.................................................:
          :   optimization level             tight          :
          :   max. optcycles                   500          :
          :   ANC micro-cycles                  20          :
          :   degrees of freedom                78          :
          :.................................................:
          :   RF solver                   davidson          :
          :   write xtbopt.log                true          :
          :   linear?                        false          :
          :   energy convergence         0.1000000E-05 Eh   :
          :   grad. convergence          0.8000000E-03 Eh/α :
          :   maxmium RF displ.          1.0000000          :
          :   Hlow (freq-cutoff)         0.1000000E-01      :
          :   Hmax (freq-cutoff)         5.0000000          :
          :   S6 in model hess.         20.0000000          :
          ...................................................

generating ANC from exact Hessian ...
Using Lindh-Hessian (1995)
 Shifting diagonal of input Hessian by    9.2985652990458991E-003
 Lowest  eigenvalues of input Hessian
    0.000000    0.000000    0.000000    0.000000    0.000000    0.000000
    0.010000    0.010256    0.010909    0.011884    0.012987    0.013766
    0.015267    0.016286    0.017345    0.019829    0.020243    0.023053
 Highest eigenvalues
    1.209400    1.224918    1.251298    1.286942    1.386552    2.044298


........................................................................
.............................. CYCLE    1 ..............................
........................................................................

 iter      E             dE          RMSdq      gap      omega  full diag
   1    -32.9508615 -0.329509E+02  0.438E-05    3.85       0.0  T
   2    -32.9508615 -0.743938E-11  0.225E-05    3.85     839.6  T
   3    -32.9508615 -0.355271E-12  0.152E-05    3.85    1244.8  T
     SCC iter.                  ...        0 min,  0.056 sec
     gradient                   ...        0 min,  0.038 sec
 * total energy  :   -32.5172991 Eh     change       -0.7626255E-10 Eh
   gradient norm :     0.0539728 Eh/α   predicted     0.0000000E+00 (-100.00%)
   displ. norm   :     0.0986978 α      lambda       -0.2601676E-02
   maximum displ.:     0.0430584 α      in ANC's #15, #52, #37, ...

........................................................................
.............................. CYCLE    2 ..............................
........................................................................

 iter      E             dE          RMSdq      gap      omega  full diag
   1    -32.9676512 -0.329677E+02  0.102E-01    4.01       0.0  T
   2    -32.9677206 -0.694107E-04  0.588E-02    3.99       1.0  T
   3    -32.9677226 -0.203092E-05  0.282E-02    4.00       1.0  T
   4    -32.9677236 -0.986221E-06  0.618E-03    3.99       3.1  T
   5    -32.9677242 -0.571425E-06  0.273E-03    3.99       6.9  T
   6    -32.9677243 -0.616763E-07  0.779E-04    3.99      24.2  T
   7    -32.9677243 -0.962345E-09  0.366E-04    3.99      51.7  T
     SCC iter.                  ...        0 min,  0.154 sec
     gradient                   ...        0 min,  0.057 sec
 * total energy  :   -32.5188562 Eh     change       -0.1557095E-02 Eh
   gradient norm :     0.0130694 Eh/α   predicted    -0.1313532E-02 ( -15.64%)
   displ. norm   :     0.0589473 α      lambda       -0.2237934E-03
   maximum displ.:     0.0283591 α      in ANC's #15, #9, #6, ...

........................................................................
.............................. CYCLE    3 ..............................
........................................................................

 iter      E             dE          RMSdq      gap      omega  full diag
   1    -32.9715218 -0.329715E+02  0.342E-02    4.03       0.0  T
   2    -32.9715318 -0.100560E-04  0.186E-02    4.02       1.0  T
   3    -32.9715321 -0.307028E-06  0.939E-03    4.02       2.0  T
   4    -32.9715322 -0.327319E-07  0.159E-03    4.02      11.9  T
   5    -32.9715322 -0.121674E-07  0.385E-04    4.02      49.1  T
   6    -32.9715322 -0.759790E-09  0.116E-04    4.02     162.4  T
     SCC iter.                  ...        0 min,  0.105 sec
     gradient                   ...        0 min,  0.044 sec
 * total energy  :   -32.5189780 Eh     change       -0.1217977E-03 Eh
   gradient norm :     0.0018657 Eh/α   predicted    -0.1123008E-03 (  -7.80%)
   displ. norm   :     0.0427351 α      lambda       -0.1843809E-04
   maximum displ.:     0.0226196 α      in ANC's #6, #15, #10, ...

........................................................................
.............................. CYCLE    4 ..............................
........................................................................

 iter      E             dE          RMSdq      gap      omega  full diag
   1    -32.9715661 -0.329716E+02  0.123E-02    4.02       0.0  T
   2    -32.9715664 -0.297834E-06  0.722E-03    4.02       2.6  T
   3    -32.9715663  0.206288E-07  0.269E-03    4.02       7.0  T
   4    -32.9715664 -0.604744E-07  0.640E-04    4.02      29.5  T
   5    -32.9715664 -0.460319E-08  0.238E-04    4.02      79.3  T
     SCC iter.                  ...        0 min,  0.090 sec
     gradient                   ...        0 min,  0.053 sec
 * total energy  :   -32.5189941 Eh     change       -0.1610348E-04 Eh
   gradient norm :     0.0009777 Eh/α   predicted    -0.9227735E-05 ( -42.70%)
   displ. norm   :     0.0435676 α      lambda        0.9375059E-05
   maximum displ.:     0.0232037 α      in ANC's #6, #15, #10, ...

........................................................................
.............................. CYCLE    5 ..............................
........................................................................

 iter      E             dE          RMSdq      gap      omega  full diag
   1    -32.9715449 -0.329715E+02  0.125E-02    4.02       0.0  T
   2    -32.9715452 -0.304659E-06  0.731E-03    4.02       2.6  T
   3    -32.9715452  0.211706E-07  0.275E-03    4.02       6.9  T
   4    -32.9715452 -0.632183E-07  0.650E-04    4.02      29.1  T
   5    -32.9715452 -0.469542E-08  0.245E-04    4.02      77.0  T
     SCC iter.                  ...        0 min,  0.073 sec
     gradient                   ...        0 min,  0.045 sec
 * total energy  :   -32.5189870 Eh     change        0.7070285E-05 Eh
   gradient norm :     0.0024776 Eh/α   predicted     0.4689476E-05 ( -33.67%)
   displ. norm   :     0.0161443 α      lambda       -0.1446433E-04
   maximum displ.:     0.0093950 α      in ANC's #15, #13, #9, ...

........................................................................
.............................. CYCLE    6 ..............................
........................................................................

 iter      E             dE          RMSdq      gap      omega  full diag
   1    -32.9714305 -0.329714E+02  0.835E-03    4.02       0.0  T
   2    -32.9714306 -0.180588E-06  0.480E-03    4.02       3.9  T
   3    -32.9714306  0.303046E-08  0.180E-03    4.02      10.5  T
   4    -32.9714307 -0.177142E-07  0.486E-04    4.02      38.9  T
   5    -32.9714307 -0.305211E-08  0.144E-04    4.02     131.1  T
     SCC iter.                  ...        0 min,  0.130 sec
     gradient                   ...        0 min,  0.051 sec
 * total energy  :   -32.5189970 Eh     change       -0.9985634E-05 Eh
   gradient norm :     0.0010309 Eh/α   predicted    -0.7236073E-05 ( -27.54%)
   displ. norm   :     0.0200995 α      lambda       -0.4709843E-05
   maximum displ.:     0.0095334 α      in ANC's #15, #7, #13, ...

........................................................................
.............................. CYCLE    7 ..............................
........................................................................

 iter      E             dE          RMSdq      gap      omega  full diag
   1    -32.9714244 -0.329714E+02  0.715E-03    4.02       0.0  T
   2    -32.9714245 -0.132992E-06  0.420E-03    4.02       4.5  T
   3    -32.9714245  0.315146E-08  0.170E-03    4.02      11.1  T
   4    -32.9714245 -0.194186E-07  0.426E-04    4.02      44.4  T
   5    -32.9714245 -0.213495E-08  0.136E-04    4.02     138.9  T
     SCC iter.                  ...        0 min,  0.072 sec
     gradient                   ...        0 min,  0.041 sec
 * total energy  :   -32.5189997 Eh     change       -0.2753513E-05 Eh
   gradient norm :     0.0004886 Eh/α   predicted    -0.2355458E-05 ( -14.46%)
   displ. norm   :     0.0121486 α      lambda       -0.1017604E-05
   maximum displ.:     0.0069455 α      in ANC's #6, #7, #8, ...

........................................................................
.............................. CYCLE    8 ..............................
........................................................................

 iter      E             dE          RMSdq      gap      omega  full diag
   1    -32.9714449 -0.329714E+02  0.282E-03    4.02       0.0  T
   2    -32.9714449 -0.853304E-08  0.166E-03    4.02      11.4  T
   3    -32.9714449  0.946407E-09  0.412E-04    4.02      45.9  T
   4    -32.9714449 -0.174702E-08  0.112E-04    4.02     168.1  T
     SCC iter.                  ...        0 min,  0.103 sec
     gradient                   ...        0 min,  0.052 sec
 * total energy  :   -32.5190010 Eh     change       -0.1229916E-05 Eh
   gradient norm :     0.0002030 Eh/α   predicted    -0.5149724E-06 ( -58.13%)
   displ. norm   :     0.0342968 α      lambda       -0.1693001E-05
   maximum displ.:     0.0173838 α      in ANC's #6, #7, #8, ...

........................................................................
.............................. CYCLE    9 ..............................
........................................................................

 iter      E             dE          RMSdq      gap      omega  full diag
   1    -32.9714440 -0.329714E+02  0.667E-03    4.02       0.0  T
   2    -32.9714440 -0.795712E-08  0.398E-03    4.02       4.8  T
   3    -32.9714440  0.122282E-08  0.406E-04    4.02      46.6  T
   4    -32.9714440 -0.287010E-08  0.141E-04    4.02     134.0  T
     SCC iter.                  ...        0 min,  0.073 sec
     gradient                   ...        0 min,  0.049 sec
 * total energy  :   -32.5190026 Eh     change       -0.1692937E-05 Eh
   gradient norm :     0.0001586 Eh/α   predicted    -0.8549827E-06 ( -49.50%)
   displ. norm   :     0.0296991 α      lambda       -0.8641693E-06
   maximum displ.:     0.0132511 α      in ANC's #7, #6, #5, ...

........................................................................
.............................. CYCLE   10 ..............................
........................................................................

 iter      E             dE          RMSdq      gap      omega  full diag
   1    -32.9714567 -0.329715E+02  0.514E-03    4.02       0.0  T
   2    -32.9714567 -0.169877E-08  0.307E-03    4.02       6.1  T
   3    -32.9714567 -0.582361E-09  0.134E-04    4.02     140.6  T
   4    -32.9714567 -0.557350E-10  0.699E-05    4.02     270.2  T
     SCC iter.                  ...        0 min,  0.068 sec
     gradient                   ...        0 min,  0.047 sec
 * total energy  :   -32.5190036 Eh     change       -0.9194834E-06 Eh
   gradient norm :     0.0002131 Eh/α   predicted    -0.4328263E-06 ( -52.93%)
   displ. norm   :     0.0346288 α      lambda       -0.8612986E-06
   maximum displ.:     0.0165791 α      in ANC's #5, #4, #2, ...

   *** GEOMETRY OPTIMIZATION CONVERGED AFTER 10 ITERATIONS ***

------------------------------------------------------------------------
 total energy gain   :        -0.0017045 Eh       -1.0696 kcal/mol
 total RMSD          :         0.0435322 a0        0.0230 Å
 total power (kW/mol):        -0.4475184 (step)   -2.4353 (real)
------------------------------------------------------------------------

 ANCopt (total)                0 d,  0 h,  0 min,  1.838 sec
 optimizer setup                ...        0 min,  0.001 sec (  0.035%)
 model hessian                  ...        0 min,  0.013 sec (  0.689%)
 ANC generation                 ...        0 min,  0.001 sec (  0.068%)
 coordinate transformation      ...        0 min,  0.000 sec (  0.006%)
 single point calculation       ...        0 min,  1.774 sec ( 96.547%)
 optimization log               ...        0 min,  0.001 sec (  0.075%)
 hessian update                 ...        0 min,  0.045 sec (  2.439%)
 rational function              ...        0 min,  0.001 sec (  0.046%)

================
 final structure:
================
28
 xtb: 6.7.1 (edcfbbe)
C            4.31846235858176        0.44330419172150       -0.00526784153635
C            3.68839378883225       -0.67859853702642        0.81200928759564
C            2.25423773336586       -0.37492853114092        1.24668486905203
C            1.27014648272605       -0.31119074708388        0.08050836130921
C           -0.16725241279585       -0.12287809200275        0.55927742202479
C           -1.14765140226612       -0.04167897294306       -0.60702421265600
C           -2.58596791492527        0.14365964111521       -0.13273501441135
C           -3.57112845668951        0.22724642955012       -1.27977731457778
C           -5.00839059360484        0.41040546283246       -0.85068269587950
O           -3.24380663927072        0.15433716793876       -2.43572712470671
H            4.27280180864778        1.38325358761864        0.54085132524415
H            5.36221012502962        0.21827364461607       -0.21282067599108
H            3.80530603854218        0.57045291101375       -0.95469232470006
H            4.29422297070527       -0.84623065155337        1.70591213033372
H            3.69914181556687       -1.60201454714245        0.22850818958941
H            1.92700139001315       -1.15475255497922        1.93943998266346
H            2.23598908492126        0.57427069826214        1.78777998589089
H            1.33793619504981       -1.23459650977517       -0.49930692257603
H            1.53266784605302        0.51644477932228       -0.57985172719182
H           -0.23188358642688        0.79278031274633        1.15287397458066
H           -0.44402395637250       -0.95712037785213        1.20926822507426
H           -0.87918963282190        0.79219278308651       -1.25817417089003
H           -1.08621739899566       -0.95249045860171       -1.20538925118563
H           -2.88149099375046       -0.68763257245031        0.51267752836723
H           -2.67354389810485        1.05742428261376        0.46082392616286
H           -5.10789854515124        1.32622177701635       -0.27244004899818
H           -5.65485871275602        0.46105471720457       -1.72260385647845
H           -5.31521349410507       -0.42100846500705       -0.22012202610730

 Bond Distances (Angstroems)
 ---------------------------
C1-C2=1.5243         C1-H11=1.0880        C1-H12=1.0877        C1-H13=1.0867        C2-C1=1.5243         C2-C3=1.5290         
C2-H14=1.0928        C2-H15=1.0924        C3-C2=1.5290         C3-C4=1.5272         C3-H16=1.0932        C3-H17=1.0927        
C4-C3=1.5272         C4-C5=1.5267         C4-H18=1.0925        C4-H19=1.0909        C5-C4=1.5267         C5-C6=1.5258         
C5-H20=1.0931        C5-H21=1.0932        C6-C5=1.5258         C6-C7=1.5258         C6-H22=1.0915        C6-H23=1.0915        
C7-C6=1.5258         C7-C8=1.5143         C7-H24=1.0931        C7-H25=1.0931        C8-C7=1.5143         C8-C9=1.5111         
C8-O10=1.2036        C9-C8=1.5111         C9-H26=1.0877        C9-H27=1.0866        C9-H28=1.0877        O10-C8=1.2036        
H11-C1=1.0880        H12-C1=1.0877        H13-C1=1.0867        H14-C2=1.0928        H15-C2=1.0924        H16-C3=1.0932        
H17-C3=1.0927        H18-C4=1.0925        H19-C4=1.0909        H20-C5=1.0931        H21-C5=1.0932        H22-C6=1.0915        
H23-C6=1.0915        H24-C7=1.0931        H25-C7=1.0931        H26-C9=1.0877        H27-C9=1.0866        H28-C9=1.0877        
 C  H  Rav=1.0908 sigma=0.0025  Rmin=1.0866  Rmax=1.0932    18
 C  C  Rav=1.5230 sigma=0.0061  Rmin=1.5111  Rmax=1.5290     8
 O  C  Rav=1.2036 sigma=0.0000  Rmin=1.2036  Rmax=1.2036     1

 selected bond angles (degree)
 --------------------
H11-C1-C2=110.45               H12-C1-C2=110.28               H12-C1-H11=108.35              H13-C1-C2=111.06               
H13-C1-H11=108.52              H13-C1-H12=108.10              C3-C2-C1=113.20                H14-C2-C1=108.80               
H14-C2-C3=108.54               H15-C2-C1=109.37               H15-C2-C3=109.21               H15-C2-H14=107.57              
C4-C3-C2=113.30                H16-C3-C2=108.62               H16-C3-C4=108.71               H17-C3-C2=109.20               
H17-C3-C4=109.34               H17-C3-H16=107.51              C5-C4-C3=111.86                H18-C4-C3=109.27               
H18-C4-C5=109.22               H19-C4-C3=109.81               H19-C4-C5=108.83               H19-C4-H18=107.76              
C6-C5-C4=111.83                H20-C5-C4=109.22               H20-C5-C6=109.42               H21-C5-C4=109.31               
H21-C5-C6=109.42               H21-C5-H20=107.54              C7-C6-C5=112.00                H22-C6-C5=109.79               
H22-C6-C7=108.93               H23-C6-C5=109.78               H23-C6-C7=108.95               H23-C6-H22=107.25              
C8-C7-C6=112.61                H24-C7-C6=110.24               H24-C7-C8=108.26               H25-C7-C6=110.23               
H25-C7-C8=108.24               H25-C7-H24=107.06              C9-C8-C7=114.23                O10-C8-C7=123.17               
O10-C8-C9=122.60               H26-C9-C8=109.88               H27-C9-C8=110.10               H27-C9-H26=109.45              
H28-C9-C8=109.89               H28-C9-H26=108.04              H28-C9-H27=109.45              

 selected dihedral angles (degree)
 ---------------------------------
C3-C2-C1-H11= 55.22           C3-C2-C1-H12=174.95           C3-C2-C1-H13=294.77           H14-C2-C1-H11=294.47          
H14-C2-C1-H12= 54.20          H14-C2-C1-H13=174.02          H15-C2-C1-H11=177.23          H15-C2-C1-H12=296.96          
H15-C2-C1-H13= 56.78          C4-C3-C2-C1= 67.02            C4-C3-C2-H14=187.92           C4-C3-C2-H15=304.91           
H16-C3-C2-C1=187.92           H16-C3-C2-H14=308.83          H16-C3-C2-H15= 65.82          H17-C3-C2-C1=304.89           
H17-C3-C2-H14= 65.79          H17-C3-C2-H15=182.79          C5-C4-C3-C2=175.23            C5-C4-C3-H16= 54.38           
C5-C4-C3-H17=297.28           H18-C4-C3-C2= 54.17           H18-C4-C3-H16=293.32          H18-C4-C3-H17=176.22          
H19-C4-C3-C2=296.18           H19-C4-C3-H16=175.32          H19-C4-C3-H17= 58.23          C6-C5-C4-C3=179.28            
C6-C5-C4-H18=300.37           C6-C5-C4-H19= 57.77           H20-C5-C4-C3= 58.01           H20-C5-C4-H18=179.11          
H20-C5-C4-H19=296.51          H21-C5-C4-C3=300.60           H21-C5-C4-H18= 61.69          H21-C5-C4-H19=179.09          
C7-C6-C5-C4=179.88            C7-C6-C5-H20=301.03           C7-C6-C5-H21= 58.62           H22-C6-C5-C4=301.03           
H22-C6-C5-H20= 62.19          H22-C6-C5-H21=179.78          H23-C6-C5-C4= 58.71           H23-C6-C5-H20=179.86          
H23-C6-C5-H21=297.45          C8-C7-C6-C5=179.95            C8-C7-C6-H22= 58.30           C8-C7-C6-H23=301.60           
H24-C7-C6-C5=300.97           H24-C7-C6-H22=179.32          H24-C7-C6-H23= 62.62          H25-C7-C6-C5= 58.96           
H25-C7-C6-H22=297.31          H25-C7-C6-H23=180.61          C9-C8-C7-C6=179.97            C9-C8-C7-H24= 57.82           
C9-C8-C7-H25=302.09           O10-C8-C7-C6=  0.00           O10-C8-C7-H24=237.84          O10-C8-C7-H25=122.12          
H26-C9-C8-C7= 59.42           H26-C9-C8-O10=239.40          H27-C9-C8-C7=180.04           H27-C9-C8-O10=  0.00          
H28-C9-C8-C7=300.67           H28-C9-C8-O10=120.65          
           -------------------------------------------------
          |                Final Singlepoint                |
           -------------------------------------------------

          ...................................................
          :                      SETUP                      :
          :.................................................:
          :  # basis functions                  58          :
          :  # atomic orbitals                  58          :
          :  # shells                           38          :
          :  # electrons                        60          :
          :  max. iterations                   250          :
          :  Hamiltonian                  GFN2-xTB          :
          :  restarted?                      false          :
          :  GBSA solvation                  false          :
          :  PC potential                    false          :
          :  electronic temp.          300.0000000     K    :
          :  accuracy                    1.0000000          :
          :  -> integral cutoff          0.2500000E+02      :
          :  -> integral neglect         0.1000000E-07      :
          :  -> SCF convergence          0.1000000E-05 Eh   :
          :  -> wf. convergence          0.1000000E-03 e    :
          :  Broyden damping             0.4000000          :
          :  net charge                          0          :
          :  unpaired electrons                  0          :
          ...................................................

 iter      E             dE          RMSdq      gap      omega  full diag
   1    -32.9714567 -0.329715E+02  0.174E-05    4.02       0.0  T
   2    -32.9714567 -0.257216E-11  0.978E-06    4.02    1932.0  T
   3    -32.9714567 -0.959233E-12  0.555E-06    4.02    3406.4  T

   *** convergence criteria satisfied after 3 iterations ***

         #    Occupation            Energy/Eh            Energy/eV
      -------------------------------------------------------------
         1        2.0000           -0.7086035             -19.2821
       ...           ...                  ...                  ...
        24        2.0000           -0.4461230             -12.1396
        25        2.0000           -0.4388809             -11.9426
        26        2.0000           -0.4277911             -11.6408
        27        2.0000           -0.4267630             -11.6128
        28        2.0000           -0.4218485             -11.4791
        29        2.0000           -0.4178655             -11.3707
        30        2.0000           -0.3936221             -10.7110 (HOMO)
        31                         -0.2459570              -6.6928 (LUMO)
        32                          0.0360563               0.9811
        33                          0.0964035               2.6233
        34                          0.1028723               2.7993
        35                          0.1077536               2.9321
       ...                                ...                  ...
        58                          0.6383922              17.3715
      -------------------------------------------------------------
                  HL-Gap            0.1476651 Eh            4.0182 eV
             Fermi-level           -0.3197896 Eh           -8.7019 eV

 SCC (total)                   0 d,  0 h,  0 min,  0.121 sec
 SCC setup                      ...        0 min,  0.005 sec (  4.438%)
 Dispersion                     ...        0 min,  0.010 sec (  8.473%)
 classical contributions        ...        0 min,  0.005 sec (  4.045%)
 integral evaluation            ...        0 min,  0.013 sec ( 10.701%)
 iterations                     ...        0 min,  0.042 sec ( 34.949%)
 molecular gradient             ...        0 min,  0.045 sec ( 37.257%)
 printout                       ...        0 min,  0.000 sec (  0.116%)

         :::::::::::::::::::::::::::::::::::::::::::::::::::::
         ::                     SUMMARY                     ::
         :::::::::::::::::::::::::::::::::::::::::::::::::::::
         :: total energy             -32.519003566894 Eh    ::
         :: gradient norm              0.000213010817 Eh/a0 ::
         :: HOMO-LUMO gap              4.018171124834 eV    ::
         ::.................................................::
         :: SCC energy               -32.971563308655 Eh    ::
         :: -> isotropic ES            0.029417821965 Eh    ::
         :: -> anisotropic ES          0.007657736974 Eh    ::
         :: -> anisotropic XC          0.016498848846 Eh    ::
         :: -> dispersion             -0.017374090419 Eh    ::
         :: repulsion energy           0.452559741761 Eh    ::
         :: add. restraining           0.000000000000 Eh    ::
         :: total charge               0.000000000000 e     ::
         :::::::::::::::::::::::::::::::::::::::::::::::::::::

           -------------------------------------------------
          |                Property Printout                |
           -------------------------------------------------

    * Orbital Energies and Occupations

         #    Occupation            Energy/Eh            Energy/eV
      -------------------------------------------------------------
         1        2.0000           -0.7086035             -19.2821
       ...           ...                  ...                  ...
        18        2.0000           -0.4814067             -13.0997
        19        2.0000           -0.4787140             -13.0265
        20        2.0000           -0.4745821             -12.9140
        21        2.0000           -0.4706726             -12.8077
        22        2.0000           -0.4598409             -12.5129
        23        2.0000           -0.4530984             -12.3294
        24        2.0000           -0.4461230             -12.1396
        25        2.0000           -0.4388809             -11.9426
        26        2.0000           -0.4277911             -11.6408
        27        2.0000           -0.4267630             -11.6128
        28        2.0000           -0.4218485             -11.4791
        29        2.0000           -0.4178655             -11.3707
        30        2.0000           -0.3936221             -10.7110 (HOMO)
        31                         -0.2459570              -6.6928 (LUMO)
        32                          0.0360563               0.9811
        33                          0.0964035               2.6233
        34                          0.1028723               2.7993
        35                          0.1077536               2.9321
        36                          0.1138229               3.0973
        37                          0.1319485               3.5905
        38                          0.1383223               3.7639
        39                          0.1429958               3.8911
        40                          0.1494443               4.0666
        41                          0.1552055               4.2234
       ...                                ...                  ...
        58                          0.6383922              17.3715
      -------------------------------------------------------------
                  HL-Gap            0.1476651 Eh            4.0182 eV
             Fermi-level           -0.3197896 Eh           -8.7019 eV

     #   Z          covCN         q      C6AA      α(0)
     1   6 C        3.751    -0.102    22.518     6.767
     2   6 C        3.800    -0.053    21.525     6.606
     3   6 C        3.802    -0.058    21.617     6.619
     4   6 C        3.803    -0.060    21.644     6.623
     5   6 C        3.803    -0.059    21.639     6.623
     6   6 C        3.804    -0.056    21.574     6.613
     7   6 C        3.804    -0.088    22.169     6.703
     8   6 C        2.810     0.241    22.980     7.854
     9   6 C        3.753    -0.141    23.279     6.880
    10   8 O        0.857    -0.354    20.774     6.111
    11   1 H        0.925     0.034     2.537     2.491
    12   1 H        0.925     0.031     2.566     2.505
    13   1 H        0.925     0.036     2.507     2.476
    14   1 H        0.924     0.028     2.616     2.529
    15   1 H        0.924     0.030     2.588     2.516
    16   1 H        0.924     0.027     2.633     2.538
    17   1 H        0.924     0.030     2.588     2.516
    18   1 H        0.924     0.032     2.563     2.504
    19   1 H        0.924     0.035     2.513     2.479
    20   1 H        0.924     0.028     2.612     2.527
    21   1 H        0.924     0.028     2.620     2.531
    22   1 H        0.924     0.045     2.387     2.416
    23   1 H        0.924     0.045     2.386     2.416
    24   1 H        0.924     0.055     2.255     2.348
    25   1 H        0.924     0.055     2.255     2.348
    26   1 H        0.925     0.062     2.172     2.305
    27   1 H        0.925     0.067     2.120     2.277
    28   1 H        0.925     0.062     2.173     2.305

 Mol. C6AA /au·bohr⁶  :       5605.773078
 Mol. C8AA /au·bohr⁸  :     119211.766339
 Mol. α(0) /au        :        111.425065


Wiberg/Mayer (AO) data.
largest (>0.10) Wiberg bond orders for each atom

 ---------------------------------------------------------------------------
     #   Z sym  total        # sym  WBO       # sym  WBO       # sym  WBO
 ---------------------------------------------------------------------------
     1   6 C    3.997 --     2 C    1.020    11 H    0.988    12 H    0.988
                            13 H    0.986
     2   6 C    3.998 --     1 C    1.020     3 C    1.007    14 H    0.979
                            15 H    0.978
     3   6 C    3.997 --     4 C    1.008     2 C    1.007    16 H    0.977
                            17 H    0.977
     4   6 C    3.997 --     3 C    1.008     5 C    1.007    18 H    0.977
                            19 H    0.976
     5   6 C    3.997 --     6 C    1.007     4 C    1.007    20 H    0.977
                            21 H    0.977
     6   6 C    3.994 --     5 C    1.007     7 C    1.007    23 H    0.976
                            22 H    0.976
     7   6 C    3.997 --     6 C    1.007     8 C    0.988    24 H    0.953
                            25 H    0.953
     8   6 C    3.918 --    10 O    1.874     9 C    0.998     7 C    0.988
     9   6 C    3.994 --     8 C    0.998    27 H    0.984    28 H    0.965
                            26 H    0.965
    10   8 O    2.078 --     8 C    1.874
    11   1 H    0.999 --     1 C    0.988
    12   1 H    0.999 --     1 C    0.988
    13   1 H    0.999 --     1 C    0.986
    14   1 H    0.999 --     2 C    0.979
    15   1 H    0.999 --     2 C    0.978
    16   1 H    0.999 --     3 C    0.977
    17   1 H    0.999 --     3 C    0.977
    18   1 H    0.999 --     4 C    0.977
    19   1 H    0.999 --     4 C    0.976
    20   1 H    0.999 --     5 C    0.977
    21   1 H    0.999 --     5 C    0.977
    22   1 H    0.998 --     6 C    0.976
    23   1 H    0.998 --     6 C    0.976
    24   1 H    0.997 --     7 C    0.953
    25   1 H    0.997 --     7 C    0.953
    26   1 H    0.996 --     9 C    0.965
    27   1 H    0.995 --     9 C    0.984
    28   1 H    0.996 --     9 C    0.965
 ---------------------------------------------------------------------------

Topologies differ in total number of bonds
Writing topology from bond orders to xtbtopo.mol

molecular dipole:
                 x           y           z       tot (Debye)
 q only:       -0.183       0.064       1.003
   full:       -0.289       0.080       1.230       3.218
molecular quadrupole (traceless):
                xx          xy          yy          xz          yz          zz
 q only:        8.109      -0.987       0.535      -8.719       0.244      -8.644
  q+dip:        7.853      -0.922       2.682     -10.350       0.649     -10.535
   full:        8.515      -0.906       2.602     -10.373       0.430     -11.117

           -------------------------------------------------
          |                Geometry Summary                 |
           -------------------------------------------------

      molecular mass/u    :      142.2389615
   center of mass at/Å    :       -0.4153062      -0.0095238      -0.2704090
  moments of inertia/u·Å² :        0.1140251E+03   0.1483495E+04   0.1550638E+04
rotational constants/cm⁻¹ :        0.1478414E+00   0.1136346E-01   0.1087141E-01

 * 25 selected distances

     #   Z          #   Z                                           value/Å
     1   6 C        2   6 C                                       1.5243341
     2   6 C        3   6 C                                       1.5290397 (max)
     3   6 C        4   6 C                                       1.5272414
     4   6 C        5   6 C                                       1.5266950
     5   6 C        6   6 C                                       1.5257901
     6   6 C        7   6 C                                       1.5257967
     8   6 C       10   8 O                                       1.2036094
     1   6 C       11   1 H                                       1.0880423
     1   6 C       12   1 H                                       1.0877162
     1   6 C       13   1 H                                       1.0866937
     2   6 C       14   1 H                                       1.0927909
     2   6 C       15   1 H                                       1.0923765
     3   6 C       16   1 H                                       1.0932150
     3   6 C       17   1 H                                       1.0927472
     4   6 C       18   1 H                                       1.0924558
     4   6 C       19   1 H                                       1.0908592
     5   6 C       20   1 H                                       1.0931444
     5   6 C       21   1 H                                       1.0931839
     6   6 C       22   1 H                                       1.0915174
     6   6 C       23   1 H                                       1.0915093
     7   6 C       24   1 H                                       1.0931323
     7   6 C       25   1 H                                       1.0931367
     9   6 C       26   1 H                                       1.0876517
     9   6 C       27   1 H                                       1.0866154 (min)
     9   6 C       28   1 H                                       1.0876564

 * 3 distinct bonds (by element types)

   Z      Z             #   av. dist./Å        max./Å        min./Å
   1 H    6 C          18     1.0908025     1.0932150     1.0866154
   6 C    6 C           6     1.5264828     1.5290397     1.5243341
   6 C    8 O           1     1.2036094     1.2036094     1.2036094


optimized geometry written to: xtbopt.xyz


           -------------------------------------------------
          | TOTAL ENERGY              -32.519003566894 Eh   |
          | GRADIENT NORM               0.000213010817 Eh/α |
          | HOMO-LUMO GAP               4.018171124834 eV   |
           -------------------------------------------------

------------------------------------------------------------------------
 * finished run on 2026/07/08 at 11:06:19.445     
------------------------------------------------------------------------
 total:
 * wall-time:     0 d,  0 h,  0 min,  2.315 sec
 *  cpu-time:     0 d,  0 h,  0 min, 36.856 sec
 * ratio c/w:    15.921 speedup
 SCF:
 * wall-time:     0 d,  0 h,  0 min,  0.298 sec
 *  cpu-time:     0 d,  0 h,  0 min,  4.762 sec
 * ratio c/w:    15.973 speedup
 ANC optimizer:
 * wall-time:     0 d,  0 h,  0 min,  1.964 sec
 *  cpu-time:     0 d,  0 h,  0 min, 31.321 sec
 * ratio c/w:    15.946 speedup

