26
DEC_00331 MMFF geometry for GFN2-xTB preoptimization
C  -2.972743782805  0.345558283307 -0.642670389456
C  -1.828001455147 -0.011850855654  0.297605999234
C  -2.347493620241 -0.323694090346  1.698547425854
C  -1.052364117782 -1.199887801658 -0.268657652402
O  -1.321441918688 -2.361859763476  0.046019949573
C   0.042367889759 -0.905107795436 -1.278337277903
C   1.237391417255 -0.221796469577 -0.664634037912
C   1.608780204944  1.068142776835 -1.067407706918
C   2.713303222416  1.697366186938 -0.490710354976
C   3.457399101404  1.043643706570  0.489638473318
C   3.100137990603 -0.241190098581  0.893225115876
C   1.996798883532 -0.872744945987  0.318250346068
H  -3.542787105625  1.197558664634 -0.257933413779
H  -2.597606479674  0.613677718037 -1.635835218934
H  -3.661162200334 -0.497462933033 -0.769044171414
H  -1.146705046766  0.841963117804  0.378937468482
H  -3.068348334739 -1.148707304002  1.686610314236
H  -1.524872026770 -0.612149410102  2.361996127370
H  -2.842383136614  0.551252565435  2.132803989561
H  -0.387529409078 -0.307726285662 -2.089914640137
H   0.366230609865 -1.849611552423 -1.732480071762
H   1.043111275561  1.594421960607 -1.833034001684
H   2.995556617366  2.698109561969 -0.807745075814
H   4.317959150062  1.534047136877  0.937136117513
H   3.681985254176 -0.753501036272  1.655253975764
H   1.732417017320 -1.878451336804  0.642378710243
