      -----------------------------------------------------------      
     |                   =====================                   |     
     |                           x T B                           |     
     |                   =====================                   |     
     |                         S. Grimme                         |     
     |          Mulliken Center for Theoretical Chemistry        |     
     |                    University of Bonn                     |     
      -----------------------------------------------------------      

   * xtb version 6.7.1 (edcfbbe) compiled by 'conda@5dfe00f5fb80' on 2026-06-10

   xtb is free software: you can redistribute it and/or modify it under
   the terms of the GNU Lesser General Public License as published by
   the Free Software Foundation, either version 3 of the License, or
   (at your option) any later version.
   
   xtb is distributed in the hope that it will be useful,
   but WITHOUT ANY WARRANTY; without even the implied warranty of
   MERCHANTABILITY or FITNESS FOR A PARTICULAR PURPOSE.  See the
   GNU Lesser General Public License for more details.
   
   Cite this work as:
   * C. Bannwarth, E. Caldeweyher, S. Ehlert, A. Hansen, P. Pracht,
     J. Seibert, S. Spicher, S. Grimme, WIREs Comput. Mol. Sci., 2020, 11,
     e01493. DOI: 10.1002/wcms.1493
   
   for GFN2-xTB:
   * C. Bannwarth, S. Ehlert and S. Grimme., J. Chem. Theory Comput., 2019,
     15, 1652-1671. DOI: 10.1021/acs.jctc.8b01176
   for GFN1-xTB:
   * S. Grimme, C. Bannwarth, P. Shushkov, J. Chem. Theory Comput., 2017,
     13, 1989-2009. DOI: 10.1021/acs.jctc.7b00118
   for GFN0-xTB:
   * P. Pracht, E. Caldeweyher, S. Ehlert, S. Grimme, ChemRxiv, 2019, preprint.
     DOI: 10.26434/chemrxiv.8326202.v1
   for GFN-FF:
   * S. Spicher and S. Grimme, Angew. Chem. Int. Ed., 2020, 59, 15665-15673.
     DOI: 10.1002/anie.202004239
   
   for ALPB and GBSA implicit solvation:
   * S. Ehlert, M. Stahn, S. Spicher, S. Grimme, J. Chem. Theory Comput.,
     2021, 17, 4250-4261. DOI: 10.1021/acs.jctc.1c00471
   
   for ddCOSMO and CPCM-X implicit solvation:
   * M. Stahn, S. Ehlert, S. Grimme, J. Phys. Chem. A,
     2023, XX, XXXX-XXXX. DOI: 10.1021/acs.jpca.3c04382
   
   for DFT-D4:
   * E. Caldeweyher, C. Bannwarth and S. Grimme, J. Chem. Phys., 2017,
     147, 034112. DOI: 10.1063/1.4993215
   * E. Caldeweyher, S. Ehlert, A. Hansen, H. Neugebauer, S. Spicher,
     C. Bannwarth and S. Grimme, J. Chem. Phys., 2019, 150, 154122.
     DOI: 10.1063/1.5090222
   * E. Caldeweyher, J.-M. Mewes, S. Ehlert and S. Grimme, Phys. Chem. Chem. Phys.
     2020, 22, 8499-8512. DOI: 10.1039/D0CP00502A
   
   for sTDA-xTB:
   * S. Grimme and C. Bannwarth, J. Chem. Phys., 2016, 145, 054103.
     DOI: 10.1063/1.4959605
   
   in the mass-spec context:
   * V. Asgeirsson, C. Bauer and S. Grimme, Chem. Sci., 2017, 8, 4879.
     DOI: 10.1039/c7sc00601b
   * J. Koopman and S. Grimme, ACS Omega 2019, 4, 12, 15120-15133.
     DOI: 10.1021/acsomega.9b02011
   
   for metadynamics refer to:
   * S. Grimme, J. Chem. Theory Comput., 2019, 155, 2847-2862
     DOI: 10.1021/acs.jctc.9b00143
   
   for SPH calculations refer to:
   * S. Spicher and S. Grimme, J. Chem. Theory Comput., 2021, 17, 1701-1714
     DOI: 10.1021/acs.jctc.0c01306
   
   for ONIOM refer to:
   * C. Plett, A. Katbashev, S. Ehlert, S. Grimme, M. Bursch,
     Phys. Chem. Chem. Phys., 2023, 25, 17860-17868. DOI: 10.1039/D3CP02178E
   
   for DIPRO refer to:
   * J. Kohn, N. Gildemeister, S. Grimme, D. Fazzi, A. Hansen,
     J. Chem. Phys., 2023, just accepted.
   
   for PTB refer to:
   * S. Grimme, M. Mueller, A. Hansen, J. Chem. Phys., 2023, 158, 124111.
     DOI: 10.1063/5.0137838
   
   with help from (in alphabetical order)
   P. Atkinson, C. Bannwarth, F. Bohle, G. Brandenburg, E. Caldeweyher
   M. Checinski, S. Dohm, S. Ehlert, S. Ehrlich, I. Gerasimov, C. Hölzer
   A. Katbashev, J. Kohn, J. Koopman, C. Lavigne, S. Lehtola, F. März, M. Müller,
   F. Musil, H. Neugebauer, J. Pisarek, C. Plett, P. Pracht, F. Pultar,
   J. Seibert, P. Shushkov, S. Spicher, M. Stahn, M. Steiner, T. Strunk,
   J. Stückrath, T. Rose, and J. Unsleber
   
 * started run on 2026/07/09 at 01:14:46.586     
   ID    Z sym.   atoms
    1    6 C      1, 3, 5-7, 10
    2    8 O      2, 4, 8, 9
    3    1 H      11-20

           -------------------------------------------------
          |                Calculation Setup                |
           -------------------------------------------------

          program call               : /home/ws/xd2484/miniforge3/envs/p3z_dft/bin/xtb xtb_input.xyz --gfn 2 --opt tight --cycles 500 --chrg 0 --uhf 0
          hostname                   : gpu10
          coordinate file            : xtb_input.xyz
          omp threads                :                    16


           -------------------------------------------------
          |                 G F N 2 - x T B                 |
           -------------------------------------------------

        Reference                      10.1021/acs.jctc.8b01176
      * Hamiltonian:
        H0-scaling (s, p, d)           1.850000    2.230000    2.230000
        zeta-weighting                 0.500000
      * Dispersion:
        s8                             2.700000
        a1                             0.520000
        a2                             5.000000
        s9                             5.000000
      * Repulsion:
        kExp                           1.500000    1.000000
        rExp                           1.000000
      * Coulomb:
        alpha                          2.000000
        third order                    shell-resolved
        anisotropic                    true
        a3                             3.000000
        a5                             4.000000
        cn-shift                       1.200000
        cn-exp                         4.000000
        max-rad                        5.000000


          ...................................................
          :                      SETUP                      :
          :.................................................:
          :  # basis functions                  50          :
          :  # atomic orbitals                  50          :
          :  # shells                           30          :
          :  # electrons                        58          :
          :  max. iterations                   250          :
          :  Hamiltonian                  GFN2-xTB          :
          :  restarted?                      false          :
          :  GBSA solvation                  false          :
          :  PC potential                    false          :
          :  electronic temp.          300.0000000     K    :
          :  accuracy                    1.0000000          :
          :  -> integral cutoff          0.2500000E+02      :
          :  -> integral neglect         0.1000000E-07      :
          :  -> SCF convergence          0.1000000E-05 Eh   :
          :  -> wf. convergence          0.1000000E-03 e    :
          :  Broyden damping             0.4000000          :
          :  net charge                          0          :
          :  unpaired electrons                  0          :
          ...................................................

 iter      E             dE          RMSdq      gap      omega  full diag
   1    -34.4425081 -0.344425E+02  0.481E+00    5.74       0.0  T
   2    -34.5233894 -0.808813E-01  0.244E+00    4.60       1.0  T
   3    -34.5281114 -0.472200E-02  0.143E+00    5.09       1.0  T
   4    -34.5339145 -0.580307E-02  0.155E-01    4.81       1.0  T
   5    -34.5341380 -0.223551E-03  0.712E-02    4.85       1.0  T
   6    -34.5341409 -0.287904E-05  0.111E-02    4.85       2.0  T
   7    -34.5341412 -0.348064E-06  0.525E-03    4.85       4.3  T
   8    -34.5341413 -0.701166E-07  0.161E-03    4.85      13.9  T
   9    -34.5341413 -0.478213E-08  0.532E-04    4.85      42.0  T
  10    -34.5341413 -0.195748E-08  0.155E-04    4.85     143.9  T

   *** convergence criteria satisfied after 10 iterations ***

         #    Occupation            Energy/Eh            Energy/eV
      -------------------------------------------------------------
         1        2.0000           -0.7415028             -20.1773
       ...           ...                  ...                  ...
        23        2.0000           -0.4781863             -13.0121
        24        2.0000           -0.4760336             -12.9535
        25        2.0000           -0.4660982             -12.6832
        26        2.0000           -0.4492461             -12.2246
        27        2.0000           -0.4492042             -12.2235
        28        2.0000           -0.4240746             -11.5397
        29        2.0000           -0.4188194             -11.3967 (HOMO)
        30                         -0.2404818              -6.5438 (LUMO)
        31                         -0.2396197              -6.5204
        32                         -0.0017208              -0.0468
        33                          0.0116065               0.3158
        34                          0.1001269               2.7246
       ...                                ...                  ...
        50                          0.5948363              16.1863
      -------------------------------------------------------------
                  HL-Gap            0.1783376 Eh            4.8528 eV
             Fermi-level           -0.3296506 Eh           -8.9702 eV

 SCC (total)                   0 d,  0 h,  0 min,  0.232 sec
 SCC setup                      ...        0 min,  0.006 sec (  2.590%)
 Dispersion                     ...        0 min,  0.012 sec (  5.054%)
 classical contributions        ...        0 min,  0.006 sec (  2.528%)
 integral evaluation            ...        0 min,  0.018 sec (  7.887%)
 iterations                     ...        0 min,  0.157 sec ( 67.599%)
 molecular gradient             ...        0 min,  0.033 sec ( 14.261%)
 printout                       ...        0 min,  0.000 sec (  0.068%)

         :::::::::::::::::::::::::::::::::::::::::::::::::::::
         ::                     SUMMARY                     ::
         :::::::::::::::::::::::::::::::::::::::::::::::::::::
         :: total energy             -34.227222007077 Eh    ::
         :: gradient norm              0.071708908558 Eh/a0 ::
         :: HOMO-LUMO gap              4.852812084688 eV    ::
         ::.................................................::
         :: SCC energy               -34.534121614922 Eh    ::
         :: -> isotropic ES            0.087752105811 Eh    ::
         :: -> anisotropic ES          0.001355518250 Eh    ::
         :: -> anisotropic XC          0.003933623546 Eh    ::
         :: -> dispersion             -0.012743143188 Eh    ::
         :: repulsion energy           0.306899607845 Eh    ::
         :: add. restraining           0.000000000000 Eh    ::
         :: total charge              -0.000000000000 e     ::
         :::::::::::::::::::::::::::::::::::::::::::::::::::::

      ----------------------------------------------------------- 
     |                   =====================                   |
     |                        A N C O P T                        |
     |                   =====================                   |
     |               Approximate Normal Coordinate               |
     |                Rational Function Optimizer                |
      ----------------------------------------------------------- 
      ----------------------------------------------------------- 
     |                   =====================                   |
     |                        A N C O P T                        |
     |                   =====================                   |
     |               Approximate Normal Coordinate               |
     |                Rational Function Optimizer                |
      ----------------------------------------------------------- 

          ...................................................
          :                      SETUP                      :
          :.................................................:
          :   optimization level             tight          :
          :   max. optcycles                   500          :
          :   ANC micro-cycles                  20          :
          :   degrees of freedom                54          :
          :.................................................:
          :   RF solver                   davidson          :
          :   write xtbopt.log                true          :
          :   linear?                        false          :
          :   energy convergence         0.1000000E-05 Eh   :
          :   grad. convergence          0.8000000E-03 Eh/α :
          :   maxmium RF displ.          1.0000000          :
          :   Hlow (freq-cutoff)         0.1000000E-01      :
          :   Hmax (freq-cutoff)         5.0000000          :
          :   S6 in model hess.         20.0000000          :
          ...................................................

generating ANC from exact Hessian ...
Using Lindh-Hessian (1995)
 Shifting diagonal of input Hessian by    9.3149021460314750E-003
 Lowest  eigenvalues of input Hessian
    0.000000    0.000000    0.000000    0.000000    0.000000    0.000000
    0.010000    0.011582    0.012460    0.014153    0.016463    0.018215
    0.018763    0.030488    0.031698    0.035063    0.039784    0.040727
 Highest eigenvalues
    1.279231    1.340363    1.679194    1.691699    2.249017    2.249406


........................................................................
.............................. CYCLE    1 ..............................
........................................................................

 iter      E             dE          RMSdq      gap      omega  full diag
   1    -34.5341413 -0.345341E+02  0.441E-05    4.85       0.0  T
   2    -34.5341413 -0.586908E-11  0.279E-05    4.85     800.8  T
   3    -34.5341413 -0.582645E-12  0.140E-05    4.85    1601.7  T
     SCC iter.                  ...        0 min,  0.033 sec
     gradient                   ...        0 min,  0.036 sec
 * total energy  :   -34.2272220 Eh     change       -0.2821565E-10 Eh
   gradient norm :     0.0717076 Eh/α   predicted     0.0000000E+00 (-100.00%)
   displ. norm   :     0.1380289 α      lambda       -0.6314690E-02
   maximum displ.:     0.0887587 α      in ANC's #19, #38, #30, ...

........................................................................
.............................. CYCLE    2 ..............................
........................................................................

 iter      E             dE          RMSdq      gap      omega  full diag
   1    -34.5564029 -0.345564E+02  0.191E-01    5.10       0.0  T
   2    -34.5564985 -0.956221E-04  0.118E-01    5.07       1.0  T
   3    -34.5565015 -0.302746E-05  0.548E-02    5.09       1.0  T
   4    -34.5565141 -0.125864E-04  0.659E-03    5.08       3.4  T
   5    -34.5565142 -0.103096E-06  0.409E-03    5.08       5.5  T
   6    -34.5565143 -0.302203E-07  0.113E-03    5.08      19.8  T
   7    -34.5565143 -0.105118E-08  0.359E-04    5.08      62.3  T
   8    -34.5565143 -0.223160E-09  0.547E-05    5.08     408.5  T
     SCC iter.                  ...        0 min,  0.119 sec
     gradient                   ...        0 min,  0.042 sec
 * total energy  :   -34.2310657 Eh     change       -0.3843661E-02 Eh
   gradient norm :     0.0150312 Eh/α   predicted    -0.3217578E-02 ( -16.29%)
   displ. norm   :     0.0883292 α      lambda       -0.6149830E-03
   maximum displ.:     0.0482335 α      in ANC's #19, #10, #9, ...

........................................................................
.............................. CYCLE    3 ..............................
........................................................................

 iter      E             dE          RMSdq      gap      omega  full diag
   1    -34.5613372 -0.345613E+02  0.807E-02    5.14       0.0  T
   2    -34.5613512 -0.139468E-04  0.477E-02    5.13       1.0  T
   3    -34.5613513 -0.881165E-07  0.207E-02    5.13       1.1  T
   4    -34.5613530 -0.168764E-05  0.232E-03    5.13       9.6  T
   5    -34.5613530 -0.347026E-07  0.132E-03    5.13      16.9  T
   6    -34.5613530 -0.238507E-08  0.365E-04    5.13      61.3  T
   7    -34.5613530 -0.246452E-09  0.140E-04    5.13     159.9  T
     SCC iter.                  ...        0 min,  0.096 sec
     gradient                   ...        0 min,  0.042 sec
 * total energy  :   -34.2314200 Eh     change       -0.3543639E-03 Eh
   gradient norm :     0.0072018 Eh/α   predicted    -0.3098901E-03 ( -12.55%)
   displ. norm   :     0.0494568 α      lambda       -0.7255187E-04
   maximum displ.:     0.0319708 α      in ANC's #1, #10, #9, ...

........................................................................
.............................. CYCLE    4 ..............................
........................................................................

 iter      E             dE          RMSdq      gap      omega  full diag
   1    -34.5611973 -0.345612E+02  0.256E-02    5.13       0.0  T
   2    -34.5612009 -0.357632E-05  0.148E-02    5.13       1.5  T
   3    -34.5612010 -0.576737E-07  0.753E-03    5.13       3.0  T
   4    -34.5612010 -0.820592E-08  0.139E-03    5.13      16.1  T
   5    -34.5612010 -0.265226E-07  0.319E-04    5.13      70.0  T
   6    -34.5612010 -0.185459E-09  0.127E-04    5.13     175.5  T
     SCC iter.                  ...        0 min,  0.085 sec
     gradient                   ...        0 min,  0.050 sec
 * total energy  :   -34.2314686 Eh     change       -0.4856576E-04 Eh
   gradient norm :     0.0027765 Eh/α   predicted    -0.3636933E-04 ( -25.11%)
   displ. norm   :     0.0460993 α      lambda       -0.2528184E-04
   maximum displ.:     0.0366927 α      in ANC's #1, #10, #5, ...

........................................................................
.............................. CYCLE    5 ..............................
........................................................................

 iter      E             dE          RMSdq      gap      omega  full diag
   1    -34.5608499 -0.345608E+02  0.140E-02    5.12       0.0  T
   2    -34.5608512 -0.125920E-05  0.788E-03    5.12       2.8  T
   3    -34.5608512 -0.246133E-07  0.420E-03    5.12       5.3  T
   4    -34.5608512 -0.122163E-08  0.867E-04    5.12      25.8  T
   5    -34.5608512 -0.887479E-08  0.200E-04    5.12     111.7  T
     SCC iter.                  ...        0 min,  0.067 sec
     gradient                   ...        0 min,  0.033 sec
 * total energy  :   -34.2314855 Eh     change       -0.1686968E-04 Eh
   gradient norm :     0.0010250 Eh/α   predicted    -0.1268488E-04 ( -24.81%)
   displ. norm   :     0.0534915 α      lambda       -0.9633208E-05
   maximum displ.:     0.0472838 α      in ANC's #1, #5, #6, ...

........................................................................
.............................. CYCLE    6 ..............................
........................................................................

 iter      E             dE          RMSdq      gap      omega  full diag
   1    -34.5606913 -0.345607E+02  0.150E-02    5.12       0.0  T
   2    -34.5606916 -0.359281E-06  0.868E-03    5.12       2.6  T
   3    -34.5606916  0.442974E-08  0.282E-03    5.12       7.9  T
   4    -34.5606916 -0.207578E-07  0.525E-04    5.12      42.6  T
   5    -34.5606916 -0.328738E-08  0.166E-04    5.12     134.4  T
     SCC iter.                  ...        0 min,  0.054 sec
     gradient                   ...        0 min,  0.034 sec
 * total energy  :   -34.2314955 Eh     change       -0.1000605E-04 Eh
   gradient norm :     0.0015129 Eh/α   predicted    -0.4824151E-05 ( -51.79%)
   displ. norm   :     0.0354290 α      lambda       -0.5704916E-05
   maximum displ.:     0.0314912 α      in ANC's #1, #6, #5, ...

........................................................................
.............................. CYCLE    7 ..............................
........................................................................

 iter      E             dE          RMSdq      gap      omega  full diag
   1    -34.5608055 -0.345608E+02  0.137E-02    5.12       0.0  T
   2    -34.5608055 -0.254464E-07  0.818E-03    5.12       2.7  T
   3    -34.5608055  0.408654E-08  0.791E-04    5.12      28.3  T
   4    -34.5608055 -0.837472E-08  0.194E-04    5.12     115.5  T
     SCC iter.                  ...        0 min,  0.054 sec
     gradient                   ...        0 min,  0.037 sec
 * total energy  :   -34.2315024 Eh     change       -0.6919818E-05 Eh
   gradient norm :     0.0007048 Eh/α   predicted    -0.2866515E-05 ( -58.58%)
   displ. norm   :     0.0367103 α      lambda       -0.4852189E-05
   maximum displ.:     0.0334456 α      in ANC's #1, #6, #10, ...

........................................................................
.............................. CYCLE    8 ..............................
........................................................................

 iter      E             dE          RMSdq      gap      omega  full diag
   1    -34.5608790 -0.345609E+02  0.134E-02    5.12       0.0  T
   2    -34.5608791 -0.117871E-07  0.798E-03    5.12       2.8  T
   3    -34.5608791 -0.213075E-08  0.377E-04    5.12      59.4  T
   4    -34.5608791 -0.988358E-09  0.210E-04    5.12     106.5  T
     SCC iter.                  ...        0 min,  0.056 sec
     gradient                   ...        0 min,  0.040 sec
 * total energy  :   -34.2315080 Eh     change       -0.5638440E-05 Eh
   gradient norm :     0.0006765 Eh/α   predicted    -0.2428300E-05 ( -56.93%)
   displ. norm   :     0.0316295 α      lambda       -0.3540750E-05
   maximum displ.:     0.0294448 α      in ANC's #1, #6, #10, ...

........................................................................
.............................. CYCLE    9 ..............................
........................................................................

 iter      E             dE          RMSdq      gap      omega  full diag
   1    -34.5608766 -0.345609E+02  0.107E-02    5.12       0.0  T
   2    -34.5608766 -0.968166E-08  0.636E-03    5.12       3.5  T
   3    -34.5608766 -0.191559E-08  0.303E-04    5.12      73.8  T
   4    -34.5608766 -0.236319E-09  0.166E-04    5.12     135.1  T
     SCC iter.                  ...        0 min,  0.051 sec
     gradient                   ...        0 min,  0.033 sec
 * total energy  :   -34.2315123 Eh     change       -0.4295245E-05 Eh
   gradient norm :     0.0005642 Eh/α   predicted    -0.1772508E-05 ( -58.73%)
   displ. norm   :     0.0281353 α      lambda       -0.2763829E-05
   maximum displ.:     0.0269745 α      in ANC's #1, #10, #9, ...

........................................................................
.............................. CYCLE   10 ..............................
........................................................................

 iter      E             dE          RMSdq      gap      omega  full diag
   1    -34.5608737 -0.345609E+02  0.731E-03    5.12       0.0  T
   2    -34.5608737 -0.953522E-08  0.434E-03    5.12       5.1  T
   3    -34.5608737 -0.876732E-09  0.287E-04    5.12      77.9  T
   4    -34.5608737 -0.464610E-09  0.132E-04    5.12     170.0  T
     SCC iter.                  ...        0 min,  0.122 sec
     gradient                   ...        0 min,  0.040 sec
 * total energy  :   -34.2315163 Eh     change       -0.3977091E-05 Eh
   gradient norm :     0.0003920 Eh/α   predicted    -0.1405714E-05 ( -64.65%)
   displ. norm   :     0.0320778 α      lambda       -0.3388806E-05
   maximum displ.:     0.0292196 α      in ANC's #1, #9, #3, ...

........................................................................
.............................. CYCLE   11 ..............................
........................................................................

 iter      E             dE          RMSdq      gap      omega  full diag
   1    -34.5608528 -0.345609E+02  0.757E-03    5.12       0.0  T
   2    -34.5608528 -0.116653E-07  0.449E-03    5.12       5.0  T
   3    -34.5608528 -0.338112E-09  0.363E-04    5.12      61.6  T
   4    -34.5608528 -0.110625E-08  0.136E-04    5.12     164.7  T
     SCC iter.                  ...        0 min,  0.048 sec
     gradient                   ...        0 min,  0.041 sec
 * total energy  :   -34.2315212 Eh     change       -0.4869890E-05 Eh
   gradient norm :     0.0003879 Eh/α   predicted    -0.1697745E-05 ( -65.14%)
   displ. norm   :     0.0492334 α      lambda       -0.4980623E-05
   maximum displ.:     0.0426115 α      in ANC's #1, #9, #3, ...

........................................................................
.............................. CYCLE   12 ..............................
........................................................................

 iter      E             dE          RMSdq      gap      omega  full diag
   1    -34.5608359 -0.345608E+02  0.116E-02    5.12       0.0  T
   2    -34.5608359 -0.209804E-07  0.685E-03    5.12       3.3  T
   3    -34.5608359  0.186152E-08  0.686E-04    5.12      32.6  T
   4    -34.5608359 -0.550624E-08  0.207E-04    5.12     107.8  T
     SCC iter.                  ...        0 min,  0.054 sec
     gradient                   ...        0 min,  0.041 sec
 * total energy  :   -34.2315282 Eh     change       -0.7015448E-05 Eh
   gradient norm :     0.0004935 Eh/α   predicted    -0.2493430E-05 ( -64.46%)
   displ. norm   :     0.0705452 α      lambda       -0.6410372E-05
   maximum displ.:     0.0602980 α      in ANC's #1, #9, #3, ...

........................................................................
.............................. CYCLE   13 ..............................
........................................................................

 iter      E             dE          RMSdq      gap      omega  full diag
   1    -34.5608100 -0.345608E+02  0.168E-02    5.12       0.0  T
   2    -34.5608100 -0.411728E-07  0.995E-03    5.12       2.2  T
   3    -34.5608100  0.726295E-08  0.110E-03    5.12      20.4  T
   4    -34.5608100 -0.152113E-07  0.289E-04    5.12      77.3  T
   5    -34.5608100 -0.187192E-09  0.140E-04    5.12     160.3  T
     SCC iter.                  ...        0 min,  0.075 sec
     gradient                   ...        0 min,  0.040 sec
 * total energy  :   -34.2315370 Eh     change       -0.8799603E-05 Eh
   gradient norm :     0.0004867 Eh/α   predicted    -0.3212822E-05 ( -63.49%)
   displ. norm   :     0.0773395 α      lambda       -0.6078908E-05
   maximum displ.:     0.0666523 α      in ANC's #1, #3, #9, ...

........................................................................
.............................. CYCLE   14 ..............................
........................................................................

 iter      E             dE          RMSdq      gap      omega  full diag
   1    -34.5608142 -0.345608E+02  0.187E-02    5.11       0.0  T
   2    -34.5608142 -0.508726E-07  0.111E-02    5.11       2.0  T
   3    -34.5608142  0.140055E-07  0.135E-03    5.11      16.6  T
   4    -34.5608142 -0.241734E-07  0.301E-04    5.11      74.2  T
   5    -34.5608142 -0.181814E-09  0.137E-04    5.11     163.0  T
     SCC iter.                  ...        0 min,  0.070 sec
     gradient                   ...        0 min,  0.038 sec
 * total energy  :   -34.2315453 Eh     change       -0.8314324E-05 Eh
   gradient norm :     0.0003574 Eh/α   predicted    -0.3048472E-05 ( -63.33%)
   displ. norm   :     0.0633932 α      lambda       -0.4492555E-05
   maximum displ.:     0.0556051 α      in ANC's #1, #3, #9, ...

........................................................................
.............................. CYCLE   15 ..............................
........................................................................

 iter      E             dE          RMSdq      gap      omega  full diag
   1    -34.5608304 -0.345608E+02  0.161E-02    5.11       0.0  T
   2    -34.5608304 -0.346786E-07  0.960E-03    5.11       2.3  T
   3    -34.5608304  0.114940E-07  0.116E-03    5.11      19.3  T
   4    -34.5608304 -0.186903E-07  0.235E-04    5.11      95.0  T
   5    -34.5608304 -0.113680E-09  0.110E-04    5.11     204.0  T
     SCC iter.                  ...        0 min,  0.065 sec
     gradient                   ...        0 min,  0.035 sec
 * total energy  :   -34.2315517 Eh     change       -0.6360529E-05 Eh
   gradient norm :     0.0002785 Eh/α   predicted    -0.2251720E-05 ( -64.60%)
   displ. norm   :     0.0451472 α      lambda       -0.3250821E-05
   maximum displ.:     0.0401442 α      in ANC's #1, #3, #9, ...

........................................................................
.............................. CYCLE   16 ..............................
........................................................................

 iter      E             dE          RMSdq      gap      omega  full diag
   1    -34.5608683 -0.345609E+02  0.126E-02    5.11       0.0  T
   2    -34.5608683 -0.182063E-07  0.751E-03    5.11       3.0  T
   3    -34.5608683  0.689521E-08  0.896E-04    5.11      24.9  T
   4    -34.5608683 -0.115204E-07  0.188E-04    5.11     118.8  T
     SCC iter.                  ...        0 min,  0.054 sec
     gradient                   ...        0 min,  0.035 sec
 * total energy  :   -34.2315564 Eh     change       -0.4743407E-05 Eh
   gradient norm :     0.0002420 Eh/α   predicted    -0.1631588E-05 ( -65.60%)
   displ. norm   :     0.0358946 α      lambda       -0.2782673E-05
   maximum displ.:     0.0318072 α      in ANC's #1, #3, #5, ...

........................................................................
.............................. CYCLE   17 ..............................
........................................................................

 iter      E             dE          RMSdq      gap      omega  full diag
   1    -34.5608841 -0.345609E+02  0.114E-02    5.11       0.0  T
   2    -34.5608841 -0.120468E-07  0.682E-03    5.11       3.3  T
   3    -34.5608841  0.297556E-08  0.714E-04    5.11      31.3  T
   4    -34.5608841 -0.713869E-08  0.203E-04    5.11     110.3  T
     SCC iter.                  ...        0 min,  0.048 sec
     gradient                   ...        0 min,  0.034 sec
 * total energy  :   -34.2315605 Eh     change       -0.4053200E-05 Eh
   gradient norm :     0.0002291 Eh/α   predicted    -0.1394758E-05 ( -65.59%)
   displ. norm   :     0.0355487 α      lambda       -0.2788345E-05
   maximum displ.:     0.0308229 α      in ANC's #1, #3, #5, ...

........................................................................
.............................. CYCLE   18 ..............................
........................................................................

 iter      E             dE          RMSdq      gap      omega  full diag
   1    -34.5608946 -0.345609E+02  0.127E-02    5.11       0.0  T
   2    -34.5608946 -0.136295E-07  0.756E-03    5.11       3.0  T
   3    -34.5608946  0.969976E-09  0.717E-04    5.11      31.2  T
   4    -34.5608946 -0.663568E-08  0.258E-04    5.11      86.8  T
     SCC iter.                  ...        0 min,  0.047 sec
     gradient                   ...        0 min,  0.034 sec
 * total energy  :   -34.2315644 Eh     change       -0.3954297E-05 Eh
   gradient norm :     0.0002193 Eh/α   predicted    -0.1395706E-05 ( -64.70%)
   displ. norm   :     0.0381601 α      lambda       -0.2798962E-05
   maximum displ.:     0.0323993 α      in ANC's #1, #3, #5, ...

........................................................................
.............................. CYCLE   19 ..............................
........................................................................

 iter      E             dE          RMSdq      gap      omega  full diag
   1    -34.5608986 -0.345609E+02  0.144E-02    5.11       0.0  T
   2    -34.5608987 -0.178687E-07  0.858E-03    5.11       2.6  T
   3    -34.5608987 -0.116970E-09  0.796E-04    5.11      28.1  T
   4    -34.5608987 -0.772366E-08  0.311E-04    5.11      71.8  T
     SCC iter.                  ...        0 min,  0.047 sec
     gradient                   ...        0 min,  0.034 sec
 * total energy  :   -34.2315682 Eh     change       -0.3812903E-05 Eh
   gradient norm :     0.0001801 Eh/α   predicted    -0.1401430E-05 ( -63.25%)
   displ. norm   :     0.0379798 α      lambda       -0.2353148E-05
   maximum displ.:     0.0320979 α      in ANC's #1, #3, #5, ...

........................................................................
.............................. CYCLE   20 ..............................
........................................................................

 iter      E             dE          RMSdq      gap      omega  full diag
   1    -34.5608917 -0.345609E+02  0.144E-02    5.11       0.0  T
   2    -34.5608917 -0.175009E-07  0.856E-03    5.11       2.6  T
   3    -34.5608917 -0.956646E-09  0.763E-04    5.11      29.3  T
   4    -34.5608917 -0.686154E-08  0.314E-04    5.11      71.2  T
     SCC iter.                  ...        0 min,  0.048 sec
     gradient                   ...        0 min,  0.030 sec
 * total energy  :   -34.2315715 Eh     change       -0.3240258E-05 Eh
   gradient norm :     0.0001108 Eh/α   predicted    -0.1178756E-05 ( -63.62%)
   displ. norm   :     0.0333450 α      lambda       -0.1750604E-05
   maximum displ.:     0.0284502 α      in ANC's #1, #3, #5, ...
 * RMSD in coord.:     0.1782078 α      energy gain  -0.4349461E-02 Eh

generating ANC from exact Hessian ...
Using Lindh-Hessian (1995)
 Shifting diagonal of input Hessian by    9.2835382238031106E-003
 Lowest  eigenvalues of input Hessian
    0.000000    0.000000    0.000000    0.000000    0.000000    0.000000
    0.010000    0.011791    0.012458    0.014372    0.016887    0.018605
    0.019368    0.032669    0.033417    0.036762    0.042035    0.042703
 Highest eigenvalues
    1.298283    1.355393    1.790827    1.799339    2.364920    2.365186


........................................................................
.............................. CYCLE   21 ..............................
........................................................................

 iter      E             dE          RMSdq      gap      omega  full diag
   1    -34.5609107 -0.345609E+02  0.123E-02    5.11       0.0  T
   2    -34.5609107 -0.124868E-07  0.731E-03    5.11       3.1  T
   3    -34.5609107 -0.241300E-10  0.665E-04    5.11      33.6  T
   4    -34.5609107 -0.544591E-08  0.258E-04    5.11      86.6  T
     SCC iter.                  ...        0 min,  0.050 sec
     gradient                   ...        0 min,  0.032 sec
 * total energy  :   -34.2315739 Eh     change       -0.2453365E-05 Eh
   gradient norm :     0.0001163 Eh/α   predicted     0.0000000E+00 (-100.00%)
   displ. norm   :     0.0124760 α      lambda       -0.2056977E-07
   maximum displ.:     0.0123179 α      in ANC's #1, #5, #9, ...

........................................................................
.............................. CYCLE   22 ..............................
........................................................................

 iter      E             dE          RMSdq      gap      omega  full diag
   1    -34.5609198 -0.345609E+02  0.327E-03    5.11       0.0  T
   2    -34.5609198 -0.155345E-08  0.195E-03    5.11      11.5  T
   3    -34.5609198  0.338339E-09  0.213E-04    5.11     105.0  T
   4    -34.5609198 -0.594831E-09  0.469E-05    5.11     476.5  T
     SCC iter.                  ...        0 min,  0.057 sec
     gradient                   ...        0 min,  0.038 sec
 * total energy  :   -34.2315750 Eh     change       -0.1045586E-05 Eh
   gradient norm :     0.0001355 Eh/α   predicted    -0.3650883E-06 ( -65.08%)
   displ. norm   :     0.0144067 α      lambda       -0.8479428E-06
   maximum displ.:     0.0137714 α      in ANC's #1, #5, #9, ...

........................................................................
.............................. CYCLE   23 ..............................
........................................................................

 iter      E             dE          RMSdq      gap      omega  full diag
   1    -34.5609256 -0.345609E+02  0.376E-03    5.11       0.0  T
   2    -34.5609256 -0.345839E-08  0.223E-03    5.11      10.0  T
   3    -34.5609256  0.840444E-09  0.328E-04    5.11      68.1  T
   4    -34.5609256 -0.131683E-08  0.593E-05    5.11     377.2  T
     SCC iter.                  ...        0 min,  0.067 sec
     gradient                   ...        0 min,  0.035 sec
 * total energy  :   -34.2315762 Eh     change       -0.1231670E-05 Eh
   gradient norm :     0.0001039 Eh/α   predicted    -0.4246325E-06 ( -65.52%)
   displ. norm   :     0.0196456 α      lambda       -0.1107075E-05
   maximum displ.:     0.0180792 α      in ANC's #1, #5, #10, ...

........................................................................
.............................. CYCLE   24 ..............................
........................................................................

 iter      E             dE          RMSdq      gap      omega  full diag
   1    -34.5609209 -0.345609E+02  0.484E-03    5.11       0.0  T
   2    -34.5609209 -0.504819E-08  0.286E-03    5.11       7.8  T
   3    -34.5609209  0.598874E-09  0.329E-04    5.11      67.9  T
   4    -34.5609209 -0.116355E-08  0.804E-05    5.11     278.2  T
     SCC iter.                  ...        0 min,  0.051 sec
     gradient                   ...        0 min,  0.033 sec
 * total energy  :   -34.2315778 Eh     change       -0.1609243E-05 Eh
   gradient norm :     0.0001161 Eh/α   predicted    -0.5544869E-06 ( -65.54%)
   displ. norm   :     0.0252320 α      lambda       -0.1354613E-05
   maximum displ.:     0.0228810 α      in ANC's #1, #5, #6, ...

........................................................................
.............................. CYCLE   25 ..............................
........................................................................

 iter      E             dE          RMSdq      gap      omega  full diag
   1    -34.5609139 -0.345609E+02  0.623E-03    5.11       0.0  T
   2    -34.5609139 -0.606422E-08  0.369E-03    5.10       6.1  T
   3    -34.5609139  0.823668E-09  0.385E-04    5.11      58.0  T
   4    -34.5609139 -0.178427E-08  0.102E-04    5.10     220.1  T
     SCC iter.                  ...        0 min,  0.043 sec
     gradient                   ...        0 min,  0.032 sec
 * total energy  :   -34.2315798 Eh     change       -0.1945607E-05 Eh
   gradient norm :     0.0001137 Eh/α   predicted    -0.6780095E-06 ( -65.15%)
   displ. norm   :     0.0286589 α      lambda       -0.1431335E-05
   maximum displ.:     0.0260528 α      in ANC's #1, #6, #5, ...

........................................................................
.............................. CYCLE   26 ..............................
........................................................................

 iter      E             dE          RMSdq      gap      omega  full diag
   1    -34.5609197 -0.345609E+02  0.701E-03    5.10       0.0  T
   2    -34.5609197 -0.495503E-08  0.416E-03    5.10       5.4  T
   3    -34.5609197  0.900762E-09  0.389E-04    5.10      57.5  T
   4    -34.5609197 -0.198155E-08  0.107E-04    5.10     209.6  T
     SCC iter.                  ...        0 min,  0.047 sec
     gradient                   ...        0 min,  0.033 sec
 * total energy  :   -34.2315818 Eh     change       -0.2029916E-05 Eh
   gradient norm :     0.0001030 Eh/α   predicted    -0.7183804E-06 ( -64.61%)
   displ. norm   :     0.0266933 α      lambda       -0.1246460E-05
   maximum displ.:     0.0245223 α      in ANC's #1, #6, #5, ...

........................................................................
.............................. CYCLE   27 ..............................
........................................................................

 iter      E             dE          RMSdq      gap      omega  full diag
   1    -34.5609165 -0.345609E+02  0.667E-03    5.10       0.0  T
   2    -34.5609165 -0.431196E-08  0.396E-03    5.10       5.6  T
   3    -34.5609165  0.824471E-09  0.363E-04    5.10      61.5  T
   4    -34.5609165 -0.173160E-08  0.969E-05    5.10     230.7  T
     SCC iter.                  ...        0 min,  0.057 sec
     gradient                   ...        0 min,  0.049 sec
 * total energy  :   -34.2315835 Eh     change       -0.1754946E-05 Eh
   gradient norm :     0.0001042 Eh/α   predicted    -0.6256552E-06 ( -64.35%)
   displ. norm   :     0.0224678 α      lambda       -0.9839539E-06
   maximum displ.:     0.0210523 α      in ANC's #1, #6, #5, ...

........................................................................
.............................. CYCLE   28 ..............................
........................................................................

 iter      E             dE          RMSdq      gap      omega  full diag
   1    -34.5609161 -0.345609E+02  0.569E-03    5.10       0.0  T
   2    -34.5609161 -0.348955E-08  0.339E-03    5.10       6.6  T
   3    -34.5609161  0.881201E-09  0.338E-04    5.10      66.1  T
   4    -34.5609161 -0.158212E-08  0.783E-05    5.10     285.7  T
     SCC iter.                  ...        0 min,  0.054 sec
     gradient                   ...        0 min,  0.038 sec
 * total energy  :   -34.2315850 Eh     change       -0.1438412E-05 Eh
   gradient norm :     0.0000882 Eh/α   predicted    -0.4947156E-06 ( -65.61%)
   displ. norm   :     0.0169060 α      lambda       -0.7396134E-06
   maximum displ.:     0.0162000 α      in ANC's #1, #6, #5, ...

........................................................................
.............................. CYCLE   29 ..............................
........................................................................

 iter      E             dE          RMSdq      gap      omega  full diag
   1    -34.5609253 -0.345609E+02  0.450E-03    5.10       0.0  T
   2    -34.5609253 -0.252874E-08  0.268E-03    5.10       8.3  T
   3    -34.5609253  0.849305E-09  0.309E-04    5.10      72.3  T
   4    -34.5609253 -0.134934E-08  0.596E-05    5.10     375.3  T
     SCC iter.                  ...        0 min,  0.051 sec
     gradient                   ...        0 min,  0.038 sec
 * total energy  :   -34.2315861 Eh     change       -0.1089423E-05 Eh
   gradient norm :     0.0000850 Eh/α   predicted    -0.3703027E-06 ( -66.01%)
   displ. norm   :     0.0136547 α      lambda       -0.6022323E-06
   maximum displ.:     0.0133114 α      in ANC's #1, #6, #5, ...

........................................................................
.............................. CYCLE   30 ..............................
........................................................................

 iter      E             dE          RMSdq      gap      omega  full diag
   1    -34.5609217 -0.345609E+02  0.393E-03    5.10       0.0  T
   2    -34.5609217 -0.211985E-08  0.234E-03    5.10       9.6  T
   3    -34.5609217  0.530058E-09  0.263E-04    5.10      85.0  T
   4    -34.5609217 -0.932992E-09  0.572E-05    5.10     390.6  T
     SCC iter.                  ...        0 min,  0.045 sec
     gradient                   ...        0 min,  0.033 sec
 * total energy  :   -34.2315870 Eh     change       -0.9005739E-06 Eh
   gradient norm :     0.0000773 Eh/α   predicted    -0.3055235E-06 ( -66.07%)
   displ. norm   :     0.0120623 α      lambda       -0.5376177E-06
   maximum displ.:     0.0118230 α      in ANC's #1, #6, #3, ...

   *** GEOMETRY OPTIMIZATION CONVERGED AFTER 30 ITERATIONS ***

------------------------------------------------------------------------
 total energy gain   :        -0.0043650 Eh       -2.7391 kcal/mol
 total RMSD          :         0.2144367 a0        0.1135 Å
 total power (kW/mol):        -0.3820066 (step)   -2.9377 (real)
------------------------------------------------------------------------

 ANCopt (total)                0 d,  0 h,  0 min,  3.901 sec
 optimizer setup                ...        0 min,  0.001 sec (  0.020%)
 model hessian                  ...        0 min,  0.008 sec (  0.217%)
 ANC generation                 ...        0 min,  0.001 sec (  0.030%)
 coordinate transformation      ...        0 min,  0.000 sec (  0.006%)
 single point calculation       ...        0 min,  3.773 sec ( 96.719%)
 optimization log               ...        0 min,  0.003 sec (  0.069%)
 hessian update                 ...        0 min,  0.109 sec (  2.790%)
 rational function              ...        0 min,  0.002 sec (  0.049%)

================
 final structure:
================
20
 xtb: 6.7.1 (edcfbbe)
C            3.27675133645503       -1.01650216581012       -0.54743724597016
O            2.60495363375447       -0.27713819203744        0.46405468076948
C            1.46227634802613        0.31276737704217        0.10335794149032
O            1.00528031906465        0.26517302443214       -1.00709369948280
C            0.84814779816996        1.05919987600306        1.27018983178190
C           -0.61174563489455        1.38448894643219        0.98156462755009
C           -1.42143131419247        0.10961130889284        0.85946714382497
O           -1.07375168524163       -0.97261936003959        1.24947755408627
O           -2.59816131900426        0.34731367495161        0.27414110025194
C           -3.45023366513272       -0.77686647050349        0.09728345501710
H            3.51320599401820       -0.37096822396396       -1.39582423697530
H            2.64673317996641       -1.83756178907973       -0.89437827888205
H            4.18602736027086       -1.39869588672673       -0.09115219650003
H            1.42345958366438        1.97234315917431        1.43267338425339
H            0.93809494048929        0.43198749666898        2.15742025401868
H           -1.04050922951024        1.98606749343599        1.78498259918014
H           -0.70890368962959        1.93720028726858        0.04682671207368
H           -3.66933988296629       -1.24240511670769        1.06043069143939
H           -2.97092786297179       -1.51409583259815       -0.54939138394520
H           -4.35992621033417       -0.39929960683572       -0.36201203054421

 Bond Distances (Angstroems)
 ---------------------------
C1-O2=1.4216         C1-H11=1.0920        C1-H12=1.0915        C1-H13=1.0868        O2-C1=1.4216         O2-C3=1.3356         
C3-O2=1.3356         C3-O4=1.2018         C3-C5=1.5152         O4-C3=1.2018         C5-C3=1.5152         C5-C6=1.5233         
C5-H14=1.0914        C5-H15=1.0903        C6-C5=1.5233         C6-C7=1.5152         C6-H16=1.0914        C6-H17=1.0903        
C7-C6=1.5152         C7-O8=1.2018         C7-O9=1.3356         O8-C7=1.2018         O9-C7=1.3356         O9-C10=1.4216        
C10-O9=1.4216        C10-H18=1.0920       C10-H19=1.0915       C10-H20=1.0868       H11-C1=1.0920        H12-C1=1.0915        
H13-C1=1.0868        H14-C5=1.0914        H15-C5=1.0903        H16-C6=1.0914        H17-C6=1.0903        H18-C10=1.0920       
H19-C10=1.0915       H20-C10=1.0868       
 C  H  Rav=1.0904 sigma=0.0019  Rmin=1.0868  Rmax=1.0920    10
 C  C  Rav=1.5179 sigma=0.0038  Rmin=1.5152  Rmax=1.5233     3
 O  C  Rav=1.3197 sigma=0.0905  Rmin=1.2018  Rmax=1.4216     6

 selected bond angles (degree)
 --------------------
H11-C1-O2=110.34               H12-C1-O2=110.16               H12-C1-H11=108.83              H13-C1-O2=106.23               
H13-C1-H11=110.67              H13-C1-H12=110.60              C3-O2-C1=116.22                O4-C3-O2=123.88                
C5-C3-O2=110.88                C5-C3-O4=125.24                C6-C5-C3=110.35                H14-C5-C3=108.25               
H14-C5-C6=110.78               H15-C5-C3=108.05               H15-C5-C6=110.86               H15-C5-H14=108.46              
C7-C6-C5=110.35                H16-C6-C5=110.78               H16-C6-C7=108.25               H17-C6-C5=110.86               
H17-C6-C7=108.05               H17-C6-H16=108.46              O8-C7-C6=125.24                O9-C7-C6=110.88                
O9-C7-O8=123.88                C10-O9-C7=116.22               H18-C10-O9=110.34              H19-C10-O9=110.16              
H19-C10-H18=108.83             H20-C10-O9=106.23              H20-C10-H18=110.67             H20-C10-H19=110.60             

 selected dihedral angles (degree)
 ---------------------------------
C3-O2-C1-H11= 58.52           C3-O2-C1-H12=298.33           C3-O2-C1-H13=178.52           O4-C3-O2-C1=358.75            
C5-C3-O2-C1=179.76            C6-C5-C3-O2=196.14            C6-C5-C3-O4= 17.16            H14-C5-C3-O2= 74.76           
H14-C5-C3-O4=255.79           H15-C5-C3-O2=317.49           H15-C5-C3-O4=138.52           C7-C6-C5-C3= 64.32            
C7-C6-C5-H14=184.19           C7-C6-C5-H15=304.66           H16-C6-C5-C3=184.19           H16-C6-C5-H14=304.05          
H16-C6-C5-H15= 64.52          H17-C6-C5-C3=304.66           H17-C6-C5-H14= 64.52          H17-C6-C5-H15=184.99          
O8-C7-C6-C5= 17.16            O8-C7-C6-H16=255.79           O8-C7-C6-H17=138.52           O9-C7-C6-C5=196.14            
O9-C7-C6-H16= 74.76           O9-C7-C6-H17=317.49           C10-O9-C7-C6=179.76           C10-O9-C7-O8=358.75           
H18-C10-O9-C7= 58.52          H19-C10-O9-C7=298.34          H20-C10-O9-C7=178.52          
           -------------------------------------------------
          |                Final Singlepoint                |
           -------------------------------------------------

          ...................................................
          :                      SETUP                      :
          :.................................................:
          :  # basis functions                  50          :
          :  # atomic orbitals                  50          :
          :  # shells                           30          :
          :  # electrons                        58          :
          :  max. iterations                   250          :
          :  Hamiltonian                  GFN2-xTB          :
          :  restarted?                      false          :
          :  GBSA solvation                  false          :
          :  PC potential                    false          :
          :  electronic temp.          300.0000000     K    :
          :  accuracy                    1.0000000          :
          :  -> integral cutoff          0.2500000E+02      :
          :  -> integral neglect         0.1000000E-07      :
          :  -> SCF convergence          0.1000000E-05 Eh   :
          :  -> wf. convergence          0.1000000E-03 e    :
          :  Broyden damping             0.4000000          :
          :  net charge                          0          :
          :  unpaired electrons                  0          :
          ...................................................

 iter      E             dE          RMSdq      gap      omega  full diag
   1    -34.5609217 -0.345609E+02  0.308E-05    5.10       0.0  T
   2    -34.5609217 -0.987654E-12  0.196E-05    5.10    1139.5  T
   3    -34.5609217 -0.348166E-12  0.617E-06    5.10    3622.3  T

   *** convergence criteria satisfied after 3 iterations ***

         #    Occupation            Energy/Eh            Energy/eV
      -------------------------------------------------------------
         1        2.0000           -0.7451323             -20.2761
       ...           ...                  ...                  ...
        23        2.0000           -0.4785117             -13.0210
        24        2.0000           -0.4737306             -12.8909
        25        2.0000           -0.4638284             -12.6214
        26        2.0000           -0.4481182             -12.1939
        27        2.0000           -0.4480769             -12.1928
        28        2.0000           -0.4215861             -11.4719
        29        2.0000           -0.4160826             -11.3222 (HOMO)
        30                         -0.2286012              -6.2206 (LUMO)
        31                         -0.2267888              -6.1712
        32                          0.0051904               0.1412
        33                          0.0141850               0.3860
        34                          0.1081274               2.9423
       ...                                ...                  ...
        50                          0.6628859              18.0380
      -------------------------------------------------------------
                  HL-Gap            0.1874815 Eh            5.1016 eV
             Fermi-level           -0.3223419 Eh           -8.7714 eV

 SCC (total)                   0 d,  0 h,  0 min,  0.117 sec
 SCC setup                      ...        0 min,  0.003 sec (  2.809%)
 Dispersion                     ...        0 min,  0.007 sec (  6.279%)
 classical contributions        ...        0 min,  0.003 sec (  2.150%)
 integral evaluation            ...        0 min,  0.011 sec (  9.618%)
 iterations                     ...        0 min,  0.058 sec ( 49.046%)
 molecular gradient             ...        0 min,  0.035 sec ( 29.968%)
 printout                       ...        0 min,  0.000 sec (  0.103%)

         :::::::::::::::::::::::::::::::::::::::::::::::::::::
         ::                     SUMMARY                     ::
         :::::::::::::::::::::::::::::::::::::::::::::::::::::
         :: total energy             -34.231586966478 Eh    ::
         :: gradient norm              0.000077568800 Eh/a0 ::
         :: HOMO-LUMO gap              5.101630616143 eV    ::
         ::.................................................::
         :: SCC energy               -34.560890903940 Eh    ::
         :: -> isotropic ES            0.088059250260 Eh    ::
         :: -> anisotropic ES          0.000039149277 Eh    ::
         :: -> anisotropic XC          0.002558515472 Eh    ::
         :: -> dispersion             -0.012918336604 Eh    ::
         :: repulsion energy           0.329303937461 Eh    ::
         :: add. restraining           0.000000000000 Eh    ::
         :: total charge               0.000000000000 e     ::
         :::::::::::::::::::::::::::::::::::::::::::::::::::::

           -------------------------------------------------
          |                Property Printout                |
           -------------------------------------------------

    * Orbital Energies and Occupations

         #    Occupation            Energy/Eh            Energy/eV
      -------------------------------------------------------------
         1        2.0000           -0.7451323             -20.2761
       ...           ...                  ...                  ...
        17        2.0000           -0.5236058             -14.2480
        18        2.0000           -0.5231692             -14.2362
        19        2.0000           -0.5087447             -13.8436
        20        2.0000           -0.5049292             -13.7398
        21        2.0000           -0.4865789             -13.2405
        22        2.0000           -0.4838114             -13.1652
        23        2.0000           -0.4785117             -13.0210
        24        2.0000           -0.4737306             -12.8909
        25        2.0000           -0.4638284             -12.6214
        26        2.0000           -0.4481182             -12.1939
        27        2.0000           -0.4480769             -12.1928
        28        2.0000           -0.4215861             -11.4719
        29        2.0000           -0.4160826             -11.3222 (HOMO)
        30                         -0.2286012              -6.2206 (LUMO)
        31                         -0.2267888              -6.1712
        32                          0.0051904               0.1412
        33                          0.0141850               0.3860
        34                          0.1081274               2.9423
        35                          0.1161820               3.1615
        36                          0.1233598               3.3568
        37                          0.1335882               3.6351
        38                          0.1336749               3.6375
        39                          0.1460925               3.9754
        40                          0.1558277               4.2403
       ...                                ...                  ...
        50                          0.6628859              18.0380
      -------------------------------------------------------------
                  HL-Gap            0.1874815 Eh            5.1016 eV
             Fermi-level           -0.3223419 Eh           -8.7714 eV

     #   Z          covCN         q      C6AA      α(0)
     1   6 C        3.657     0.031    20.335     6.473
     2   8 O        1.705    -0.258    18.267     5.771
     3   6 C        2.724     0.363    20.849     7.475
     4   8 O        0.856    -0.407    21.827     6.264
     5   6 C        3.806    -0.090    22.202     6.708
     6   6 C        3.806    -0.090    22.202     6.708
     7   6 C        2.724     0.363    20.849     7.475
     8   8 O        0.856    -0.407    21.827     6.264
     9   8 O        1.705    -0.258    18.267     5.771
    10   6 C        3.657     0.031    20.335     6.473
    11   1 H        0.924     0.063     2.165     2.301
    12   1 H        0.924     0.067     2.124     2.279
    13   1 H        0.925     0.071     2.077     2.254
    14   1 H        0.924     0.074     2.043     2.235
    15   1 H        0.924     0.086     1.914     2.164
    16   1 H        0.924     0.074     2.043     2.235
    17   1 H        0.924     0.086     1.914     2.164
    18   1 H        0.924     0.063     2.165     2.301
    19   1 H        0.924     0.067     2.124     2.279
    20   1 H        0.925     0.071     2.077     2.254

 Mol. C6AA /au·bohr⁶  :       3558.203605
 Mol. C8AA /au·bohr⁸  :      77194.289520
 Mol. α(0) /au        :         87.846597


Wiberg/Mayer (AO) data.
largest (>0.10) Wiberg bond orders for each atom

 ---------------------------------------------------------------------------
     #   Z sym  total        # sym  WBO       # sym  WBO       # sym  WBO
 ---------------------------------------------------------------------------
     1   6 C    3.924 --    13 H    0.982    11 H    0.978    12 H    0.977
                             2 O    0.955
     2   8 O    2.308 --     3 C    1.136     1 C    0.955     4 O    0.172
     3   6 C    3.918 --     4 O    1.759     2 O    1.136     5 C    0.968
     4   8 O    2.041 --     3 C    1.759     2 O    0.172
     5   6 C    3.994 --     6 C    1.010     3 C    0.968    15 H    0.960
                            14 H    0.952
     6   6 C    3.994 --     5 C    1.010     7 C    0.968    17 H    0.960
                            16 H    0.952
     7   6 C    3.918 --     8 O    1.759     9 O    1.136     6 C    0.968
     8   8 O    2.041 --     7 C    1.759     9 O    0.172
     9   8 O    2.308 --     7 C    1.136    10 C    0.955     8 O    0.172
    10   6 C    3.924 --    20 H    0.982    18 H    0.978    19 H    0.977
                             9 O    0.955
    11   1 H    0.996 --     1 C    0.978
    12   1 H    0.996 --     1 C    0.977
    13   1 H    0.995 --     1 C    0.982
    14   1 H    0.994 --     5 C    0.952
    15   1 H    0.993 --     5 C    0.960
    16   1 H    0.994 --     6 C    0.952
    17   1 H    0.993 --     6 C    0.960
    18   1 H    0.996 --    10 C    0.978
    19   1 H    0.996 --    10 C    0.977
    20   1 H    0.995 --    10 C    0.982
 ---------------------------------------------------------------------------

Topologies differ in total number of bonds
Writing topology from bond orders to xtbtopo.mol

molecular dipole:
                 x           y           z       tot (Debye)
 q only:        0.035       0.366       0.234
   full:        0.043       0.449       0.286       1.358
molecular quadrupole (traceless):
                xx          xy          yy          xz          yz          zz
 q only:       10.397      -0.913      -2.753       0.006       6.020      -7.644
  q+dip:        9.450      -0.303      -2.456      -0.753       6.021      -6.994
   full:        9.893       0.012      -2.523      -1.276       6.471      -7.370

           -------------------------------------------------
          |                Geometry Summary                 |
           -------------------------------------------------

      molecular mass/u    :      146.1414426
   center of mass at/Å    :        0.0014852       0.0153896       0.3565476
  moments of inertia/u·Å² :        0.1752754E+03   0.7403650E+03   0.7904703E+03
rotational constants/cm⁻¹ :        0.9617796E-01   0.2276935E-01   0.2132608E-01

 * 17 selected distances

     #   Z          #   Z                                           value/Å
     1   6 C        2   8 O                                       1.4216496
     2   8 O        3   6 C                                       1.3355907
     3   6 C        4   8 O                                       1.2017544
     5   6 C        6   6 C                                       1.5232881 (max)
     7   6 C        8   8 O                                       1.2017540
     7   6 C        9   8 O                                       1.3355908
     9   8 O       10   6 C                                       1.4216495
     1   6 C       11   1 H                                       1.0919641
     1   6 C       12   1 H                                       1.0915265
     1   6 C       13   1 H                                       1.0867618
     5   6 C       14   1 H                                       1.0914282
     5   6 C       15   1 H                                       1.0902586
     6   6 C       16   1 H                                       1.0914283
     6   6 C       17   1 H                                       1.0902590
    10   6 C       18   1 H                                       1.0919646
    10   6 C       19   1 H                                       1.0915263
    10   6 C       20   1 H                                       1.0867612 (min)

 * 3 distinct bonds (by element types)

   Z      Z             #   av. dist./Å        max./Å        min./Å
   1 H    6 C          10     1.0903878     1.0919646     1.0867612
   6 C    6 C           1     1.5232881     1.5232881     1.5232881
   6 C    8 O           6     1.3196648     1.4216496     1.2017540


optimized geometry written to: xtbopt.xyz


           -------------------------------------------------
          | TOTAL ENERGY              -34.231586966478 Eh   |
          | GRADIENT NORM               0.000077568800 Eh/α |
          | HOMO-LUMO GAP               5.101630616143 eV   |
           -------------------------------------------------

------------------------------------------------------------------------
 * finished run on 2026/07/09 at 01:14:50.907     
------------------------------------------------------------------------
 total:
 * wall-time:     0 d,  0 h,  0 min,  4.320 sec
 *  cpu-time:     0 d,  0 h,  1 min,  8.931 sec
 * ratio c/w:    15.955 speedup
 SCF:
 * wall-time:     0 d,  0 h,  0 min,  0.232 sec
 *  cpu-time:     0 d,  0 h,  0 min,  3.724 sec
 * ratio c/w:    16.036 speedup
 ANC optimizer:
 * wall-time:     0 d,  0 h,  0 min,  4.023 sec
 *  cpu-time:     0 d,  0 h,  1 min,  4.208 sec
 * ratio c/w:    15.960 speedup

