24
REP_00256 MMFF geometry for GFN2-xTB preoptimization
C  -2.992763502011 -1.391611208540 -0.178592842753
O  -1.729893693246 -1.102369984044  0.407695394266
C  -0.856190524592 -0.435272159170 -0.499097442073
C   0.544853182515 -0.397928799866  0.046225469776
C   1.261037295597 -1.423613810992  0.643480096909
C   2.577563973575 -1.174125288483  1.035934182360
C   3.161741627598  0.083641692914  0.819051628588
C   2.437222558222  1.110179994226  0.209440806762
C   1.128071849667  0.857459948143 -0.165664782118
C   0.172501465110  1.790414603981 -0.850987955355
C  -1.173823256503  1.082748856921 -0.614044120125
O  -1.774742650679  1.591623390557  0.590232245649
H  -3.606009523141 -1.905492499384  0.566526462995
H  -2.870518867395 -2.051517800993 -1.042862702120
H  -3.506255492633 -0.472852375173 -0.475954780664
H  -0.832802647326 -0.922400907019 -1.482301762353
H   0.807595784242 -2.396379196437  0.807401467883
H   3.156620561145 -1.961180455139  1.512801620927
H   4.188891781955  0.259201496363  1.129667892979
H   2.891761568679  2.081296958128  0.040995349183
H   0.413932129812  1.832883726098 -1.918004909447
H   0.199524314668  2.789969849861 -0.407572647830
H  -1.884370356564  1.287151024553 -1.420912515885
H  -1.713947578696  0.868172943496  1.246543842447
