24
DEC_00177 MMFF geometry for GFN2-xTB preoptimization
C   0.249082756137 -1.321929573596 -1.233584763702
C   0.526717847806 -0.410434843481 -0.283113335278
O   1.795506774250 -0.145147924208  0.200309264223
C   2.897284472149 -0.876558365691 -0.331811510630
C   4.158297725051 -0.396209078716  0.363113380371
C  -0.526718184962  0.410432819235  0.345961181622
C  -0.249083053315  1.321926761613  1.296433369745
O  -1.795506976797  0.145147502078 -0.137462842801
C  -2.897284347455  0.876558046538  0.394658331320
C  -4.158297503559  0.396211958738 -0.300268922371
H  -0.767746372121 -1.488692982683 -1.575636836716
H   1.003840486912 -1.934127869211 -1.708122535317
H   2.768005332021 -1.948084569825 -0.141705737885
H   2.988530101728 -0.694201809377 -1.408585506357
H   4.301083468691  0.677743208378  0.203626933944
H   5.036972428862 -0.928912854436 -0.011175272831
H   4.085039549316 -0.550663745214  1.444767009621
H   0.767745889729  1.488689258282  1.638486435179
H  -1.003840612317  1.934126003179  1.770970454988
H  -2.988531261838  0.694199265907  1.471431839141
H  -2.768003605398  1.948084588827  0.204554777928
H  -5.036971839346  0.928916279549  0.074020108649
H  -4.301085272476 -0.677740353623 -0.140784268333
H  -4.085037803062  0.550668277738 -1.381922056720
