30
REP_00222 MMFF geometry for GFN2-xTB preoptimization
C   4.527548807519  1.041379588226  0.710089008429
C   3.236790779239  0.540734675968  1.338361144007
C   2.296102522398 -0.050341017827  0.289722449050
C   1.002254926473 -0.552006190752  0.924984940498
C   0.088376329851 -1.140581846339 -0.133789614846
C  -0.845343485151 -0.189507497808 -0.863625471182
C  -2.201702580132 -0.136958340086 -0.164901772897
C  -3.153658380542  0.826394543991 -0.871825042365
C  -4.505666442822  0.882607732884 -0.178774868055
N   0.155862270619 -2.421980408544 -0.347003168087
O  -0.744937289799 -2.831200490716 -1.334382270929
H   4.326613199655  1.824048301710 -0.028421583756
H   5.185491915671  1.459908873924  1.478107059165
H   5.062678662792  0.227052124779  0.211245429109
H   3.475058820579 -0.216618134722  2.094234530035
H   2.742792269082  1.371529699724  1.855528604807
H   2.068849282160  0.706257563826 -0.471299063311
H   2.794812244909 -0.876513824117 -0.232504544118
H   0.477523274342  0.263939055589  1.433769357828
H   1.219714701641 -1.322987710253  1.673352643584
H  -0.954137326560 -0.498801162576 -1.908368216746
H  -0.390345780266  0.807407521398 -0.875568690690
H  -2.068279650870  0.173704234097  0.878833607108
H  -2.644940058620 -1.139923420730 -0.135926524813
H  -2.718224328733  1.832212385922 -0.892508337644
H  -3.295883904025  0.512552301857 -1.912487294971
H  -4.402140762755  1.224252887453  0.856068461014
H  -5.170691082433  1.577535640169 -0.701002575312
H  -4.983082443328 -0.102446273244 -0.169607362148
H  -0.581436490897 -3.791650813804 -1.380450637738
