27
 energy: -45.949833823220 gnorm: 0.000281009902 xtb: 6.7.1 (edcfbbe)
C            2.85042947502624       -1.51864181810949       -0.95141452035888
C            2.94151637837006       -0.41097801130782        0.08631476545147
O            1.62661963882164       -0.01315262702615        0.48423913322583
C            1.23369866346022        1.22673269031959        0.18739168514145
O            1.93662664292054        2.08583062879049       -0.27573279647511
C           -0.18792604249969        1.43891904600931        0.59672076131378
C           -0.49777253783322        2.52899591140894        1.39921986869364
C           -1.79574041308822        2.72467058289202        1.83755956448326
C           -2.79208187470276        1.83121630695919        1.47747979233898
C           -2.49641747583727        0.75275864053380        0.66320750176157
C           -1.19649297793385        0.55208730137960        0.21145395923443
C           -0.89856134190660       -0.54088519867456       -0.75095865147578
O           -0.12794613469471       -0.45240393424230       -1.67303398242194
O           -1.62434565738276       -1.63711030031662       -0.49804479768783
C           -1.42170290127756       -2.73034599965832       -1.38126081576119
H            3.84398109778491       -1.76127262074099       -1.31755069479028
H            2.40451644104912       -2.40885743808951       -0.51423410319723
H            2.23026731961706       -1.18810244649888       -1.78101737637059
H            3.46037509345036        0.46296817250822       -0.31940652471406
H            3.45267493836410       -0.75538536951486        0.99021752564239
H            0.28891378225357        3.21430550032943        1.67591878182288
H           -2.03010878996101        3.57383839876667        2.46168518828438
H           -3.80374425384542        1.98092691827125        1.82375496224005
H           -3.27088960066209        0.06495769907142        0.36062013496137
H           -1.61935236195423       -2.42804671179874       -2.41189262913656
H           -0.39165169045995       -3.08604825486572       -1.31244656521094
H           -2.11488541707307       -3.50697706639640       -1.06879016699685
