      -----------------------------------------------------------      
     |                   =====================                   |     
     |                           x T B                           |     
     |                   =====================                   |     
     |                         S. Grimme                         |     
     |          Mulliken Center for Theoretical Chemistry        |     
     |                    University of Bonn                     |     
      -----------------------------------------------------------      

   * xtb version 6.7.1 (edcfbbe) compiled by 'conda@5dfe00f5fb80' on 2026-06-10

   xtb is free software: you can redistribute it and/or modify it under
   the terms of the GNU Lesser General Public License as published by
   the Free Software Foundation, either version 3 of the License, or
   (at your option) any later version.
   
   xtb is distributed in the hope that it will be useful,
   but WITHOUT ANY WARRANTY; without even the implied warranty of
   MERCHANTABILITY or FITNESS FOR A PARTICULAR PURPOSE.  See the
   GNU Lesser General Public License for more details.
   
   Cite this work as:
   * C. Bannwarth, E. Caldeweyher, S. Ehlert, A. Hansen, P. Pracht,
     J. Seibert, S. Spicher, S. Grimme, WIREs Comput. Mol. Sci., 2020, 11,
     e01493. DOI: 10.1002/wcms.1493
   
   for GFN2-xTB:
   * C. Bannwarth, S. Ehlert and S. Grimme., J. Chem. Theory Comput., 2019,
     15, 1652-1671. DOI: 10.1021/acs.jctc.8b01176
   for GFN1-xTB:
   * S. Grimme, C. Bannwarth, P. Shushkov, J. Chem. Theory Comput., 2017,
     13, 1989-2009. DOI: 10.1021/acs.jctc.7b00118
   for GFN0-xTB:
   * P. Pracht, E. Caldeweyher, S. Ehlert, S. Grimme, ChemRxiv, 2019, preprint.
     DOI: 10.26434/chemrxiv.8326202.v1
   for GFN-FF:
   * S. Spicher and S. Grimme, Angew. Chem. Int. Ed., 2020, 59, 15665-15673.
     DOI: 10.1002/anie.202004239
   
   for ALPB and GBSA implicit solvation:
   * S. Ehlert, M. Stahn, S. Spicher, S. Grimme, J. Chem. Theory Comput.,
     2021, 17, 4250-4261. DOI: 10.1021/acs.jctc.1c00471
   
   for ddCOSMO and CPCM-X implicit solvation:
   * M. Stahn, S. Ehlert, S. Grimme, J. Phys. Chem. A,
     2023, XX, XXXX-XXXX. DOI: 10.1021/acs.jpca.3c04382
   
   for DFT-D4:
   * E. Caldeweyher, C. Bannwarth and S. Grimme, J. Chem. Phys., 2017,
     147, 034112. DOI: 10.1063/1.4993215
   * E. Caldeweyher, S. Ehlert, A. Hansen, H. Neugebauer, S. Spicher,
     C. Bannwarth and S. Grimme, J. Chem. Phys., 2019, 150, 154122.
     DOI: 10.1063/1.5090222
   * E. Caldeweyher, J.-M. Mewes, S. Ehlert and S. Grimme, Phys. Chem. Chem. Phys.
     2020, 22, 8499-8512. DOI: 10.1039/D0CP00502A
   
   for sTDA-xTB:
   * S. Grimme and C. Bannwarth, J. Chem. Phys., 2016, 145, 054103.
     DOI: 10.1063/1.4959605
   
   in the mass-spec context:
   * V. Asgeirsson, C. Bauer and S. Grimme, Chem. Sci., 2017, 8, 4879.
     DOI: 10.1039/c7sc00601b
   * J. Koopman and S. Grimme, ACS Omega 2019, 4, 12, 15120-15133.
     DOI: 10.1021/acsomega.9b02011
   
   for metadynamics refer to:
   * S. Grimme, J. Chem. Theory Comput., 2019, 155, 2847-2862
     DOI: 10.1021/acs.jctc.9b00143
   
   for SPH calculations refer to:
   * S. Spicher and S. Grimme, J. Chem. Theory Comput., 2021, 17, 1701-1714
     DOI: 10.1021/acs.jctc.0c01306
   
   for ONIOM refer to:
   * C. Plett, A. Katbashev, S. Ehlert, S. Grimme, M. Bursch,
     Phys. Chem. Chem. Phys., 2023, 25, 17860-17868. DOI: 10.1039/D3CP02178E
   
   for DIPRO refer to:
   * J. Kohn, N. Gildemeister, S. Grimme, D. Fazzi, A. Hansen,
     J. Chem. Phys., 2023, just accepted.
   
   for PTB refer to:
   * S. Grimme, M. Mueller, A. Hansen, J. Chem. Phys., 2023, 158, 124111.
     DOI: 10.1063/5.0137838
   
   with help from (in alphabetical order)
   P. Atkinson, C. Bannwarth, F. Bohle, G. Brandenburg, E. Caldeweyher
   M. Checinski, S. Dohm, S. Ehlert, S. Ehrlich, I. Gerasimov, C. Hölzer
   A. Katbashev, J. Kohn, J. Koopman, C. Lavigne, S. Lehtola, F. März, M. Müller,
   F. Musil, H. Neugebauer, J. Pisarek, C. Plett, P. Pracht, F. Pultar,
   J. Seibert, P. Shushkov, S. Spicher, M. Stahn, M. Steiner, T. Strunk,
   J. Stückrath, T. Rose, and J. Unsleber
   
 * started run on 2026/07/09 at 08:53:02.006     
   ID    Z sym.   atoms
    1    6 C      1-10
    2    7 N      11
    3    1 H      12-30

           -------------------------------------------------
          |                Calculation Setup                |
           -------------------------------------------------

          program call               : /home/ws/xd2484/miniforge3/envs/p3z_dft/bin/xtb xtb_input.xyz --gfn 2 --opt tight --cycles 500 --chrg 0 --uhf 0
          hostname                   : gpu10
          coordinate file            : xtb_input.xyz
          omp threads                :                    16


           -------------------------------------------------
          |                 G F N 2 - x T B                 |
           -------------------------------------------------

        Reference                      10.1021/acs.jctc.8b01176
      * Hamiltonian:
        H0-scaling (s, p, d)           1.850000    2.230000    2.230000
        zeta-weighting                 0.500000
      * Dispersion:
        s8                             2.700000
        a1                             0.520000
        a2                             5.000000
        s9                             5.000000
      * Repulsion:
        kExp                           1.500000    1.000000
        rExp                           1.000000
      * Coulomb:
        alpha                          2.000000
        third order                    shell-resolved
        anisotropic                    true
        a3                             3.000000
        a5                             4.000000
        cn-shift                       1.200000
        cn-exp                         4.000000
        max-rad                        5.000000


          ...................................................
          :                      SETUP                      :
          :.................................................:
          :  # basis functions                  63          :
          :  # atomic orbitals                  63          :
          :  # shells                           41          :
          :  # electrons                        64          :
          :  max. iterations                   250          :
          :  Hamiltonian                  GFN2-xTB          :
          :  restarted?                      false          :
          :  GBSA solvation                  false          :
          :  PC potential                    false          :
          :  electronic temp.          300.0000000     K    :
          :  accuracy                    1.0000000          :
          :  -> integral cutoff          0.2500000E+02      :
          :  -> integral neglect         0.1000000E-07      :
          :  -> SCF convergence          0.1000000E-05 Eh   :
          :  -> wf. convergence          0.1000000E-03 e    :
          :  Broyden damping             0.4000000          :
          :  net charge                          0          :
          :  unpaired electrons                  0          :
          ...................................................

 iter      E             dE          RMSdq      gap      omega  full diag
   1    -34.4633098 -0.344633E+02  0.366E+00    6.38       0.0  T
   2    -34.5143252 -0.510153E-01  0.220E+00    6.36       1.0  T
   3    -34.4963833  0.179419E-01  0.127E+00    5.59       1.0  T
   4    -34.5174425 -0.210592E-01  0.629E-01    5.72       1.0  T
   5    -34.5244078 -0.696537E-02  0.128E-01    5.59       1.0  T
   6    -34.5245157 -0.107880E-03  0.302E-02    5.66       1.0  T
   7    -34.5245184 -0.268939E-05  0.115E-02    5.67       1.6  T
   8    -34.5245188 -0.390953E-06  0.170E-03    5.66      10.7  T
   9    -34.5245188 -0.151139E-07  0.559E-04    5.66      32.7  T
  10    -34.5245188 -0.573515E-09  0.206E-04    5.66      88.6  T

   *** convergence criteria satisfied after 10 iterations ***

         #    Occupation            Energy/Eh            Energy/eV
      -------------------------------------------------------------
         1        2.0000           -0.6484465             -17.6451
       ...           ...                  ...                  ...
        26        2.0000           -0.4406802             -11.9915
        27        2.0000           -0.4357818             -11.8582
        28        2.0000           -0.4342067             -11.8154
        29        2.0000           -0.4263478             -11.6015
        30        2.0000           -0.4222231             -11.4893
        31        2.0000           -0.4213868             -11.4665
        32        2.0000           -0.4199723             -11.4280 (HOMO)
        33                         -0.2118192              -5.7639 (LUMO)
        34                         -0.2079264              -5.6580
        35                          0.0382886               1.0419
        36                          0.0728985               1.9837
        37                          0.0808761               2.2008
       ...                                ...                  ...
        63                          1.0420237              28.3549
      -------------------------------------------------------------
                  HL-Gap            0.2081532 Eh            5.6641 eV
             Fermi-level           -0.3158958 Eh           -8.5960 eV

 SCC (total)                   0 d,  0 h,  0 min,  0.274 sec
 SCC setup                      ...        0 min,  0.008 sec (  2.956%)
 Dispersion                     ...        0 min,  0.018 sec (  6.438%)
 classical contributions        ...        0 min,  0.009 sec (  3.168%)
 integral evaluation            ...        0 min,  0.024 sec (  8.923%)
 iterations                     ...        0 min,  0.186 sec ( 67.873%)
 molecular gradient             ...        0 min,  0.029 sec ( 10.560%)
 printout                       ...        0 min,  0.000 sec (  0.070%)

         :::::::::::::::::::::::::::::::::::::::::::::::::::::
         ::                     SUMMARY                     ::
         :::::::::::::::::::::::::::::::::::::::::::::::::::::
         :: total energy             -33.999772507838 Eh    ::
         :: gradient norm              0.053236250616 Eh/a0 ::
         :: HOMO-LUMO gap              5.664136525231 eV    ::
         ::.................................................::
         :: SCC energy               -34.524593341997 Eh    ::
         :: -> isotropic ES            0.012624096229 Eh    ::
         :: -> anisotropic ES          0.009273801069 Eh    ::
         :: -> anisotropic XC          0.034050555833 Eh    ::
         :: -> dispersion             -0.019540212373 Eh    ::
         :: repulsion energy           0.524820834159 Eh    ::
         :: add. restraining           0.000000000000 Eh    ::
         :: total charge              -0.000000000000 e     ::
         :::::::::::::::::::::::::::::::::::::::::::::::::::::

      ----------------------------------------------------------- 
     |                   =====================                   |
     |                        A N C O P T                        |
     |                   =====================                   |
     |               Approximate Normal Coordinate               |
     |                Rational Function Optimizer                |
      ----------------------------------------------------------- 
      ----------------------------------------------------------- 
     |                   =====================                   |
     |                        A N C O P T                        |
     |                   =====================                   |
     |               Approximate Normal Coordinate               |
     |                Rational Function Optimizer                |
      ----------------------------------------------------------- 

          ...................................................
          :                      SETUP                      :
          :.................................................:
          :   optimization level             tight          :
          :   max. optcycles                   500          :
          :   ANC micro-cycles                  20          :
          :   degrees of freedom                84          :
          :.................................................:
          :   RF solver                   davidson          :
          :   write xtbopt.log                true          :
          :   linear?                        false          :
          :   energy convergence         0.1000000E-05 Eh   :
          :   grad. convergence          0.8000000E-03 Eh/α :
          :   maxmium RF displ.          1.0000000          :
          :   Hlow (freq-cutoff)         0.1000000E-01      :
          :   Hmax (freq-cutoff)         5.0000000          :
          :   S6 in model hess.         20.0000000          :
          ...................................................

generating ANC from exact Hessian ...
Using Lindh-Hessian (1995)
 Shifting diagonal of input Hessian by    9.5140074197882837E-003
 Lowest  eigenvalues of input Hessian
    0.000000    0.000000    0.000000    0.000000    0.000000    0.000000
    0.010000    0.010429    0.010648    0.011002    0.012566    0.012862
    0.013676    0.016009    0.016114    0.016930    0.018985    0.020285
 Highest eigenvalues
    1.207616    1.225674    1.248316    1.271119    1.297088    2.450237


........................................................................
.............................. CYCLE    1 ..............................
........................................................................

 iter      E             dE          RMSdq      gap      omega  full diag
   1    -34.5245188 -0.345245E+02  0.671E-05    5.66       0.0  T
   2    -34.5245188 -0.146372E-11  0.416E-05    5.66     439.1  T
   3    -34.5245188 -0.441247E-11  0.337E-05    5.66     541.4  T
     SCC iter.                  ...        0 min,  0.031 sec
     gradient                   ...        0 min,  0.028 sec
 * total energy  :   -33.9997725 Eh     change       -0.1793197E-09 Eh
   gradient norm :     0.0532367 Eh/α   predicted     0.0000000E+00 (-100.00%)
   displ. norm   :     0.1658764 α      lambda       -0.4155910E-02
   maximum displ.:     0.0837129 α      in ANC's #13, #42, #40, ...

........................................................................
.............................. CYCLE    2 ..............................
........................................................................

 iter      E             dE          RMSdq      gap      omega  full diag
   1    -34.5527462 -0.345527E+02  0.164E-01    5.95       0.0  T
   2    -34.5527528 -0.653420E-05  0.108E-01    5.92       1.0  T
   3    -34.5527164  0.363317E-04  0.720E-02    5.95       1.0  T
   4    -34.5528079 -0.914254E-04  0.631E-03    5.94       2.9  T
   5    -34.5528083 -0.405978E-06  0.276E-03    5.94       6.6  T
   6    -34.5528083 -0.272387E-07  0.696E-04    5.94      26.2  T
   7    -34.5528083 -0.216391E-08  0.113E-04    5.94     161.2  T
     SCC iter.                  ...        0 min,  0.090 sec
     gradient                   ...        0 min,  0.035 sec
 * total energy  :   -34.0018684 Eh     change       -0.2095908E-02 Eh
   gradient norm :     0.0192919 Eh/α   predicted    -0.2135615E-02 (   1.89%)
   displ. norm   :     0.1292996 α      lambda       -0.4368397E-03
   maximum displ.:     0.0644833 α      in ANC's #7, #9, #3, ...

........................................................................
.............................. CYCLE    3 ..............................
........................................................................

 iter      E             dE          RMSdq      gap      omega  full diag
   1    -34.5535992 -0.345536E+02  0.176E-01    5.90       0.0  T
   2    -34.5536126 -0.133758E-04  0.987E-02    5.90       1.0  T
   3    -34.5535963  0.162973E-04  0.290E-02    5.91       1.0  T
   4    -34.5536194 -0.231577E-04  0.395E-03    5.90       4.6  T
   5    -34.5536196 -0.129741E-06  0.138E-03    5.90      13.2  T
   6    -34.5536196 -0.457204E-08  0.211E-04    5.90      86.6  T
   7    -34.5536196 -0.194035E-09  0.924E-05    5.90     197.5  T
     SCC iter.                  ...        0 min,  0.082 sec
     gradient                   ...        0 min,  0.042 sec
 * total energy  :   -34.0019693 Eh     change       -0.1009087E-03 Eh
   gradient norm :     0.0067463 Eh/α   predicted    -0.2222794E-03 ( 120.28%)
   displ. norm   :     0.0994645 α      lambda       -0.3808927E-03
   maximum displ.:     0.0781284 α      in ANC's #13, #10, #8, ...

........................................................................
.............................. CYCLE    4 ..............................
........................................................................

 iter      E             dE          RMSdq      gap      omega  full diag
   1    -34.5536516 -0.345537E+02  0.111E-01    5.89       0.0  T
   2    -34.5536563 -0.471467E-05  0.621E-02    5.88       1.0  T
   3    -34.5536451  0.112426E-04  0.230E-02    5.89       1.0  T
   4    -34.5536595 -0.144131E-04  0.218E-03    5.89       8.4  T
   5    -34.5536595 -0.210088E-07  0.686E-04    5.89      26.6  T
   6    -34.5536595 -0.998540E-09  0.152E-04    5.89     120.4  T
     SCC iter.                  ...        0 min,  0.084 sec
     gradient                   ...        0 min,  0.045 sec
 * total energy  :   -34.0021228 Eh     change       -0.1535012E-03 Eh
   gradient norm :     0.0085982 Eh/α   predicted    -0.1923317E-03 (  25.30%)
   displ. norm   :     0.0405358 α      lambda       -0.7547316E-04
   maximum displ.:     0.0178745 α      in ANC's #7, #3, #9, ...

........................................................................
.............................. CYCLE    5 ..............................
........................................................................

 iter      E             dE          RMSdq      gap      omega  full diag
   1    -34.5537536 -0.345538E+02  0.389E-02    5.90       0.0  T
   2    -34.5537545 -0.816800E-06  0.225E-02    5.90       1.0  T
   3    -34.5537521  0.234407E-05  0.100E-02    5.90       1.8  T
   4    -34.5537550 -0.284383E-05  0.173E-03    5.90      10.6  T
   5    -34.5537550 -0.317432E-07  0.608E-04    5.90      30.0  T
   6    -34.5537550 -0.197746E-08  0.101E-04    5.90     180.0  T
     SCC iter.                  ...        0 min,  0.090 sec
     gradient                   ...        0 min,  0.043 sec
 * total energy  :   -34.0021743 Eh     change       -0.5152353E-04 Eh
   gradient norm :     0.0015509 Eh/α   predicted    -0.3779956E-04 ( -26.64%)
   displ. norm   :     0.1230912 α      lambda       -0.4671135E-04
   maximum displ.:     0.0590461 α      in ANC's #13, #7, #4, ...

........................................................................
.............................. CYCLE    6 ..............................
........................................................................

 iter      E             dE          RMSdq      gap      omega  full diag
   1    -34.5532794 -0.345533E+02  0.808E-02    5.91       0.0  T
   2    -34.5532820 -0.257654E-05  0.454E-02    5.91       1.0  T
   3    -34.5532826 -0.587657E-06  0.432E-03    5.90       4.2  T
   4    -34.5532829 -0.316296E-06  0.276E-03    5.91       6.6  T
   5    -34.5532830 -0.936903E-07  0.608E-04    5.91      30.0  T
   6    -34.5532830 -0.186171E-08  0.154E-04    5.91     118.4  T
     SCC iter.                  ...        0 min,  0.089 sec
     gradient                   ...        0 min,  0.042 sec
 * total energy  :   -34.0022099 Eh     change       -0.3559789E-04 Eh
   gradient norm :     0.0016010 Eh/α   predicted    -0.2351642E-04 ( -33.94%)
   displ. norm   :     0.0386426 α      lambda       -0.1087884E-04
   maximum displ.:     0.0170298 α      in ANC's #13, #14, #11, ...

........................................................................
.............................. CYCLE    7 ..............................
........................................................................

 iter      E             dE          RMSdq      gap      omega  full diag
   1    -34.5539882 -0.345540E+02  0.135E-02    5.91       0.0  T
   2    -34.5539883 -0.500640E-07  0.810E-03    5.91       2.3  T
   3    -34.5539877  0.585614E-06  0.547E-03    5.91       3.3  T
   4    -34.5539884 -0.728162E-06  0.457E-04    5.91      40.0  T
   5    -34.5539884 -0.500584E-09  0.188E-04    5.91      96.9  T
     SCC iter.                  ...        0 min,  0.089 sec
     gradient                   ...        0 min,  0.041 sec
 * total energy  :   -34.0022212 Eh     change       -0.1120671E-04 Eh
   gradient norm :     0.0012929 Eh/α   predicted    -0.5443590E-05 ( -51.43%)
   displ. norm   :     0.0496198 α      lambda       -0.7421758E-05
   maximum displ.:     0.0240669 α      in ANC's #6, #11, #14, ...

........................................................................
.............................. CYCLE    8 ..............................
........................................................................

 iter      E             dE          RMSdq      gap      omega  full diag
   1    -34.5537490 -0.345537E+02  0.185E-02    5.90       0.0  T
   2    -34.5537492 -0.147998E-06  0.105E-02    5.90       1.7  T
   3    -34.5537491  0.226242E-08  0.159E-03    5.90      11.5  T
   4    -34.5537492 -0.467175E-07  0.720E-04    5.90      25.3  T
   5    -34.5537492 -0.684220E-08  0.279E-04    5.90      65.5  T
     SCC iter.                  ...        0 min,  0.067 sec
     gradient                   ...        0 min,  0.035 sec
 * total energy  :   -34.0022276 Eh     change       -0.6429754E-05 Eh
   gradient norm :     0.0010115 Eh/α   predicted    -0.3715451E-05 ( -42.21%)
   displ. norm   :     0.0276829 α      lambda       -0.2217234E-05
   maximum displ.:     0.0148607 α      in ANC's #6, #2, #11, ...

........................................................................
.............................. CYCLE    9 ..............................
........................................................................

 iter      E             dE          RMSdq      gap      omega  full diag
   1    -34.5539010 -0.345539E+02  0.702E-03    5.91       0.0  T
   2    -34.5539010 -0.180460E-07  0.407E-03    5.91       4.5  T
   3    -34.5539010 -0.564654E-08  0.349E-04    5.91      52.3  T
   4    -34.5539010 -0.336819E-09  0.169E-04    5.91     108.2  T
     SCC iter.                  ...        0 min,  0.046 sec
     gradient                   ...        0 min,  0.036 sec
 * total energy  :   -34.0022297 Eh     change       -0.2121744E-05 Eh
   gradient norm :     0.0004934 Eh/α   predicted    -0.1109760E-05 ( -47.70%)
   displ. norm   :     0.0275380 α      lambda       -0.1467164E-05
   maximum displ.:     0.0163105 α      in ANC's #2, #6, #4, ...

........................................................................
.............................. CYCLE   10 ..............................
........................................................................

 iter      E             dE          RMSdq      gap      omega  full diag
   1    -34.5538422 -0.345538E+02  0.120E-02    5.90       0.0  T
   2    -34.5538423 -0.583032E-07  0.672E-03    5.90       2.7  T
   3    -34.5538423 -0.220252E-07  0.436E-04    5.90      41.9  T
   4    -34.5538423 -0.127315E-09  0.232E-04    5.90      78.7  T
     SCC iter.                  ...        0 min,  0.058 sec
     gradient                   ...        0 min,  0.044 sec
 * total energy  :   -34.0022313 Eh     change       -0.1608608E-05 Eh
   gradient norm :     0.0002829 Eh/α   predicted    -0.7371572E-06 ( -54.17%)
   displ. norm   :     0.0291119 α      lambda       -0.1268304E-05
   maximum displ.:     0.0176086 α      in ANC's #2, #6, #4, ...

........................................................................
.............................. CYCLE   11 ..............................
........................................................................

 iter      E             dE          RMSdq      gap      omega  full diag
   1    -34.5537518 -0.345538E+02  0.994E-03    5.90       0.0  T
   2    -34.5537519 -0.346445E-07  0.565E-03    5.90       3.2  T
   3    -34.5537519 -0.560762E-08  0.646E-04    5.90      28.2  T
   4    -34.5537519 -0.727579E-08  0.340E-04    5.90      53.6  T
     SCC iter.                  ...        0 min,  0.058 sec
     gradient                   ...        0 min,  0.049 sec
 * total energy  :   -34.0022328 Eh     change       -0.1441556E-05 Eh
   gradient norm :     0.0002292 Eh/α   predicted    -0.6387173E-06 ( -55.69%)
   displ. norm   :     0.0329226 α      lambda       -0.1116698E-05
   maximum displ.:     0.0198050 α      in ANC's #2, #4, #6, ...

........................................................................
.............................. CYCLE   12 ..............................
........................................................................

 iter      E             dE          RMSdq      gap      omega  full diag
   1    -34.5537408 -0.345537E+02  0.112E-02    5.90       0.0  T
   2    -34.5537408 -0.429763E-07  0.635E-03    5.90       2.9  T
   3    -34.5537408 -0.185511E-08  0.874E-04    5.90      20.9  T
   4    -34.5537409 -0.157929E-07  0.332E-04    5.90      55.1  T
     SCC iter.                  ...        0 min,  0.099 sec
     gradient                   ...        0 min,  0.042 sec
 * total energy  :   -34.0022340 Eh     change       -0.1198243E-05 Eh
   gradient norm :     0.0002471 Eh/α   predicted    -0.5608324E-06 ( -53.20%)
   displ. norm   :     0.0293021 α      lambda       -0.7088102E-06
   maximum displ.:     0.0176284 α      in ANC's #2, #4, #5, ...

........................................................................
.............................. CYCLE   13 ..............................
........................................................................

 iter      E             dE          RMSdq      gap      omega  full diag
   1    -34.5537743 -0.345538E+02  0.745E-03    5.91       0.0  T
   2    -34.5537744 -0.140299E-07  0.430E-03    5.90       4.2  T
   3    -34.5537744 -0.367805E-08  0.394E-04    5.91      46.3  T
   4    -34.5537744 -0.116737E-08  0.240E-04    5.90      75.9  T
     SCC iter.                  ...        0 min,  0.050 sec
     gradient                   ...        0 min,  0.035 sec
 * total energy  :   -34.0022347 Eh     change       -0.7308182E-06 Eh
   gradient norm :     0.0001555 Eh/α   predicted    -0.3565596E-06 ( -51.21%)
   displ. norm   :     0.0216043 α      lambda       -0.3898054E-06
   maximum displ.:     0.0127795 α      in ANC's #2, #4, #5, ...

   *** GEOMETRY OPTIMIZATION CONVERGED AFTER 13 ITERATIONS ***

------------------------------------------------------------------------
 total energy gain   :        -0.0024622 Eh       -1.5450 kcal/mol
 total RMSD          :         0.0929002 a0        0.0492 Å
 total power (kW/mol):        -0.4972649 (step)   -3.4017 (real)
------------------------------------------------------------------------

 ANCopt (total)                0 d,  0 h,  0 min,  1.900 sec
 optimizer setup                ...        0 min,  0.001 sec (  0.041%)
 model hessian                  ...        0 min,  0.015 sec (  0.770%)
 ANC generation                 ...        0 min,  0.001 sec (  0.072%)
 coordinate transformation      ...        0 min,  0.000 sec (  0.011%)
 single point calculation       ...        0 min,  1.828 sec ( 96.191%)
 optimization log               ...        0 min,  0.002 sec (  0.085%)
 hessian update                 ...        0 min,  0.049 sec (  2.598%)
 rational function              ...        0 min,  0.001 sec (  0.073%)

================
 final structure:
================
30
 xtb: 6.7.1 (edcfbbe)
C           -5.10391511763114       -0.37456682984428       -0.08019486522107
C           -3.73641052608065       -0.75366428576442        0.47463302485700
C           -2.62023257245842        0.09045199105276       -0.13591603443252
C           -1.24830259485556       -0.28200066920906        0.42042251175030
C           -0.13139612123743        0.55789298313927       -0.19452614577586
C            1.23733496422309        0.20079797475719        0.38063134050140
C            2.34985253808411        1.03100520527560       -0.25749235589046
C            3.71565158494571        0.82964867030003        0.39963775913223
C            4.27675263235324       -0.58646767588125        0.20717158616250
C            4.43041691494546       -0.90391779834713       -1.18912842438653
N            4.55081771881065       -1.14715842868091       -2.29969259021323
H           -5.13075352010167       -0.51723797488181       -1.15833627174008
H           -5.32546820534727        0.66932908344857        0.13156126675425
H           -5.88270038332481       -0.98822191406613        0.36679114362493
H           -3.73580956670211       -0.62161184126080        1.55921668360817
H           -3.54212834393931       -1.80916469755733        0.27052766813117
H           -2.81650216411843        1.14647818639111        0.06481861016322
H           -2.61846993561636       -0.04416220667659       -1.22011743234824
H           -1.24970299805918       -0.14326085354428        1.50458603203781
H           -1.05505443481452       -1.33941968909714        0.22384268686499
H           -0.11706819487702        0.40459087023436       -1.27598902104625
H           -0.33466587467658        1.61621200047444       -0.01379102724203
H            1.22948161571073        0.37226262306276        1.46051212024394
H            1.41927144652835       -0.86244590158596        0.21071941177778
H            2.08602922728869        2.08855100045344       -0.17914116847705
H            2.42141502139822        0.78669348941820       -1.31986737805859
H            3.63930727745198        1.02798444518657        1.47134448923707
H            4.42185047301039        1.54704386296788       -0.02534562298933
H            3.61297286296693       -1.32740395153189        0.65967871836672
H            5.25742627612081       -0.66823766823406        0.68529347963583

 Bond Distances (Angstroems)
 ---------------------------
C1-C2=1.5237         C1-H12=1.0879        C1-H13=1.0880        C1-H14=1.0876        C2-C1=1.5237         C2-C3=1.5268         
C2-H15=1.0926        C2-H16=1.0925        C3-C2=1.5268         C3-C4=1.5266         C3-H17=1.0927        C3-H18=1.0925        
C4-C3=1.5266         C4-C5=1.5268         C4-H19=1.0930        C4-H20=1.0928        C5-C4=1.5268         C5-C6=1.5270         
C5-H21=1.0924        C5-H22=1.0927        C6-C5=1.5270         C6-C7=1.5278         C6-H23=1.0934        C6-H24=1.0920        
C7-C6=1.5278         C7-C8=1.5290         C7-H25=1.0928        C7-H26=1.0925        C8-C7=1.5290         C8-C9=1.5353         
C8-H27=1.0926        C8-H28=1.0927        C9-C8=1.5353         C9-C10=1.4402        C9-H29=1.0929        C9-H30=1.0941        
C10-C9=1.4402        C10-N11=1.1432       N11-C10=1.1432       H12-C1=1.0879        H13-C1=1.0880        H14-C1=1.0876        
H15-C2=1.0926        H16-C2=1.0925        H17-C3=1.0927        H18-C3=1.0925        H19-C4=1.0930        H20-C4=1.0928        
H21-C5=1.0924        H22-C5=1.0927        H23-C6=1.0934        H24-C6=1.0920        H25-C7=1.0928        H26-C7=1.0925        
H27-C8=1.0926        H28-C8=1.0927        H29-C9=1.0929        H30-C9=1.0941        
 C  H  Rav=1.0920 sigma=0.0019  Rmin=1.0876  Rmax=1.0941    19
 C  C  Rav=1.5181 sigma=0.0277  Rmin=1.4402  Rmax=1.5353     9
 N  C  Rav=1.1432 sigma=0.0000  Rmin=1.1432  Rmax=1.1432     1

 selected bond angles (degree)
 --------------------
H12-C1-C2=110.51               H13-C1-C2=110.53               H13-C1-H12=108.28              H14-C1-C2=110.65               
H14-C1-H12=108.40              H14-C1-H13=108.40              C3-C2-C1=111.90                H15-C2-C1=109.38               
H15-C2-C3=109.25               H16-C2-C1=109.39               H16-C2-C3=109.23               H16-C2-H15=107.59              
C4-C3-C2=112.11                H17-C3-C2=109.24               H17-C3-C4=109.28               H18-C3-C2=109.26               
H18-C3-C4=109.28               H18-C3-H17=107.56              C5-C4-C3=112.11                H19-C4-C3=109.23               
H19-C4-C5=109.31               H20-C4-C3=109.24               H20-C4-C5=109.30               H20-C4-H19=107.55              
C6-C5-C4=112.05                H21-C5-C4=109.34               H21-C5-C6=109.17               H22-C5-C4=109.27               
H22-C5-C6=109.33               H22-C5-H21=107.58              C7-C6-C5=111.61                H23-C6-C5=109.20               
H23-C6-C7=109.42               H24-C6-C5=108.57               H24-C6-C7=110.05               H24-C6-H23=107.91              
C8-C7-C6=113.54                H25-C7-C6=108.67               H25-C7-C8=108.20               H26-C7-C6=109.41               
H26-C7-C8=109.27               H26-C7-H25=107.58              C9-C8-C7=113.21                H27-C8-C7=109.59               
H27-C8-C9=108.42               H28-C8-C7=108.89               H28-C8-C9=108.70               H28-C8-H27=107.91              
C10-C9-C8=111.34               H29-C9-C8=110.58               H29-C9-C10=108.47              H30-C9-C8=109.98               
H30-C9-C10=108.15              H30-C9-H29=108.23              N11-C10-C9=179.54              

 selected dihedral angles (degree)
 ---------------------------------
C3-C2-C1-H12= 59.85           C3-C2-C1-H13=300.00           C3-C2-C1-H14=179.93           H15-C2-C1-H12=181.06          
H15-C2-C1-H13= 61.21          H15-C2-C1-H14=301.13          H16-C2-C1-H12=298.66          H16-C2-C1-H13=178.82          
H16-C2-C1-H14= 58.74          C4-C3-C2-C1=179.79            C4-C3-C2-H15= 58.51           C4-C3-C2-H16=301.07           
H17-C3-C2-C1= 58.50           H17-C3-C2-H15=297.22          H17-C3-C2-H16=179.78          H18-C3-C2-C1=301.09           
H18-C3-C2-H15=179.81          H18-C3-C2-H16= 62.37          C5-C4-C3-C2=179.75            C5-C4-C3-H17=301.01           
C5-C4-C3-H18= 58.46           H19-C4-C3-C2=301.06           H19-C4-C3-H17= 62.33          H19-C4-C3-H18=179.78          
H20-C4-C3-C2= 58.45           H20-C4-C3-H17=179.71          H20-C4-C3-H18=297.16          C6-C5-C4-C3=179.01            
C6-C5-C4-H19= 57.74           C6-C5-C4-H20=300.28           H21-C5-C4-C3=300.18           H21-C5-C4-H19=178.91          
H21-C5-C4-H20= 61.45          H22-C5-C4-C3= 57.69           H22-C5-C4-H19=296.42          H22-C5-C4-H20=178.96          
C7-C6-C5-C4=179.08            C7-C6-C5-H21= 57.82           C7-C6-C5-H22=300.38           H23-C6-C5-C4=300.19           
H23-C6-C5-H21=178.93          H23-C6-C5-H22= 61.49          H24-C6-C5-C4= 57.62           H24-C6-C5-H21=296.35          
H24-C6-C5-H22=178.91          C8-C7-C6-C5=173.16            C8-C7-C6-H23= 52.18           C8-C7-C6-H24=293.77           
H25-C7-C6-C5= 52.71           H25-C7-C6-H23=291.73          H25-C7-C6-H24=173.32          H26-C7-C6-C5=295.51           
H26-C7-C6-H23=174.53          H26-C7-C6-H24= 56.12          C9-C8-C7-C6= 66.19            C9-C8-C7-H25=186.91           
C9-C8-C7-H26=303.76           H27-C8-C7-C6=305.03           H27-C8-C7-H25= 65.75          H27-C8-C7-H26=182.60          
H28-C8-C7-C6=187.22           H28-C8-C7-H25=307.93          H28-C8-C7-H26= 64.78          C10-C9-C8-C7= 59.40           
C10-C9-C8-H27=181.22          C10-C9-C8-H28=298.28          H29-C9-C8-C7=298.74           H29-C9-C8-H27= 60.56          
H29-C9-C8-H28=177.62          H30-C9-C8-C7=179.27           H30-C9-C8-H27=301.09          H30-C9-C8-H28= 58.14          
N11-C10-C9-C8= 10.66          N11-C10-C9-H29=132.55         N11-C10-C9-H30=249.72         
           -------------------------------------------------
          |                Final Singlepoint                |
           -------------------------------------------------

          ...................................................
          :                      SETUP                      :
          :.................................................:
          :  # basis functions                  63          :
          :  # atomic orbitals                  63          :
          :  # shells                           41          :
          :  # electrons                        64          :
          :  max. iterations                   250          :
          :  Hamiltonian                  GFN2-xTB          :
          :  restarted?                      false          :
          :  GBSA solvation                  false          :
          :  PC potential                    false          :
          :  electronic temp.          300.0000000     K    :
          :  accuracy                    1.0000000          :
          :  -> integral cutoff          0.2500000E+02      :
          :  -> integral neglect         0.1000000E-07      :
          :  -> SCF convergence          0.1000000E-05 Eh   :
          :  -> wf. convergence          0.1000000E-03 e    :
          :  Broyden damping             0.4000000          :
          :  net charge                          0          :
          :  unpaired electrons                  0          :
          ...................................................

 iter      E             dE          RMSdq      gap      omega  full diag
   1    -34.5537744 -0.345538E+02  0.487E-05    5.90       0.0  T
   2    -34.5537744 -0.122853E-10  0.317E-05    5.90     575.6  T
   3    -34.5537744 -0.109281E-10  0.185E-05    5.90     986.5  T

   *** convergence criteria satisfied after 3 iterations ***

         #    Occupation            Energy/Eh            Energy/eV
      -------------------------------------------------------------
         1        2.0000           -0.6512038             -17.7202
       ...           ...                  ...                  ...
        26        2.0000           -0.4399895             -11.9727
        27        2.0000           -0.4358425             -11.8599
        28        2.0000           -0.4323197             -11.7640
        29        2.0000           -0.4262068             -11.5977
        30        2.0000           -0.4216078             -11.4725
        31        2.0000           -0.4210095             -11.4563
        32        2.0000           -0.4200349             -11.4297 (HOMO)
        33                         -0.2030314              -5.5248 (LUMO)
        34                         -0.1983139              -5.3964
        35                          0.0370807               1.0090
        36                          0.0796047               2.1662
        37                          0.1006172               2.7379
       ...                                ...                  ...
        63                          1.1482807              31.2463
      -------------------------------------------------------------
                  HL-Gap            0.2170035 Eh            5.9050 eV
             Fermi-level           -0.3115332 Eh           -8.4772 eV

 SCC (total)                   0 d,  0 h,  0 min,  0.101 sec
 SCC setup                      ...        0 min,  0.004 sec (  3.728%)
 Dispersion                     ...        0 min,  0.007 sec (  7.072%)
 classical contributions        ...        0 min,  0.004 sec (  3.626%)
 integral evaluation            ...        0 min,  0.010 sec (  9.738%)
 iterations                     ...        0 min,  0.038 sec ( 37.979%)
 molecular gradient             ...        0 min,  0.038 sec ( 37.679%)
 printout                       ...        0 min,  0.000 sec (  0.150%)

         :::::::::::::::::::::::::::::::::::::::::::::::::::::
         ::                     SUMMARY                     ::
         :::::::::::::::::::::::::::::::::::::::::::::::::::::
         :: total energy             -34.002234685206 Eh    ::
         :: gradient norm              0.000157298182 Eh/a0 ::
         :: HOMO-LUMO gap              5.904965612957 eV    ::
         ::.................................................::
         :: SCC energy               -34.553851091646 Eh    ::
         :: -> isotropic ES            0.013121794285 Eh    ::
         :: -> anisotropic ES          0.008666568463 Eh    ::
         :: -> anisotropic XC          0.033063658567 Eh    ::
         :: -> dispersion             -0.019660392411 Eh    ::
         :: repulsion energy           0.551616406440 Eh    ::
         :: add. restraining           0.000000000000 Eh    ::
         :: total charge               0.000000000000 e     ::
         :::::::::::::::::::::::::::::::::::::::::::::::::::::

           -------------------------------------------------
          |                Property Printout                |
           -------------------------------------------------

    * Orbital Energies and Occupations

         #    Occupation            Energy/Eh            Energy/eV
      -------------------------------------------------------------
         1        2.0000           -0.6512038             -17.7202
       ...           ...                  ...                  ...
        20        2.0000           -0.4749706             -12.9246
        21        2.0000           -0.4667413             -12.7007
        22        2.0000           -0.4637730             -12.6199
        23        2.0000           -0.4544551             -12.3664
        24        2.0000           -0.4526072             -12.3161
        25        2.0000           -0.4488537             -12.2139
        26        2.0000           -0.4399895             -11.9727
        27        2.0000           -0.4358425             -11.8599
        28        2.0000           -0.4323197             -11.7640
        29        2.0000           -0.4262068             -11.5977
        30        2.0000           -0.4216078             -11.4725
        31        2.0000           -0.4210095             -11.4563
        32        2.0000           -0.4200349             -11.4297 (HOMO)
        33                         -0.2030314              -5.5248 (LUMO)
        34                         -0.1983139              -5.3964
        35                          0.0370807               1.0090
        36                          0.0796047               2.1662
        37                          0.1006172               2.7379
        38                          0.1010142               2.7487
        39                          0.1045046               2.8437
        40                          0.1157456               3.1496
        41                          0.1229213               3.3449
        42                          0.1258619               3.4249
        43                          0.1337070               3.6384
       ...                                ...                  ...
        63                          1.1482807              31.2463
      -------------------------------------------------------------
                  HL-Gap            0.2170035 Eh            5.9050 eV
             Fermi-level           -0.3115332 Eh           -8.4772 eV

     #   Z          covCN         q      C6AA      α(0)
     1   6 C        3.752    -0.102    22.516     6.767
     2   6 C        3.801    -0.053    21.523     6.605
     3   6 C        3.803    -0.059    21.639     6.623
     4   6 C        3.803    -0.058    21.616     6.619
     5   6 C        3.803    -0.059    21.632     6.622
     6   6 C        3.802    -0.057    21.597     6.616
     7   6 C        3.802    -0.059    21.634     6.622
     8   6 C        3.806    -0.049    21.440     6.592
     9   6 C        3.803    -0.054    21.540     6.607
    10   6 C        1.897     0.118    28.216     8.579
    11   7 N        0.911    -0.245    26.384     7.429
    12   1 H        0.925     0.034     2.530     2.488
    13   1 H        0.925     0.033     2.538     2.492
    14   1 H        0.925     0.033     2.542     2.493
    15   1 H        0.924     0.028     2.611     2.527
    16   1 H        0.924     0.029     2.602     2.522
    17   1 H        0.924     0.030     2.585     2.514
    18   1 H        0.924     0.031     2.569     2.507
    19   1 H        0.924     0.028     2.612     2.527
    20   1 H        0.924     0.029     2.600     2.522
    21   1 H        0.924     0.032     2.553     2.499
    22   1 H        0.924     0.030     2.592     2.518
    23   1 H        0.924     0.029     2.603     2.523
    24   1 H        0.924     0.030     2.593     2.518
    25   1 H        0.924     0.035     2.523     2.484
    26   1 H        0.924     0.039     2.458     2.452
    27   1 H        0.924     0.037     2.484     2.465
    28   1 H        0.924     0.038     2.474     2.460
    29   1 H        0.924     0.068     2.108     2.271
    30   1 H        0.924     0.063     2.163     2.300

 Mol. C6AA /au·bohr⁶  :       6778.333453
 Mol. C8AA /au·bohr⁸  :     146060.009768
 Mol. α(0) /au        :        122.760947


Wiberg/Mayer (AO) data.
largest (>0.10) Wiberg bond orders for each atom

 ---------------------------------------------------------------------------
     #   Z sym  total        # sym  WBO       # sym  WBO       # sym  WBO
 ---------------------------------------------------------------------------
     1   6 C    3.997 --     2 C    1.019    13 H    0.988    12 H    0.988
                            14 H    0.987
     2   6 C    3.998 --     1 C    1.019     3 C    1.008    15 H    0.979
                            16 H    0.979
     3   6 C    3.997 --     2 C    1.008     4 C    1.007    17 H    0.977
                            18 H    0.977
     4   6 C    3.997 --     3 C    1.007     5 C    1.007    20 H    0.978
                            19 H    0.978
     5   6 C    3.997 --     4 C    1.007     6 C    1.006    21 H    0.978
                            22 H    0.977
     6   6 C    3.997 --     7 C    1.008     5 C    1.006    23 H    0.977
                            24 H    0.976
     7   6 C    3.996 --     8 C    1.008     6 C    1.008    25 H    0.976
                            26 H    0.975
     8   6 C    3.994 --     7 C    1.008    28 H    0.978     9 C    0.978
                            27 H    0.976
     9   6 C    3.997 --    10 C    1.055     8 C    0.978    30 H    0.945
                            29 H    0.943
    10   6 C    3.944 --    11 N    2.848     9 C    1.055
    11   7 N    3.005 --    10 C    2.848
    12   1 H    0.999 --     1 C    0.988
    13   1 H    0.999 --     1 C    0.988
    14   1 H    0.999 --     1 C    0.987
    15   1 H    0.999 --     2 C    0.979
    16   1 H    0.999 --     2 C    0.979
    17   1 H    0.999 --     3 C    0.977
    18   1 H    0.999 --     3 C    0.977
    19   1 H    0.999 --     4 C    0.978
    20   1 H    0.999 --     4 C    0.978
    21   1 H    0.999 --     5 C    0.978
    22   1 H    0.999 --     5 C    0.977
    23   1 H    0.999 --     6 C    0.977
    24   1 H    0.999 --     6 C    0.976
    25   1 H    0.999 --     7 C    0.976
    26   1 H    0.998 --     7 C    0.975
    27   1 H    0.999 --     8 C    0.976
    28   1 H    0.998 --     8 C    0.978
    29   1 H    0.995 --     9 C    0.943
    30   1 H    0.996 --     9 C    0.945
 ---------------------------------------------------------------------------

Topologies differ in total number of bonds
Writing topology from bond orders to xtbtopo.mol

molecular dipole:
                 x           y           z       tot (Debye)
 q only:       -0.252       0.296       0.940
   full:       -0.262       0.378       1.415       3.781
molecular quadrupole (traceless):
                xx          xy          yy          xz          yz          zz
 q only:        0.023       3.721       2.732      12.607      -3.340      -2.754
  q+dip:       -1.581       4.921       4.433      18.295      -3.954      -2.852
   full:        0.349       4.976       4.756      18.773      -4.909      -5.105

           -------------------------------------------------
          |                Geometry Summary                 |
           -------------------------------------------------

      molecular mass/u    :      153.2649365
   center of mass at/Å    :        0.6135202      -0.1109921      -0.1857212
  moments of inertia/u·Å² :        0.1822877E+03   0.1815128E+04   0.1890275E+04
rotational constants/cm⁻¹ :        0.9247816E-01   0.9287296E-02   0.8918085E-02

 * 28 selected distances

     #   Z          #   Z                                           value/Å
     1   6 C        2   6 C                                       1.5236857
     2   6 C        3   6 C                                       1.5268124
     3   6 C        4   6 C                                       1.5265732
     4   6 C        5   6 C                                       1.5267821
     5   6 C        6   6 C                                       1.5270063
     6   6 C        7   6 C                                       1.5277898
     7   6 C        8   6 C                                       1.5289774
     8   6 C        9   6 C                                       1.5353383 (max)
    10   6 C       11   7 N                                       1.1432477
     1   6 C       12   1 H                                       1.0878715
     1   6 C       13   1 H                                       1.0879547
     1   6 C       14   1 H                                       1.0876009 (min)
     2   6 C       15   1 H                                       1.0925933
     2   6 C       16   1 H                                       1.0924678
     3   6 C       17   1 H                                       1.0927066
     3   6 C       18   1 H                                       1.0925278
     4   6 C       19   1 H                                       1.0930057
     4   6 C       20   1 H                                       1.0927597
     5   6 C       21   1 H                                       1.0923685
     5   6 C       22   1 H                                       1.0927137
     6   6 C       23   1 H                                       1.0934370
     6   6 C       24   1 H                                       1.0919976
     7   6 C       25   1 H                                       1.0927694
     7   6 C       26   1 H                                       1.0924515
     8   6 C       27   1 H                                       1.0925754
     8   6 C       28   1 H                                       1.0926957
     9   6 C       29   1 H                                       1.0928646
     9   6 C       30   1 H                                       1.0940786

 * 3 distinct bonds (by element types)

   Z      Z             #   av. dist./Å        max./Å        min./Å
   1 H    6 C          19     1.0919705     1.0940786     1.0876009
   6 C    6 C           8     1.5278707     1.5353383     1.5236857
   6 C    7 N           1     1.1432477     1.1432477     1.1432477


optimized geometry written to: xtbopt.xyz


           -------------------------------------------------
          | TOTAL ENERGY              -34.002234685206 Eh   |
          | GRADIENT NORM               0.000157298182 Eh/α |
          | HOMO-LUMO GAP               5.904965612957 eV   |
           -------------------------------------------------

------------------------------------------------------------------------
 * finished run on 2026/07/09 at 08:53:04.370     
------------------------------------------------------------------------
 total:
 * wall-time:     0 d,  0 h,  0 min,  2.364 sec
 *  cpu-time:     0 d,  0 h,  0 min, 37.667 sec
 * ratio c/w:    15.937 speedup
 SCF:
 * wall-time:     0 d,  0 h,  0 min,  0.274 sec
 *  cpu-time:     0 d,  0 h,  0 min,  4.349 sec
 * ratio c/w:    15.879 speedup
 ANC optimizer:
 * wall-time:     0 d,  0 h,  0 min,  2.011 sec
 *  cpu-time:     0 d,  0 h,  0 min, 32.085 sec
 * ratio c/w:    15.955 speedup

