      -----------------------------------------------------------      
     |                   =====================                   |     
     |                           x T B                           |     
     |                   =====================                   |     
     |                         S. Grimme                         |     
     |          Mulliken Center for Theoretical Chemistry        |     
     |                    University of Bonn                     |     
      -----------------------------------------------------------      

   * xtb version 6.7.1 (edcfbbe) compiled by 'conda@5dfe00f5fb80' on 2026-06-10

   xtb is free software: you can redistribute it and/or modify it under
   the terms of the GNU Lesser General Public License as published by
   the Free Software Foundation, either version 3 of the License, or
   (at your option) any later version.
   
   xtb is distributed in the hope that it will be useful,
   but WITHOUT ANY WARRANTY; without even the implied warranty of
   MERCHANTABILITY or FITNESS FOR A PARTICULAR PURPOSE.  See the
   GNU Lesser General Public License for more details.
   
   Cite this work as:
   * C. Bannwarth, E. Caldeweyher, S. Ehlert, A. Hansen, P. Pracht,
     J. Seibert, S. Spicher, S. Grimme, WIREs Comput. Mol. Sci., 2020, 11,
     e01493. DOI: 10.1002/wcms.1493
   
   for GFN2-xTB:
   * C. Bannwarth, S. Ehlert and S. Grimme., J. Chem. Theory Comput., 2019,
     15, 1652-1671. DOI: 10.1021/acs.jctc.8b01176
   for GFN1-xTB:
   * S. Grimme, C. Bannwarth, P. Shushkov, J. Chem. Theory Comput., 2017,
     13, 1989-2009. DOI: 10.1021/acs.jctc.7b00118
   for GFN0-xTB:
   * P. Pracht, E. Caldeweyher, S. Ehlert, S. Grimme, ChemRxiv, 2019, preprint.
     DOI: 10.26434/chemrxiv.8326202.v1
   for GFN-FF:
   * S. Spicher and S. Grimme, Angew. Chem. Int. Ed., 2020, 59, 15665-15673.
     DOI: 10.1002/anie.202004239
   
   for ALPB and GBSA implicit solvation:
   * S. Ehlert, M. Stahn, S. Spicher, S. Grimme, J. Chem. Theory Comput.,
     2021, 17, 4250-4261. DOI: 10.1021/acs.jctc.1c00471
   
   for ddCOSMO and CPCM-X implicit solvation:
   * M. Stahn, S. Ehlert, S. Grimme, J. Phys. Chem. A,
     2023, XX, XXXX-XXXX. DOI: 10.1021/acs.jpca.3c04382
   
   for DFT-D4:
   * E. Caldeweyher, C. Bannwarth and S. Grimme, J. Chem. Phys., 2017,
     147, 034112. DOI: 10.1063/1.4993215
   * E. Caldeweyher, S. Ehlert, A. Hansen, H. Neugebauer, S. Spicher,
     C. Bannwarth and S. Grimme, J. Chem. Phys., 2019, 150, 154122.
     DOI: 10.1063/1.5090222
   * E. Caldeweyher, J.-M. Mewes, S. Ehlert and S. Grimme, Phys. Chem. Chem. Phys.
     2020, 22, 8499-8512. DOI: 10.1039/D0CP00502A
   
   for sTDA-xTB:
   * S. Grimme and C. Bannwarth, J. Chem. Phys., 2016, 145, 054103.
     DOI: 10.1063/1.4959605
   
   in the mass-spec context:
   * V. Asgeirsson, C. Bauer and S. Grimme, Chem. Sci., 2017, 8, 4879.
     DOI: 10.1039/c7sc00601b
   * J. Koopman and S. Grimme, ACS Omega 2019, 4, 12, 15120-15133.
     DOI: 10.1021/acsomega.9b02011
   
   for metadynamics refer to:
   * S. Grimme, J. Chem. Theory Comput., 2019, 155, 2847-2862
     DOI: 10.1021/acs.jctc.9b00143
   
   for SPH calculations refer to:
   * S. Spicher and S. Grimme, J. Chem. Theory Comput., 2021, 17, 1701-1714
     DOI: 10.1021/acs.jctc.0c01306
   
   for ONIOM refer to:
   * C. Plett, A. Katbashev, S. Ehlert, S. Grimme, M. Bursch,
     Phys. Chem. Chem. Phys., 2023, 25, 17860-17868. DOI: 10.1039/D3CP02178E
   
   for DIPRO refer to:
   * J. Kohn, N. Gildemeister, S. Grimme, D. Fazzi, A. Hansen,
     J. Chem. Phys., 2023, just accepted.
   
   for PTB refer to:
   * S. Grimme, M. Mueller, A. Hansen, J. Chem. Phys., 2023, 158, 124111.
     DOI: 10.1063/5.0137838
   
   with help from (in alphabetical order)
   P. Atkinson, C. Bannwarth, F. Bohle, G. Brandenburg, E. Caldeweyher
   M. Checinski, S. Dohm, S. Ehlert, S. Ehrlich, I. Gerasimov, C. Hölzer
   A. Katbashev, J. Kohn, J. Koopman, C. Lavigne, S. Lehtola, F. März, M. Müller,
   F. Musil, H. Neugebauer, J. Pisarek, C. Plett, P. Pracht, F. Pultar,
   J. Seibert, P. Shushkov, S. Spicher, M. Stahn, M. Steiner, T. Strunk,
   J. Stückrath, T. Rose, and J. Unsleber
   
 * started run on 2026/07/08 at 02:42:29.013     
   ID    Z sym.   atoms
    1    6 C      1-3, 5-9, 11, 12
    2    8 O      4, 10
    3    1 H      13-26

           -------------------------------------------------
          |                Calculation Setup                |
           -------------------------------------------------

          program call               : /home/ws/xd2484/miniforge3/envs/p3z_dft/bin/xtb xtb_input.xyz --gfn 2 --opt tight --cycles 500 --chrg 0 --uhf 0
          hostname                   : gpu10
          coordinate file            : xtb_input.xyz
          omp threads                :                    16


           -------------------------------------------------
          |                 G F N 2 - x T B                 |
           -------------------------------------------------

        Reference                      10.1021/acs.jctc.8b01176
      * Hamiltonian:
        H0-scaling (s, p, d)           1.850000    2.230000    2.230000
        zeta-weighting                 0.500000
      * Dispersion:
        s8                             2.700000
        a1                             0.520000
        a2                             5.000000
        s9                             5.000000
      * Repulsion:
        kExp                           1.500000    1.000000
        rExp                           1.000000
      * Coulomb:
        alpha                          2.000000
        third order                    shell-resolved
        anisotropic                    true
        a3                             3.000000
        a5                             4.000000
        cn-shift                       1.200000
        cn-exp                         4.000000
        max-rad                        5.000000


          ...................................................
          :                      SETUP                      :
          :.................................................:
          :  # basis functions                  62          :
          :  # atomic orbitals                  62          :
          :  # shells                           38          :
          :  # electrons                        66          :
          :  max. iterations                   250          :
          :  Hamiltonian                  GFN2-xTB          :
          :  restarted?                      false          :
          :  GBSA solvation                  false          :
          :  PC potential                    false          :
          :  electronic temp.          300.0000000     K    :
          :  accuracy                    1.0000000          :
          :  -> integral cutoff          0.2500000E+02      :
          :  -> integral neglect         0.1000000E-07      :
          :  -> SCF convergence          0.1000000E-05 Eh   :
          :  -> wf. convergence          0.1000000E-03 e    :
          :  Broyden damping             0.4000000          :
          :  net charge                          0          :
          :  unpaired electrons                  0          :
          ...................................................

 iter      E             dE          RMSdq      gap      omega  full diag
   1    -37.1037745 -0.371038E+02  0.425E+00    4.05       0.0  T
   2    -37.1515294 -0.477549E-01  0.241E+00    4.09       1.0  T
   3    -37.1499994  0.153004E-02  0.888E-01    3.96       1.0  T
   4    -37.1530845 -0.308517E-02  0.324E-01    4.09       1.0  T
   5    -37.1544361 -0.135151E-02  0.799E-02    4.08       1.0  T
   6    -37.1544577 -0.216907E-04  0.442E-02    4.06       1.0  T
   7    -37.1544672 -0.947163E-05  0.161E-02    4.07       1.2  T
   8    -37.1544687 -0.147132E-05  0.425E-03    4.06       4.6  T
   9    -37.1544688 -0.108158E-06  0.194E-03    4.06      10.1  T
  10    -37.1544688 -0.152090E-07  0.110E-03    4.06      17.8  T
  11    -37.1544688 -0.131639E-07  0.274E-04    4.06      71.5  T
  12    -37.1544688 -0.353737E-09  0.116E-04    4.06     168.4  T

   *** convergence criteria satisfied after 12 iterations ***

         #    Occupation            Energy/Eh            Energy/eV
      -------------------------------------------------------------
         1        2.0000           -0.7142304             -19.4352
       ...           ...                  ...                  ...
        27        2.0000           -0.4494443             -12.2300
        28        2.0000           -0.4371457             -11.8953
        29        2.0000           -0.4327847             -11.7767
        30        2.0000           -0.4265833             -11.6079
        31        2.0000           -0.4083174             -11.1109
        32        2.0000           -0.4037088             -10.9855
        33        2.0000           -0.3818652             -10.3911 (HOMO)
        34                         -0.2324914              -6.3264 (LUMO)
        35                         -0.2225136              -6.0549
        36                         -0.1036796              -2.8213
        37                          0.0027871               0.0758
        38                          0.0721163               1.9624
       ...                                ...                  ...
        62                          0.6293399              17.1252
      -------------------------------------------------------------
                  HL-Gap            0.1493738 Eh            4.0647 eV
             Fermi-level           -0.3071783 Eh           -8.3587 eV

 SCC (total)                   0 d,  0 h,  0 min,  0.291 sec
 SCC setup                      ...        0 min,  0.006 sec (  1.924%)
 Dispersion                     ...        0 min,  0.012 sec (  4.103%)
 classical contributions        ...        0 min,  0.006 sec (  2.011%)
 integral evaluation            ...        0 min,  0.019 sec (  6.382%)
 iterations                     ...        0 min,  0.208 sec ( 71.477%)
 molecular gradient             ...        0 min,  0.041 sec ( 14.035%)
 printout                       ...        0 min,  0.000 sec (  0.058%)

         :::::::::::::::::::::::::::::::::::::::::::::::::::::
         ::                     SUMMARY                     ::
         :::::::::::::::::::::::::::::::::::::::::::::::::::::
         :: total energy             -36.666889635427 Eh    ::
         :: gradient norm              0.038782003548 Eh/a0 ::
         :: HOMO-LUMO gap              4.064667575516 eV    ::
         ::.................................................::
         :: SCC energy               -37.154567507084 Eh    ::
         :: -> isotropic ES            0.041757085267 Eh    ::
         :: -> anisotropic ES          0.005536274950 Eh    ::
         :: -> anisotropic XC          0.012928397553 Eh    ::
         :: -> dispersion             -0.019629523433 Eh    ::
         :: repulsion energy           0.487677871656 Eh    ::
         :: add. restraining           0.000000000000 Eh    ::
         :: total charge              -0.000000000000 e     ::
         :::::::::::::::::::::::::::::::::::::::::::::::::::::

      ----------------------------------------------------------- 
     |                   =====================                   |
     |                        A N C O P T                        |
     |                   =====================                   |
     |               Approximate Normal Coordinate               |
     |                Rational Function Optimizer                |
      ----------------------------------------------------------- 
      ----------------------------------------------------------- 
     |                   =====================                   |
     |                        A N C O P T                        |
     |                   =====================                   |
     |               Approximate Normal Coordinate               |
     |                Rational Function Optimizer                |
      ----------------------------------------------------------- 

          ...................................................
          :                      SETUP                      :
          :.................................................:
          :   optimization level             tight          :
          :   max. optcycles                   500          :
          :   ANC micro-cycles                  20          :
          :   degrees of freedom                72          :
          :.................................................:
          :   RF solver                   davidson          :
          :   write xtbopt.log                true          :
          :   linear?                        false          :
          :   energy convergence         0.1000000E-05 Eh   :
          :   grad. convergence          0.8000000E-03 Eh/α :
          :   maxmium RF displ.          1.0000000          :
          :   Hlow (freq-cutoff)         0.1000000E-01      :
          :   Hmax (freq-cutoff)         5.0000000          :
          :   S6 in model hess.         20.0000000          :
          ...................................................

generating ANC from exact Hessian ...
Using Lindh-Hessian (1995)
 Shifting diagonal of input Hessian by    9.2316936978356409E-003
 Lowest  eigenvalues of input Hessian
    0.000000    0.000000    0.000000    0.000000    0.000000    0.000000
    0.010000    0.010991    0.011103    0.012455    0.013671    0.017177
    0.019274    0.020182    0.021586    0.023700    0.024577    0.027076
 Highest eigenvalues
    1.462634    1.555180    1.723515    1.840529    1.957059    2.053705


........................................................................
.............................. CYCLE    1 ..............................
........................................................................

 iter      E             dE          RMSdq      gap      omega  full diag
   1    -37.1544688 -0.371545E+02  0.597E-05    4.06       0.0  T
   2    -37.1544688 -0.167191E-10  0.376E-05    4.06     521.6  T
   3    -37.1544688 -0.751754E-11  0.259E-05    4.06     757.6  T
     SCC iter.                  ...        0 min,  0.039 sec
     gradient                   ...        0 min,  0.034 sec
 * total energy  :   -36.6668896 Eh     change       -0.6552625E-10 Eh
   gradient norm :     0.0387822 Eh/α   predicted     0.0000000E+00 (-100.00%)
   displ. norm   :     0.1299531 α      lambda       -0.2958407E-02
   maximum displ.:     0.0610220 α      in ANC's #11, #39, #45, ...

........................................................................
.............................. CYCLE    2 ..............................
........................................................................

 iter      E             dE          RMSdq      gap      omega  full diag
   1    -37.1742060 -0.371742E+02  0.117E-01    4.15       0.0  T
   2    -37.1742121 -0.614279E-05  0.689E-02    4.15       1.0  T
   3    -37.1742031  0.898286E-05  0.291E-02    4.15       1.0  T
   4    -37.1742152 -0.120891E-04  0.382E-03    4.15       5.1  T
   5    -37.1742153 -0.527164E-07  0.193E-03    4.15      10.2  T
   6    -37.1742153 -0.338758E-08  0.662E-04    4.15      29.6  T
   7    -37.1742153 -0.192224E-08  0.268E-04    4.15      73.2  T
     SCC iter.                  ...        0 min,  0.091 sec
     gradient                   ...        0 min,  0.038 sec
 * total energy  :   -36.6687329 Eh     change       -0.1843251E-02 Eh
   gradient norm :     0.0139489 Eh/α   predicted    -0.1504206E-02 ( -18.39%)
   displ. norm   :     0.0788756 α      lambda       -0.4206414E-03
   maximum displ.:     0.0464101 α      in ANC's #11, #9, #13, ...

........................................................................
.............................. CYCLE    3 ..............................
........................................................................

 iter      E             dE          RMSdq      gap      omega  full diag
   1    -37.1802197 -0.371802E+02  0.542E-02    4.17       0.0  T
   2    -37.1802232 -0.351541E-05  0.317E-02    4.18       1.0  T
   3    -37.1802215  0.172113E-05  0.163E-02    4.18       1.2  T
   4    -37.1802245 -0.294531E-05  0.236E-03    4.18       8.3  T
   5    -37.1802245 -0.461504E-07  0.957E-04    4.18      20.5  T
   6    -37.1802245 -0.254637E-08  0.526E-04    4.18      37.3  T
     SCC iter.                  ...        0 min,  0.136 sec
     gradient                   ...        0 min,  0.041 sec
 * total energy  :   -36.6689944 Eh     change       -0.2615307E-03 Eh
   gradient norm :     0.0044725 Eh/α   predicted    -0.2118057E-03 ( -19.01%)
   displ. norm   :     0.0694342 α      lambda       -0.1360328E-03
   maximum displ.:     0.0387037 α      in ANC's #15, #11, #14, ...

........................................................................
.............................. CYCLE    4 ..............................
........................................................................

 iter      E             dE          RMSdq      gap      omega  full diag
   1    -37.1809342 -0.371809E+02  0.373E-02    4.17       0.0  T
   2    -37.1809362 -0.199124E-05  0.229E-02    4.18       1.0  T
   3    -37.1809353  0.891218E-06  0.115E-02    4.18       1.7  T
   4    -37.1809369 -0.154950E-05  0.181E-03    4.18      10.8  T
   5    -37.1809369 -0.313712E-07  0.762E-04    4.18      25.7  T
   6    -37.1809369 -0.201440E-08  0.406E-04    4.18      48.4  T
     SCC iter.                  ...        0 min,  0.079 sec
     gradient                   ...        0 min,  0.031 sec
 * total energy  :   -36.6691093 Eh     change       -0.1148413E-03 Eh
   gradient norm :     0.0040198 Eh/α   predicted    -0.6930059E-04 ( -39.66%)
   displ. norm   :     0.2421722 α      lambda       -0.3996304E-03
   maximum displ.:     0.1625066 α      in ANC's #15, #14, #11, ...

........................................................................
.............................. CYCLE    5 ..............................
........................................................................

 iter      E             dE          RMSdq      gap      omega  full diag
   1    -37.1789546 -0.371790E+02  0.127E-01    4.17       0.0  T
   2    -37.1789713 -0.166921E-04  0.784E-02    4.18       1.0  T
   3    -37.1789588  0.124164E-04  0.343E-02    4.18       1.0  T
   4    -37.1789772 -0.183224E-04  0.561E-03    4.18       3.5  T
   5    -37.1789774 -0.248072E-06  0.247E-03    4.18       7.9  T
   6    -37.1789774 -0.274187E-07  0.119E-03    4.18      16.5  T
   7    -37.1789774 -0.728342E-08  0.355E-04    4.18      55.2  T
   8    -37.1789774 -0.550884E-09  0.110E-04    4.18     178.4  T
     SCC iter.                  ...        0 min,  0.101 sec
     gradient                   ...        0 min,  0.039 sec
 * total energy  :   -36.6692139 Eh     change       -0.1046593E-03 Eh
   gradient norm :     0.0235019 Eh/α   predicted    -0.2115396E-03 ( 102.12%)
   displ. norm   :     0.0847121 α      lambda       -0.3983862E-03
   maximum displ.:     0.0463890 α      in ANC's #15, #5, #11, ...

........................................................................
.............................. CYCLE    6 ..............................
........................................................................

 iter      E             dE          RMSdq      gap      omega  full diag
   1    -37.1798438 -0.371798E+02  0.504E-02    4.18       0.0  T
   2    -37.1798470 -0.315664E-05  0.301E-02    4.17       1.0  T
   3    -37.1798455  0.148248E-05  0.135E-02    4.17       1.5  T
   4    -37.1798479 -0.246013E-05  0.290E-03    4.17       6.8  T
   5    -37.1798480 -0.552012E-07  0.120E-03    4.17      16.4  T
   6    -37.1798480 -0.474027E-08  0.579E-04    4.17      33.9  T
   7    -37.1798480 -0.163084E-08  0.210E-04    4.17      93.5  T
     SCC iter.                  ...        0 min,  0.100 sec
     gradient                   ...        0 min,  0.034 sec
 * total energy  :   -36.6694012 Eh     change       -0.1873218E-03 Eh
   gradient norm :     0.0087134 Eh/α   predicted    -0.2006302E-03 (   7.10%)
   displ. norm   :     0.0937296 α      lambda       -0.2161812E-03
   maximum displ.:     0.0631824 α      in ANC's #15, #3, #14, ...

........................................................................
.............................. CYCLE    7 ..............................
........................................................................

 iter      E             dE          RMSdq      gap      omega  full diag
   1    -37.1793406 -0.371793E+02  0.429E-02    4.17       0.0  T
   2    -37.1793417 -0.109281E-05  0.265E-02    4.17       1.0  T
   3    -37.1793399  0.187911E-05  0.105E-02    4.17       1.9  T
   4    -37.1793424 -0.251269E-05  0.119E-03    4.17      16.5  T
   5    -37.1793424 -0.575753E-08  0.610E-04    4.17      32.2  T
   6    -37.1793424 -0.330303E-08  0.251E-04    4.17      78.1  T
     SCC iter.                  ...        0 min,  0.062 sec
     gradient                   ...        0 min,  0.026 sec
 * total energy  :   -36.6696081 Eh     change       -0.2068911E-03 Eh
   gradient norm :     0.0077270 Eh/α   predicted    -0.1090634E-03 ( -47.28%)
   displ. norm   :     0.6556603 α      lambda       -0.1481285E-02
   maximum displ.:     0.4599520 α      in ANC's #15, #3, #14, ...

........................................................................
.............................. CYCLE    8 ..............................
........................................................................

 iter      E             dE          RMSdq      gap      omega  full diag
   1    -37.1632011 -0.371632E+02  0.320E-01    4.16       0.0  T
   2    -37.1633139 -0.112784E-03  0.190E-01    4.15       1.0  T
   3    -37.1632374  0.764512E-04  0.798E-02    4.16       1.0  T
   4    -37.1633496 -0.112118E-03  0.169E-02    4.15       1.2  T
   5    -37.1633523 -0.272385E-05  0.614E-03    4.15       3.2  T
   6    -37.1633526 -0.278160E-06  0.307E-03    4.16       6.4  T
   7    -37.1633526 -0.219543E-07  0.107E-03    4.16      18.3  T
   8    -37.1633526 -0.124656E-07  0.300E-04    4.16      65.3  T
   9    -37.1633526 -0.416115E-09  0.170E-04    4.16     115.1  T
     SCC iter.                  ...        0 min,  0.215 sec
     gradient                   ...        0 min,  0.048 sec
 * total energy  :   -36.6659712 Eh     change        0.3636897E-02 Eh
   gradient norm :     0.0718877 Eh/α   predicted    -0.1059055E-02 (-129.12%)
   displ. norm   :     0.3650970 α      lambda       -0.1136504E-01
   maximum displ.:     0.2865276 α      in ANC's #15, #14, #35, ...

........................................................................
.............................. CYCLE    9 ..............................
........................................................................

 iter      E             dE          RMSdq      gap      omega  full diag
   1    -37.1796982 -0.371797E+02  0.231E-01    4.17       0.0  T
   2    -37.1797667 -0.685543E-04  0.136E-01    4.17       1.0  T
   3    -37.1797471  0.195622E-04  0.497E-02    4.16       1.0  T
   4    -37.1797873 -0.401849E-04  0.161E-02    4.16       1.2  T
   5    -37.1797894 -0.209660E-05  0.616E-03    4.16       3.2  T
   6    -37.1797896 -0.177754E-06  0.308E-03    4.16       6.4  T
   7    -37.1797896 -0.281775E-07  0.107E-03    4.16      18.3  T
   8    -37.1797896 -0.111642E-07  0.298E-04    4.16      65.9  T
   9    -37.1797896 -0.328306E-09  0.152E-04    4.16     128.7  T
     SCC iter.                  ...        0 min,  0.127 sec
     gradient                   ...        0 min,  0.033 sec
 * total energy  :   -36.6700628 Eh     change       -0.4091567E-02 Eh
   gradient norm :     0.0071862 Eh/α   predicted    -0.6441226E-02 (  57.43%)
   displ. norm   :     0.1102739 α      lambda        0.1948377E-03
   maximum displ.:     0.0554108 α      in ANC's #1, #6, #5, ...

........................................................................
.............................. CYCLE   10 ..............................
........................................................................

 iter      E             dE          RMSdq      gap      omega  full diag
   1    -37.1766735 -0.371767E+02  0.345E-02    4.15       0.0  T
   2    -37.1766741 -0.601697E-06  0.206E-02    4.15       1.0  T
   3    -37.1766740  0.685331E-07  0.310E-03    4.15       6.3  T
   4    -37.1766742 -0.146071E-06  0.105E-03    4.15      18.7  T
   5    -37.1766742 -0.127423E-07  0.520E-04    4.15      37.7  T
   6    -37.1766742 -0.142278E-08  0.214E-04    4.15      91.5  T
     SCC iter.                  ...        0 min,  0.074 sec
     gradient                   ...        0 min,  0.030 sec
 * total energy  :   -36.6700155 Eh     change        0.4728429E-04 Eh
   gradient norm :     0.0078086 Eh/α   predicted     0.9802372E-04 ( 107.31%)
   displ. norm   :     0.0822868 α      lambda       -0.5009005E-03
   maximum displ.:     0.0420760 α      in ANC's #5, #12, #8, ...

........................................................................
.............................. CYCLE   11 ..............................
........................................................................

 iter      E             dE          RMSdq      gap      omega  full diag
   1    -37.1793285 -0.371793E+02  0.320E-02    4.16       0.0  T
   2    -37.1793292 -0.763376E-06  0.192E-02    4.16       1.0  T
   3    -37.1793291  0.163330E-06  0.454E-03    4.16       4.3  T
   4    -37.1793293 -0.279923E-06  0.142E-03    4.16      13.8  T
   5    -37.1793294 -0.298342E-07  0.677E-04    4.16      29.0  T
   6    -37.1793294 -0.751506E-09  0.153E-04    4.16     128.6  T
     SCC iter.                  ...        0 min,  0.167 sec
     gradient                   ...        0 min,  0.051 sec
 * total energy  :   -36.6701849 Eh     change       -0.1693853E-03 Eh
   gradient norm :     0.0036253 Eh/α   predicted    -0.1299340E-03 ( -23.29%)
   displ. norm   :     0.0729926 α      lambda       -0.3833417E-03
   maximum displ.:     0.0366548 α      in ANC's #5, #15, #12, ...

........................................................................
.............................. CYCLE   12 ..............................
........................................................................

 iter      E             dE          RMSdq      gap      omega  full diag
   1    -37.1803407 -0.371803E+02  0.343E-02    4.17       0.0  T
   2    -37.1803413 -0.565366E-06  0.214E-02    4.17       1.0  T
   3    -37.1803407  0.606491E-06  0.566E-03    4.17       3.5  T
   4    -37.1803415 -0.843581E-06  0.127E-03    4.17      15.5  T
   5    -37.1803415 -0.116356E-07  0.608E-04    4.17      32.2  T
   6    -37.1803415 -0.159019E-08  0.239E-04    4.17      81.9  T
     SCC iter.                  ...        0 min,  0.088 sec
     gradient                   ...        0 min,  0.039 sec
 * total energy  :   -36.6702849 Eh     change       -0.1000222E-03 Eh
   gradient norm :     0.0045195 Eh/α   predicted    -0.6600726E-04 ( -34.01%)
   displ. norm   :     0.1285507 α      lambda       -0.8316340E-03
   maximum displ.:     0.0632266 α      in ANC's #15, #5, #4, ...

........................................................................
.............................. CYCLE   13 ..............................
........................................................................

 iter      E             dE          RMSdq      gap      omega  full diag
   1    -37.1805409 -0.371805E+02  0.605E-02    4.17       0.0  T
   2    -37.1805422 -0.135612E-05  0.375E-02    4.17       1.0  T
   3    -37.1805404  0.185708E-05  0.946E-03    4.17       2.1  T
   4    -37.1805429 -0.251281E-05  0.197E-03    4.17       9.9  T
   5    -37.1805429 -0.166573E-07  0.840E-04    4.17      23.3  T
   6    -37.1805429 -0.407987E-08  0.396E-04    4.17      49.6  T
     SCC iter.                  ...        0 min,  0.080 sec
     gradient                   ...        0 min,  0.034 sec
 * total energy  :   -36.6703892 Eh     change       -0.1042759E-03 Eh
   gradient norm :     0.0086226 Eh/α   predicted    -0.8699084E-04 ( -16.58%)
   displ. norm   :     0.0784184 α      lambda       -0.5804211E-03
   maximum displ.:     0.0339882 α      in ANC's #4, #5, #15, ...

........................................................................
.............................. CYCLE   14 ..............................
........................................................................

 iter      E             dE          RMSdq      gap      omega  full diag
   1    -37.1807948 -0.371808E+02  0.351E-02    4.17       0.0  T
   2    -37.1807951 -0.315382E-06  0.216E-02    4.17       1.0  T
   3    -37.1807948  0.264813E-06  0.391E-03    4.17       5.0  T
   4    -37.1807953 -0.420152E-06  0.109E-03    4.17      18.0  T
   5    -37.1807953 -0.657253E-08  0.569E-04    4.17      34.5  T
   6    -37.1807953 -0.875310E-09  0.120E-04    4.17     162.9  T
     SCC iter.                  ...        0 min,  0.109 sec
     gradient                   ...        0 min,  0.036 sec
 * total energy  :   -36.6704715 Eh     change       -0.8232502E-04 Eh
   gradient norm :     0.0069158 Eh/α   predicted    -0.5058847E-04 ( -38.55%)
   displ. norm   :     0.1198248 α      lambda       -0.1083470E-02
   maximum displ.:     0.0592224 α      in ANC's #4, #5, #6, ...

........................................................................
.............................. CYCLE   15 ..............................
........................................................................

 iter      E             dE          RMSdq      gap      omega  full diag
   1    -37.1811140 -0.371811E+02  0.514E-02    4.17       0.0  T
   2    -37.1811150 -0.100120E-05  0.312E-02    4.17       1.0  T
   3    -37.1811150  0.217582E-07  0.489E-03    4.17       4.0  T
   4    -37.1811153 -0.329248E-06  0.193E-03    4.17      10.2  T
   5    -37.1811154 -0.303829E-07  0.105E-03    4.17      18.7  T
   6    -37.1811154 -0.379851E-08  0.218E-04    4.17      90.1  T
   7    -37.1811154 -0.191157E-09  0.980E-05    4.17     200.1  T
     SCC iter.                  ...        0 min,  0.088 sec
     gradient                   ...        0 min,  0.041 sec
 * total energy  :   -36.6705684 Eh     change       -0.9688576E-04 Eh
   gradient norm :     0.0014336 Eh/α   predicted    -0.8229244E-04 ( -15.06%)
   displ. norm   :     0.1845141 α      lambda       -0.4147372E-03
   maximum displ.:     0.0901170 α      in ANC's #4, #6, #5, ...

........................................................................
.............................. CYCLE   16 ..............................
........................................................................

 iter      E             dE          RMSdq      gap      omega  full diag
   1    -37.1793689 -0.371794E+02  0.735E-02    4.17       0.0  T
   2    -37.1793700 -0.104701E-05  0.447E-02    4.17       1.0  T
   3    -37.1793689  0.106884E-05  0.783E-03    4.17       2.5  T
   4    -37.1793706 -0.163381E-05  0.219E-03    4.17       9.0  T
   5    -37.1793706 -0.118581E-07  0.851E-04    4.17      23.0  T
   6    -37.1793706 -0.333890E-08  0.342E-04    4.17      57.3  T
     SCC iter.                  ...        0 min,  0.084 sec
     gradient                   ...        0 min,  0.040 sec
 * total energy  :   -36.6705639 Eh     change        0.4491536E-05 Eh
   gradient norm :     0.0081112 Eh/α   predicted    -0.2752734E-04 (-712.87%)
   displ. norm   :     0.0306063 α      lambda       -0.5649865E-03
   maximum displ.:     0.0144497 α      in ANC's #3, #2, #15, ...

........................................................................
.............................. CYCLE   17 ..............................
........................................................................

 iter      E             dE          RMSdq      gap      omega  full diag
   1    -37.1803537 -0.371804E+02  0.135E-02    4.17       0.0  T
   2    -37.1803539 -0.217792E-06  0.788E-03    4.17       2.5  T
   3    -37.1803539 -0.539435E-08  0.211E-03    4.17       9.3  T
   4    -37.1803540 -0.513240E-07  0.982E-04    4.17      20.0  T
   5    -37.1803540 -0.100851E-07  0.356E-04    4.17      55.0  T
     SCC iter.                  ...        0 min,  0.073 sec
     gradient                   ...        0 min,  0.040 sec
 * total energy  :   -36.6706083 Eh     change       -0.4442260E-04 Eh
   gradient norm :     0.0016449 Eh/α   predicted    -0.3681420E-04 ( -17.13%)
   displ. norm   :     0.0343785 α      lambda       -0.8868281E-04
   maximum displ.:     0.0207779 α      in ANC's #3, #2, #8, ...

........................................................................
.............................. CYCLE   18 ..............................
........................................................................

 iter      E             dE          RMSdq      gap      omega  full diag
   1    -37.1812834 -0.371813E+02  0.946E-03    4.17       0.0  T
   2    -37.1812835 -0.631815E-07  0.574E-03    4.17       3.4  T
   3    -37.1812834  0.525436E-07  0.193E-03    4.17      10.2  T
   4    -37.1812835 -0.753299E-07  0.434E-04    4.17      45.1  T
   5    -37.1812835 -0.107499E-08  0.226E-04    4.17      86.7  T
     SCC iter.                  ...        0 min,  0.067 sec
     gradient                   ...        0 min,  0.039 sec
 * total energy  :   -36.6706157 Eh     change       -0.7392074E-05 Eh
   gradient norm :     0.0015141 Eh/α   predicted    -0.5125849E-05 ( -30.66%)
   displ. norm   :     0.0239346 α      lambda       -0.2747524E-04
   maximum displ.:     0.0140645 α      in ANC's #3, #2, #1, ...

........................................................................
.............................. CYCLE   19 ..............................
........................................................................

 iter      E             dE          RMSdq      gap      omega  full diag
   1    -37.1812423 -0.371812E+02  0.552E-03    4.17       0.0  T
   2    -37.1812423 -0.606441E-08  0.324E-03    4.17       6.0  T
   3    -37.1812423  0.258544E-08  0.466E-04    4.17      42.1  T
   4    -37.1812423 -0.411713E-08  0.134E-04    4.17     146.6  T
     SCC iter.                  ...        0 min,  0.058 sec
     gradient                   ...        0 min,  0.041 sec
 * total energy  :   -36.6706192 Eh     change       -0.3448066E-05 Eh
   gradient norm :     0.0008077 Eh/α   predicted    -0.1424944E-05 ( -58.67%)
   displ. norm   :     0.0458996 α      lambda       -0.3518934E-04
   maximum displ.:     0.0254723 α      in ANC's #3, #2, #1, ...

........................................................................
.............................. CYCLE   20 ..............................
........................................................................

 iter      E             dE          RMSdq      gap      omega  full diag
   1    -37.1810248 -0.371810E+02  0.107E-02    4.17       0.0  T
   2    -37.1810248 -0.139071E-07  0.628E-03    4.17       3.1  T
   3    -37.1810248  0.566411E-08  0.669E-04    4.17      29.3  T
   4    -37.1810248 -0.968568E-08  0.220E-04    4.17      89.2  T
     SCC iter.                  ...        0 min,  0.103 sec
     gradient                   ...        0 min,  0.043 sec
 * total energy  :   -36.6706227 Eh     change       -0.3470891E-05 Eh
   gradient norm :     0.0002791 Eh/α   predicted    -0.1655902E-05 ( -52.29%)
   displ. norm   :     0.0355525 α      lambda       -0.1761935E-04
   maximum displ.:     0.0198910 α      in ANC's #2, #3, #1, ...
 * RMSD in coord.:     0.2199715 α      energy gain  -0.3733018E-02 Eh

generating ANC from exact Hessian ...
Using Lindh-Hessian (1995)
 Shifting diagonal of input Hessian by    9.2294792534674992E-003
 Lowest  eigenvalues of input Hessian
    0.000000    0.000000    0.000000    0.000000    0.000000    0.000000
    0.010000    0.011041    0.011153    0.012534    0.013759    0.017465
    0.019557    0.020262    0.021960    0.025030    0.025678    0.027288
 Highest eigenvalues
    1.509542    1.615545    1.786771    1.906966    2.010587    2.122999


........................................................................
.............................. CYCLE   21 ..............................
........................................................................

 iter      E             dE          RMSdq      gap      omega  full diag
   1    -37.1810153 -0.371810E+02  0.859E-03    4.17       0.0  T
   2    -37.1810153 -0.697302E-08  0.507E-03    4.17       3.9  T
   3    -37.1810153  0.500147E-08  0.593E-04    4.17      33.1  T
   4    -37.1810154 -0.853580E-08  0.185E-04    4.17     106.0  T
     SCC iter.                  ...        0 min,  0.058 sec
     gradient                   ...        0 min,  0.047 sec
 * total energy  :   -36.6706244 Eh     change       -0.1759140E-05 Eh
   gradient norm :     0.0003971 Eh/α   predicted     0.0000000E+00 (-100.00%)
   displ. norm   :     0.0109022 α      lambda       -0.1558543E-06
   maximum displ.:     0.0073765 α      in ANC's #5, #2, #4, ...

........................................................................
.............................. CYCLE   22 ..............................
........................................................................

 iter      E             dE          RMSdq      gap      omega  full diag
   1    -37.1810423 -0.371810E+02  0.371E-03    4.17       0.0  T
   2    -37.1810423 -0.420789E-08  0.220E-03    4.17       8.9  T
   3    -37.1810423  0.169130E-09  0.247E-04    4.17      79.4  T
   4    -37.1810423 -0.798934E-09  0.793E-05    4.17     247.4  T
     SCC iter.                  ...        0 min,  0.071 sec
     gradient                   ...        0 min,  0.047 sec
 * total energy  :   -36.6706256 Eh     change       -0.1178077E-05 Eh
   gradient norm :     0.0001538 Eh/α   predicted    -0.4715914E-06 ( -59.97%)
   displ. norm   :     0.0422337 α      lambda       -0.2566945E-05
   maximum displ.:     0.0287175 α      in ANC's #5, #2, #4, ...

........................................................................
.............................. CYCLE   23 ..............................
........................................................................

 iter      E             dE          RMSdq      gap      omega  full diag
   1    -37.1810718 -0.371811E+02  0.127E-02    4.17       0.0  T
   2    -37.1810718 -0.244426E-07  0.757E-03    4.17       2.6  T
   3    -37.1810718  0.330871E-08  0.800E-04    4.17      24.5  T
   4    -37.1810718 -0.105133E-07  0.288E-04    4.17      68.0  T
     SCC iter.                  ...        0 min,  0.098 sec
     gradient                   ...        0 min,  0.040 sec
 * total energy  :   -36.6706285 Eh     change       -0.2913820E-05 Eh
   gradient norm :     0.0004990 Eh/α   predicted    -0.1285046E-05 ( -55.90%)
   displ. norm   :     0.0433139 α      lambda       -0.1932841E-05
   maximum displ.:     0.0291691 α      in ANC's #5, #2, #1, ...

........................................................................
.............................. CYCLE   24 ..............................
........................................................................

 iter      E             dE          RMSdq      gap      omega  full diag
   1    -37.1810475 -0.371810E+02  0.128E-02    4.17       0.0  T
   2    -37.1810475 -0.148902E-07  0.762E-03    4.17       2.6  T
   3    -37.1810475  0.730183E-08  0.823E-04    4.17      23.8  T
   4    -37.1810475 -0.147739E-07  0.288E-04    4.17      68.0  T
     SCC iter.                  ...        0 min,  0.059 sec
     gradient                   ...        0 min,  0.036 sec
 * total energy  :   -36.6706311 Eh     change       -0.2562980E-05 Eh
   gradient norm :     0.0005650 Eh/α   predicted    -0.9705314E-06 ( -62.13%)
   displ. norm   :     0.0580448 α      lambda       -0.2626535E-05
   maximum displ.:     0.0386768 α      in ANC's #5, #2, #1, ...

........................................................................
.............................. CYCLE   25 ..............................
........................................................................

 iter      E             dE          RMSdq      gap      omega  full diag
   1    -37.1810168 -0.371810E+02  0.172E-02    4.17       0.0  T
   2    -37.1810168 -0.227961E-07  0.102E-02    4.17       1.9  T
   3    -37.1810168  0.137789E-07  0.107E-03    4.17      18.3  T
   4    -37.1810169 -0.279688E-07  0.391E-04    4.17      50.2  T
   5    -37.1810169 -0.264258E-09  0.119E-04    4.17     164.1  T
     SCC iter.                  ...        0 min,  0.109 sec
     gradient                   ...        0 min,  0.034 sec
 * total energy  :   -36.6706346 Eh     change       -0.3580127E-05 Eh
   gradient norm :     0.0004106 Eh/α   predicted    -0.1321523E-05 ( -63.09%)
   displ. norm   :     0.0866639 α      lambda       -0.3832983E-05
   maximum displ.:     0.0581802 α      in ANC's #5, #2, #1, ...

........................................................................
.............................. CYCLE   26 ..............................
........................................................................

 iter      E             dE          RMSdq      gap      omega  full diag
   1    -37.1809534 -0.371810E+02  0.260E-02    4.17       0.0  T
   2    -37.1809534 -0.500961E-07  0.155E-02    4.17       1.3  T
   3    -37.1809534  0.357127E-08  0.129E-03    4.17      15.1  T
   4    -37.1809534 -0.338371E-07  0.593E-04    4.17      33.1  T
   5    -37.1809534 -0.872738E-09  0.171E-04    4.17     114.6  T
     SCC iter.                  ...        0 min,  0.060 sec
     gradient                   ...        0 min,  0.032 sec
 * total energy  :   -36.6706397 Eh     change       -0.5059270E-05 Eh
   gradient norm :     0.0003417 Eh/α   predicted    -0.1923359E-05 ( -61.98%)
   displ. norm   :     0.1067087 α      lambda       -0.4421516E-05
   maximum displ.:     0.0722409 α      in ANC's #5, #2, #1, ...

........................................................................
.............................. CYCLE   27 ..............................
........................................................................

 iter      E             dE          RMSdq      gap      omega  full diag
   1    -37.1808704 -0.371809E+02  0.327E-02    4.17       0.0  T
   2    -37.1808705 -0.813228E-07  0.195E-02    4.17       1.0  T
   3    -37.1808705 -0.150858E-07  0.145E-03    4.17      13.6  T
   4    -37.1808706 -0.330133E-07  0.755E-04    4.17      26.0  T
   5    -37.1808706 -0.178991E-08  0.217E-04    4.17      90.3  T
     SCC iter.                  ...        0 min,  0.069 sec
     gradient                   ...        0 min,  0.041 sec
 * total energy  :   -36.6706456 Eh     change       -0.5848434E-05 Eh
   gradient norm :     0.0007126 Eh/α   predicted    -0.2222307E-05 ( -62.00%)
   displ. norm   :     0.1233458 α      lambda       -0.5214208E-05
   maximum displ.:     0.0843619 α      in ANC's #5, #2, #1, ...

........................................................................
.............................. CYCLE   28 ..............................
........................................................................

 iter      E             dE          RMSdq      gap      omega  full diag
   1    -37.1808057 -0.371808E+02  0.385E-02    4.17       0.0  T
   2    -37.1808058 -0.118180E-06  0.230E-02    4.17       1.0  T
   3    -37.1808058 -0.397943E-07  0.156E-03    4.17      12.5  T
   4    -37.1808059 -0.289403E-07  0.896E-04    4.17      21.9  T
   5    -37.1808059 -0.314091E-08  0.265E-04    4.17      73.9  T
     SCC iter.                  ...        0 min,  0.066 sec
     gradient                   ...        0 min,  0.041 sec
 * total energy  :   -36.6706525 Eh     change       -0.6948543E-05 Eh
   gradient norm :     0.0011435 Eh/α   predicted    -0.2625075E-05 ( -62.22%)
   displ. norm   :     0.1441862 α      lambda       -0.6695531E-05
   maximum displ.:     0.0994794 α      in ANC's #5, #2, #1, ...

........................................................................
.............................. CYCLE   29 ..............................
........................................................................

 iter      E             dE          RMSdq      gap      omega  full diag
   1    -37.1807530 -0.371808E+02  0.461E-02    4.16       0.0  T
   2    -37.1807532 -0.178938E-06  0.275E-02    4.16       1.0  T
   3    -37.1807532 -0.638848E-07  0.184E-03    4.16      10.7  T
   4    -37.1807533 -0.360409E-07  0.108E-03    4.16      18.2  T
   5    -37.1807533 -0.506243E-08  0.376E-04    4.16      52.1  T
   6    -37.1807533 -0.132968E-08  0.128E-04    4.16     153.4  T
     SCC iter.                  ...        0 min,  0.076 sec
     gradient                   ...        0 min,  0.042 sec
 * total energy  :   -36.6706613 Eh     change       -0.8824770E-05 Eh
   gradient norm :     0.0014995 Eh/α   predicted    -0.3379352E-05 ( -61.71%)
   displ. norm   :     0.1834675 α      lambda       -0.9309930E-05
   maximum displ.:     0.1294647 α      in ANC's #5, #2, #1, ...

........................................................................
.............................. CYCLE   30 ..............................
........................................................................

 iter      E             dE          RMSdq      gap      omega  full diag
   1    -37.1806757 -0.371807E+02  0.602E-02    4.16       0.0  T
   2    -37.1806760 -0.318433E-06  0.359E-02    4.16       1.0  T
   3    -37.1806761 -0.960149E-07  0.249E-03    4.16       7.9  T
   4    -37.1806762 -0.744512E-07  0.144E-03    4.16      13.6  T
   5    -37.1806762 -0.104072E-07  0.584E-04    4.16      33.6  T
   6    -37.1806762 -0.286774E-08  0.165E-04    4.16     118.8  T
     SCC iter.                  ...        0 min,  0.126 sec
     gradient                   ...        0 min,  0.041 sec
 * total energy  :   -36.6706729 Eh     change       -0.1153101E-04 Eh
   gradient norm :     0.0018492 Eh/α   predicted    -0.4726085E-05 ( -59.01%)
   displ. norm   :     0.2024525 α      lambda       -0.1110843E-04
   maximum displ.:     0.1471641 α      in ANC's #5, #2, #1, ...

........................................................................
.............................. CYCLE   31 ..............................
........................................................................

 iter      E             dE          RMSdq      gap      omega  full diag
   1    -37.1806737 -0.371807E+02  0.684E-02    4.16       0.0  T
   2    -37.1806741 -0.429046E-06  0.408E-02    4.16       1.0  T
   3    -37.1806742 -0.103927E-06  0.293E-03    4.16       6.7  T
   4    -37.1806743 -0.113252E-06  0.166E-03    4.16      11.8  T
   5    -37.1806743 -0.147065E-07  0.734E-04    4.16      26.7  T
   6    -37.1806743 -0.385797E-08  0.188E-04    4.16     104.5  T
     SCC iter.                  ...        0 min,  0.083 sec
     gradient                   ...        0 min,  0.039 sec
 * total energy  :   -36.6706859 Eh     change       -0.1302836E-04 Eh
   gradient norm :     0.0020154 Eh/α   predicted    -0.5656116E-05 ( -56.59%)
   displ. norm   :     0.1425748 α      lambda       -0.1316978E-04
   maximum displ.:     0.1085872 α      in ANC's #5, #2, #1, ...

........................................................................
.............................. CYCLE   32 ..............................
........................................................................

 iter      E             dE          RMSdq      gap      omega  full diag
   1    -37.1808636 -0.371809E+02  0.497E-02    4.16       0.0  T
   2    -37.1808638 -0.244955E-06  0.296E-02    4.16       1.0  T
   3    -37.1808639 -0.395979E-07  0.224E-03    4.16       8.8  T
   4    -37.1808639 -0.706113E-07  0.121E-03    4.16      16.2  T
   5    -37.1808639 -0.859268E-08  0.587E-04    4.16      33.4  T
   6    -37.1808639 -0.200244E-08  0.137E-04    4.16     143.5  T
     SCC iter.                  ...        0 min,  0.091 sec
     gradient                   ...        0 min,  0.043 sec
 * total energy  :   -36.6706970 Eh     change       -0.1109348E-04 Eh
   gradient norm :     0.0016617 Eh/α   predicted    -0.6721299E-05 ( -39.41%)
   displ. norm   :     0.4605132 α      lambda       -0.2404165E-04
   maximum displ.:     0.3605510 α      in ANC's #5, #2, #1, ...

........................................................................
.............................. CYCLE   33 ..............................
........................................................................

 iter      E             dE          RMSdq      gap      omega  full diag
   1    -37.1792117 -0.371792E+02  0.165E-01    4.15       0.0  T
   2    -37.1792144 -0.265393E-05  0.987E-02    4.15       1.0  T
   3    -37.1792144 -0.124553E-07  0.849E-03    4.15       2.3  T
   4    -37.1792157 -0.126284E-05  0.401E-03    4.15       4.9  T
   5    -37.1792157 -0.811487E-07  0.199E-03    4.15       9.9  T
   6    -37.1792158 -0.186912E-07  0.432E-04    4.15      45.4  T
   7    -37.1792158 -0.531742E-09  0.210E-04    4.15      93.3  T
     SCC iter.                  ...        0 min,  0.093 sec
     gradient                   ...        0 min,  0.042 sec
 * total energy  :   -36.6707025 Eh     change       -0.5554364E-05 Eh
   gradient norm :     0.0046274 Eh/α   predicted    -0.1315552E-04 ( 136.85%)
   displ. norm   :     0.0414684 α      lambda       -0.5578258E-04
   maximum displ.:     0.0235567 α      in ANC's #2, #1, #3, ...

........................................................................
.............................. CYCLE   34 ..............................
........................................................................

 iter      E             dE          RMSdq      gap      omega  full diag
   1    -37.1814835 -0.371815E+02  0.165E-02    4.15       0.0  T
   2    -37.1814837 -0.187965E-06  0.100E-02    4.15       2.0  T
   3    -37.1814837 -0.690038E-08  0.138E-03    4.15      14.2  T
   4    -37.1814837 -0.209566E-07  0.671E-04    4.15      29.2  T
   5    -37.1814837 -0.729130E-08  0.306E-04    4.15      64.1  T
     SCC iter.                  ...        0 min,  0.059 sec
     gradient                   ...        0 min,  0.035 sec
 * total energy  :   -36.6707307 Eh     change       -0.2814447E-04 Eh
   gradient norm :     0.0010863 Eh/α   predicted    -0.2794550E-04 (  -0.71%)
   displ. norm   :     0.1737269 α      lambda       -0.1293254E-04
   maximum displ.:     0.1494774 α      in ANC's #5, #2, #1, ...

........................................................................
.............................. CYCLE   35 ..............................
........................................................................

 iter      E             dE          RMSdq      gap      omega  full diag
   1    -37.1810824 -0.371811E+02  0.650E-02    4.15       0.0  T
   2    -37.1810828 -0.424434E-06  0.387E-02    4.15       1.0  T
   3    -37.1810827  0.121936E-06  0.391E-03    4.15       5.0  T
   4    -37.1810830 -0.313199E-06  0.153E-03    4.15      12.8  T
   5    -37.1810830 -0.120579E-07  0.786E-04    4.15      25.0  T
   6    -37.1810830 -0.204783E-08  0.164E-04    4.15     119.4  T
     SCC iter.                  ...        0 min,  0.069 sec
     gradient                   ...        0 min,  0.028 sec
 * total energy  :   -36.6707488 Eh     change       -0.1808000E-04 Eh
   gradient norm :     0.0008965 Eh/α   predicted    -0.6557612E-05 ( -63.73%)
   displ. norm   :     0.7088534 α      lambda       -0.5738713E-04
   maximum displ.:     0.6302460 α      in ANC's #5, #2, #1, ...

........................................................................
.............................. CYCLE   36 ..............................
........................................................................

 iter      E             dE          RMSdq      gap      omega  full diag
   1    -37.1756338 -0.371756E+02  0.277E-01    4.14       0.0  T
   2    -37.1756418 -0.799051E-05  0.166E-01    4.14       1.0  T
   3    -37.1756349  0.693503E-05  0.218E-02    4.14       1.0  T
   4    -37.1756460 -0.110630E-04  0.638E-03    4.14       3.1  T
   5    -37.1756461 -0.141134E-06  0.333E-03    4.14       5.9  T
   6    -37.1756461 -0.338736E-07  0.762E-04    4.14      25.7  T
   7    -37.1756461 -0.179394E-08  0.402E-04    4.14      48.7  T
     SCC iter.                  ...        0 min,  0.070 sec
     gradient                   ...        0 min,  0.026 sec
 * total energy  :   -36.6706039 Eh     change        0.1448153E-03 Eh
   gradient norm :     0.0128416 Eh/α   predicted    -0.3513352E-04 (-124.26%)
   displ. norm   :     0.3010026 α      lambda       -0.4027184E-03
   maximum displ.:     0.2558463 α      in ANC's #5, #2, #1, ...

........................................................................
.............................. CYCLE   37 ..............................
........................................................................

 iter      E             dE          RMSdq      gap      omega  full diag
   1    -37.1796466 -0.371796E+02  0.124E-01    4.14       0.0  T
   2    -37.1796484 -0.180478E-05  0.743E-02    4.14       1.0  T
   3    -37.1796470  0.147090E-05  0.104E-02    4.14       1.9  T
   4    -37.1796494 -0.246073E-05  0.305E-03    4.14       6.4  T
   5    -37.1796495 -0.248256E-07  0.144E-03    4.14      13.6  T
   6    -37.1796495 -0.623536E-08  0.433E-04    4.14      45.3  T
   7    -37.1796495 -0.406153E-09  0.193E-04    4.14     101.7  T
     SCC iter.                  ...        0 min,  0.089 sec
     gradient                   ...        0 min,  0.042 sec
 * total energy  :   -36.6707948 Eh     change       -0.1908342E-03 Eh
   gradient norm :     0.0029850 Eh/α   predicted    -0.2193855E-03 (  14.96%)
   displ. norm   :     0.0340032 α      lambda       -0.1885888E-04
   maximum displ.:     0.0215850 α      in ANC's #5, #1, #2, ...

........................................................................
.............................. CYCLE   38 ..............................
........................................................................

 iter      E             dE          RMSdq      gap      omega  full diag
   1    -37.1804815 -0.371805E+02  0.105E-02    4.14       0.0  T
   2    -37.1804815 -0.358421E-07  0.625E-03    4.14       3.1  T
   3    -37.1804815  0.332784E-07  0.125E-03    4.14      15.7  T
   4    -37.1804815 -0.418313E-07  0.303E-04    4.14      64.8  T
   5    -37.1804815 -0.118418E-08  0.141E-04    4.14     139.4  T
     SCC iter.                  ...        0 min,  0.073 sec
     gradient                   ...        0 min,  0.047 sec
 * total energy  :   -36.6708102 Eh     change       -0.1538697E-04 Eh
   gradient norm :     0.0017138 Eh/α   predicted    -0.9460021E-05 ( -38.52%)
   displ. norm   :     0.1771080 α      lambda       -0.3361468E-04
   maximum displ.:     0.1476558 α      in ANC's #5, #1, #43, ...

........................................................................
.............................. CYCLE   39 ..............................
........................................................................

 iter      E             dE          RMSdq      gap      omega  full diag
   1    -37.1819324 -0.371819E+02  0.602E-02    4.14       0.0  T
   2    -37.1819329 -0.525949E-06  0.359E-02    4.14       1.0  T
   3    -37.1819317  0.121623E-05  0.722E-03    4.14       2.7  T
   4    -37.1819332 -0.148166E-05  0.121E-03    4.14      16.2  T
   5    -37.1819332 -0.475036E-08  0.617E-04    4.14      31.8  T
   6    -37.1819332 -0.624439E-09  0.245E-04    4.14      79.9  T
     SCC iter.                  ...        0 min,  0.093 sec
     gradient                   ...        0 min,  0.039 sec
 * total energy  :   -36.6708426 Eh     change       -0.3246691E-04 Eh
   gradient norm :     0.0015447 Eh/α   predicted    -0.1714219E-04 ( -47.20%)
   displ. norm   :     0.2958920 α      lambda       -0.3154432E-04
   maximum displ.:     0.2662498 α      in ANC's #5, #1, #43, ...

........................................................................
.............................. CYCLE   40 ..............................
........................................................................

 iter      E             dE          RMSdq      gap      omega  full diag
   1    -37.1809107 -0.371809E+02  0.113E-01    4.13       0.0  T
   2    -37.1809120 -0.131629E-05  0.673E-02    4.13       1.0  T
   3    -37.1809094  0.265799E-05  0.116E-02    4.13       1.7  T
   4    -37.1809128 -0.341924E-05  0.228E-03    4.13       8.6  T
   5    -37.1809128 -0.118684E-07  0.115E-03    4.13      17.1  T
   6    -37.1809128 -0.367327E-08  0.309E-04    4.13      63.5  T
   7    -37.1809128 -0.485137E-09  0.160E-04    4.13     122.5  T
     SCC iter.                  ...        0 min,  0.101 sec
     gradient                   ...        0 min,  0.038 sec
 * total energy  :   -36.6708678 Eh     change       -0.2513372E-04 Eh
   gradient norm :     0.0029959 Eh/α   predicted    -0.1660528E-04 ( -33.93%)
   displ. norm   :     0.0170483 α      lambda       -0.1478864E-04
   maximum displ.:     0.0118425 α      in ANC's #1, #6, #4, ...

........................................................................
.............................. CYCLE   41 ..............................
........................................................................

 iter      E             dE          RMSdq      gap      omega  full diag
   1    -37.1810215 -0.371810E+02  0.711E-03    4.13       0.0  T
   2    -37.1810215 -0.501782E-07  0.412E-03    4.13       4.8  T
   3    -37.1810215 -0.426823E-09  0.899E-04    4.13      21.8  T
   4    -37.1810215 -0.481563E-08  0.275E-04    4.13      71.4  T
     SCC iter.                  ...        0 min,  0.054 sec
     gradient                   ...        0 min,  0.042 sec
 * total energy  :   -36.6708788 Eh     change       -0.1101040E-04 Eh
   gradient norm :     0.0017158 Eh/α   predicted    -0.7308622E-05 ( -33.62%)
   displ. norm   :     0.1715151 α      lambda       -0.4569914E-04
   maximum displ.:     0.1229003 α      in ANC's #5, #1, #6, ...

........................................................................
.............................. CYCLE   42 ..............................
........................................................................

 iter      E             dE          RMSdq      gap      omega  full diag
   1    -37.1804406 -0.371804E+02  0.615E-02    4.13       0.0  T
   2    -37.1804410 -0.412955E-06  0.368E-02    4.13       1.0  T
   3    -37.1804404  0.595299E-06  0.545E-03    4.13       3.6  T
   4    -37.1804412 -0.790574E-06  0.125E-03    4.13      15.7  T
   5    -37.1804412 -0.540748E-08  0.640E-04    4.13      30.6  T
   6    -37.1804412 -0.455003E-09  0.215E-04    4.13      91.3  T
     SCC iter.                  ...        0 min,  0.075 sec
     gradient                   ...        0 min,  0.034 sec
 * total energy  :   -36.6708961 Eh     change       -0.1730372E-04 Eh
   gradient norm :     0.0023182 Eh/α   predicted    -0.1163473E-04 ( -32.76%)
   displ. norm   :     0.1223748 α      lambda       -0.6358813E-04
   maximum displ.:     0.0813255 α      in ANC's #5, #1, #6, ...
 * RMSD in coord.:     0.5151497 α      energy gain  -0.2734274E-03 Eh

generating ANC from exact Hessian ...
Using Lindh-Hessian (1995)
 Shifting diagonal of input Hessian by    9.1841838772901245E-003
 Lowest  eigenvalues of input Hessian
    0.000000    0.000000    0.000000    0.000000    0.000000    0.000000
    0.010000    0.010907    0.011124    0.012570    0.013794    0.017397
    0.019306    0.020140    0.022036    0.024823    0.025227    0.028123
 Highest eigenvalues
    1.508486    1.622426    1.785481    1.909048    2.012252    2.122646


........................................................................
.............................. CYCLE   43 ..............................
........................................................................

 iter      E             dE          RMSdq      gap      omega  full diag
   1    -37.1805842 -0.371806E+02  0.456E-02    4.13       0.0  T
   2    -37.1805844 -0.244787E-06  0.274E-02    4.13       1.0  T
   3    -37.1805843  0.720123E-07  0.321E-03    4.13       6.1  T
   4    -37.1805845 -0.193176E-06  0.118E-03    4.13      16.6  T
   5    -37.1805845 -0.538910E-08  0.559E-04    4.13      35.1  T
   6    -37.1805845 -0.968626E-09  0.146E-04    4.13     134.2  T
     SCC iter.                  ...        0 min,  0.075 sec
     gradient                   ...        0 min,  0.035 sec
 * total energy  :   -36.6709081 Eh     change       -0.1201353E-04 Eh
   gradient norm :     0.0031020 Eh/α   predicted     0.0000000E+00 (-100.00%)
   displ. norm   :     0.0138394 α      lambda       -0.1416812E-04
   maximum displ.:     0.0071174 α      in ANC's #2, #1, #3, ...

........................................................................
.............................. CYCLE   44 ..............................
........................................................................

 iter      E             dE          RMSdq      gap      omega  full diag
   1    -37.1811838 -0.371812E+02  0.779E-03    4.13       0.0  T
   2    -37.1811839 -0.914906E-07  0.457E-03    4.13       4.3  T
   3    -37.1811839  0.326172E-08  0.118E-03    4.13      16.6  T
   4    -37.1811839 -0.117968E-07  0.455E-04    4.13      43.1  T
   5    -37.1811839 -0.348181E-08  0.191E-04    4.13     102.9  T
     SCC iter.                  ...        0 min,  0.061 sec
     gradient                   ...        0 min,  0.030 sec
 * total energy  :   -36.6709178 Eh     change       -0.9741352E-05 Eh
   gradient norm :     0.0010814 Eh/α   predicted    -0.7297931E-05 ( -25.08%)
   displ. norm   :     0.0299757 α      lambda       -0.5050680E-05
   maximum displ.:     0.0171073 α      in ANC's #2, #1, #3, ...

........................................................................
.............................. CYCLE   45 ..............................
........................................................................

 iter      E             dE          RMSdq      gap      omega  full diag
   1    -37.1815510 -0.371816E+02  0.103E-02    4.13       0.0  T
   2    -37.1815511 -0.938722E-07  0.611E-03    4.13       3.2  T
   3    -37.1815511  0.912225E-08  0.125E-03    4.13      15.7  T
   4    -37.1815511 -0.172925E-07  0.430E-04    4.13      45.6  T
   5    -37.1815511 -0.303363E-08  0.172E-04    4.13     114.1  T
     SCC iter.                  ...        0 min,  0.066 sec
     gradient                   ...        0 min,  0.039 sec
 * total energy  :   -36.6709221 Eh     change       -0.4309273E-05 Eh
   gradient norm :     0.0009712 Eh/α   predicted    -0.2526709E-05 ( -41.37%)
   displ. norm   :     0.0312261 α      lambda       -0.2911565E-05
   maximum displ.:     0.0175566 α      in ANC's #2, #1, #3, ...

........................................................................
.............................. CYCLE   46 ..............................
........................................................................

 iter      E             dE          RMSdq      gap      omega  full diag
   1    -37.1814790 -0.371815E+02  0.968E-03    4.13       0.0  T
   2    -37.1814790 -0.139562E-07  0.578E-03    4.13       3.4  T
   3    -37.1814790 -0.787381E-09  0.461E-04    4.13      42.6  T
   4    -37.1814790 -0.268181E-08  0.209E-04    4.13      93.8  T
     SCC iter.                  ...        0 min,  0.050 sec
     gradient                   ...        0 min,  0.032 sec
 * total energy  :   -36.6709261 Eh     change       -0.3998370E-05 Eh
   gradient norm :     0.0010207 Eh/α   predicted    -0.1465883E-05 ( -63.34%)
   displ. norm   :     0.0960921 α      lambda       -0.8353115E-05
   maximum displ.:     0.0511157 α      in ANC's #2, #1, #3, ...

........................................................................
.............................. CYCLE   47 ..............................
........................................................................

 iter      E             dE          RMSdq      gap      omega  full diag
   1    -37.1811747 -0.371812E+02  0.290E-02    4.13       0.0  T
   2    -37.1811748 -0.755870E-07  0.174E-02    4.13       1.1  T
   3    -37.1811748 -0.449506E-08  0.132E-03    4.13      14.8  T
   4    -37.1811748 -0.301547E-07  0.679E-04    4.13      28.9  T
   5    -37.1811748 -0.275717E-08  0.302E-04    4.13      65.0  T
     SCC iter.                  ...        0 min,  0.058 sec
     gradient                   ...        0 min,  0.027 sec
 * total energy  :   -36.6709360 Eh     change       -0.9864743E-05 Eh
   gradient norm :     0.0008030 Eh/α   predicted    -0.4202405E-05 ( -57.40%)
   displ. norm   :     0.1248426 α      lambda       -0.7061708E-05
   maximum displ.:     0.0659541 α      in ANC's #1, #2, #3, ...

........................................................................
.............................. CYCLE   48 ..............................
........................................................................

 iter      E             dE          RMSdq      gap      omega  full diag
   1    -37.1809275 -0.371809E+02  0.370E-02    4.13       0.0  T
   2    -37.1809276 -0.975085E-07  0.221E-02    4.13       1.0  T
   3    -37.1809276 -0.721084E-08  0.169E-03    4.13      11.6  T
   4    -37.1809276 -0.443002E-07  0.813E-04    4.13      24.1  T
   5    -37.1809276 -0.255005E-08  0.285E-04    4.13      68.8  T
     SCC iter.                  ...        0 min,  0.079 sec
     gradient                   ...        0 min,  0.042 sec
 * total energy  :   -36.6709435 Eh     change       -0.7486313E-05 Eh
   gradient norm :     0.0009729 Eh/α   predicted    -0.3569367E-05 ( -52.32%)
   displ. norm   :     0.0920826 α      lambda       -0.3963495E-05
   maximum displ.:     0.0496290 α      in ANC's #1, #2, #3, ...

........................................................................
.............................. CYCLE   49 ..............................
........................................................................

 iter      E             dE          RMSdq      gap      omega  full diag
   1    -37.1809902 -0.371810E+02  0.268E-02    4.13       0.0  T
   2    -37.1809902 -0.449620E-07  0.160E-02    4.13       1.2  T
   3    -37.1809902  0.574322E-08  0.134E-03    4.13      14.6  T
   4    -37.1809902 -0.309307E-07  0.548E-04    4.13      35.8  T
   5    -37.1809902 -0.859878E-09  0.154E-04    4.13     127.1  T
     SCC iter.                  ...        0 min,  0.063 sec
     gradient                   ...        0 min,  0.034 sec
 * total energy  :   -36.6709482 Eh     change       -0.4717920E-05 Eh
   gradient norm :     0.0007974 Eh/α   predicted    -0.2033505E-05 ( -56.90%)
   displ. norm   :     0.1035461 α      lambda       -0.4924617E-05
   maximum displ.:     0.0569856 α      in ANC's #1, #2, #3, ...

........................................................................
.............................. CYCLE   50 ..............................
........................................................................

 iter      E             dE          RMSdq      gap      omega  full diag
   1    -37.1812308 -0.371812E+02  0.299E-02    4.13       0.0  T
   2    -37.1812309 -0.655924E-07  0.179E-02    4.13       1.1  T
   3    -37.1812308  0.871789E-07  0.220E-03    4.13       8.9  T
   4    -37.1812309 -0.124353E-06  0.570E-04    4.13      34.4  T
   5    -37.1812309 -0.665139E-09  0.213E-04    4.13      91.9  T
     SCC iter.                  ...        0 min,  0.061 sec
     gradient                   ...        0 min,  0.035 sec
 * total energy  :   -36.6709537 Eh     change       -0.5475813E-05 Eh
   gradient norm :     0.0004323 Eh/α   predicted    -0.2476615E-05 ( -54.77%)
   displ. norm   :     0.1016883 α      lambda       -0.3838284E-05
   maximum displ.:     0.0564893 α      in ANC's #1, #2, #5, ...

........................................................................
.............................. CYCLE   51 ..............................
........................................................................

 iter      E             dE          RMSdq      gap      omega  full diag
   1    -37.1813063 -0.371813E+02  0.293E-02    4.13       0.0  T
   2    -37.1813064 -0.815584E-07  0.175E-02    4.13       1.1  T
   3    -37.1813062  0.188145E-06  0.284E-03    4.13       6.9  T
   4    -37.1813064 -0.235279E-06  0.544E-04    4.13      36.1  T
   5    -37.1813064 -0.503057E-09  0.258E-04    4.13      76.1  T
     SCC iter.                  ...        0 min,  0.062 sec
     gradient                   ...        0 min,  0.038 sec
 * total energy  :   -36.6709576 Eh     change       -0.3910539E-05 Eh
   gradient norm :     0.0005403 Eh/α   predicted    -0.1930106E-05 ( -50.64%)
   displ. norm   :     0.0528272 α      lambda       -0.1825950E-05
   maximum displ.:     0.0299762 α      in ANC's #1, #5, #2, ...

........................................................................
.............................. CYCLE   52 ..............................
........................................................................

 iter      E             dE          RMSdq      gap      omega  full diag
   1    -37.1814694 -0.371815E+02  0.154E-02    4.13       0.0  T
   2    -37.1814694 -0.420927E-07  0.922E-03    4.13       2.1  T
   3    -37.1814693  0.127251E-06  0.224E-03    4.13       8.8  T
   4    -37.1814695 -0.152764E-06  0.318E-04    4.13      61.6  T
   5    -37.1814695 -0.180506E-09  0.173E-04    4.13     113.6  T
     SCC iter.                  ...        0 min,  0.079 sec
     gradient                   ...        0 min,  0.049 sec
 * total energy  :   -36.6709593 Eh     change       -0.1684140E-05 Eh
   gradient norm :     0.0005010 Eh/α   predicted    -0.9147430E-06 ( -45.68%)
   displ. norm   :     0.0524908 α      lambda        0.6447985E-06
   maximum displ.:     0.0297857 α      in ANC's #1, #5, #2, ...

........................................................................
.............................. CYCLE   53 ..............................
........................................................................

 iter      E             dE          RMSdq      gap      omega  full diag
   1    -37.1815749 -0.371816E+02  0.154E-02    4.13       0.0  T
   2    -37.1815749 -0.407938E-07  0.918E-03    4.13       2.1  T
   3    -37.1815748  0.125815E-06  0.223E-03    4.13       8.8  T
   4    -37.1815750 -0.150537E-06  0.307E-04    4.13      63.8  T
   5    -37.1815750 -0.175966E-09  0.167E-04    4.13     117.6  T
     SCC iter.                  ...        0 min,  0.079 sec
     gradient                   ...        0 min,  0.038 sec
 * total energy  :   -36.6709589 Eh     change        0.3843152E-06 Eh
   gradient norm :     0.0007524 Eh/α   predicted     0.3227694E-06 ( -16.01%)
   displ. norm   :     0.0196488 α      lambda       -0.1254551E-05
   maximum displ.:     0.0106840 α      in ANC's #1, #2, #3, ...

........................................................................
.............................. CYCLE   54 ..............................
........................................................................

 iter      E             dE          RMSdq      gap      omega  full diag
   1    -37.1813927 -0.371814E+02  0.630E-03    4.13       0.0  T
   2    -37.1813928 -0.999961E-08  0.375E-03    4.13       5.2  T
   3    -37.1813927  0.267044E-07  0.103E-03    4.13      19.0  T
   4    -37.1813928 -0.322154E-07  0.142E-04    4.13     138.6  T
   5    -37.1813928 -0.485443E-10  0.785E-05    4.13     249.7  T
     SCC iter.                  ...        0 min,  0.066 sec
     gradient                   ...        0 min,  0.028 sec
 * total energy  :   -36.6709600 Eh     change       -0.1092934E-05 Eh
   gradient norm :     0.0002308 Eh/α   predicted    -0.6339442E-06 ( -42.00%)
   displ. norm   :     0.0171601 α      lambda       -0.3368695E-06
   maximum displ.:     0.0093931 α      in ANC's #2, #3, #1, ...

........................................................................
.............................. CYCLE   55 ..............................
........................................................................

 iter      E             dE          RMSdq      gap      omega  full diag
   1    -37.1813969 -0.371814E+02  0.465E-03    4.13       0.0  T
   2    -37.1813969 -0.134252E-08  0.276E-03    4.13       7.1  T
   3    -37.1813969  0.189092E-08  0.293E-04    4.13      66.9  T
   4    -37.1813969 -0.256797E-08  0.742E-05    4.13     264.2  T
     SCC iter.                  ...        0 min,  0.043 sec
     gradient                   ...        0 min,  0.026 sec
 * total energy  :   -36.6709604 Eh     change       -0.3919586E-06 Eh
   gradient norm :     0.0001625 Eh/α   predicted    -0.1695481E-06 ( -56.74%)
   displ. norm   :     0.0227298 α      lambda       -0.4920635E-06
   maximum displ.:     0.0130640 α      in ANC's #3, #2, #4, ...

   *** GEOMETRY OPTIMIZATION CONVERGED AFTER 55 ITERATIONS ***

------------------------------------------------------------------------
 total energy gain   :        -0.0040707 Eh       -2.5544 kcal/mol
 total RMSD          :         0.6804271 a0        0.3601 Å
 total power (kW/mol):        -0.1943227 (step)   -1.2594 (real)
------------------------------------------------------------------------

 ANCopt (total)                0 d,  0 h,  0 min,  8.487 sec
 optimizer setup                ...        0 min,  0.001 sec (  0.006%)
 model hessian                  ...        0 min,  0.021 sec (  0.253%)
 ANC generation                 ...        0 min,  0.028 sec (  0.334%)
 coordinate transformation      ...        0 min,  0.001 sec (  0.007%)
 single point calculation       ...        0 min,  8.208 sec ( 96.721%)
 optimization log               ...        0 min,  0.007 sec (  0.084%)
 hessian update                 ...        0 min,  0.203 sec (  2.389%)
 rational function              ...        0 min,  0.008 sec (  0.097%)

================
 final structure:
================
26
 xtb: 6.7.1 (edcfbbe)
C           -4.33936420940519        0.23361635312953       -1.77450285438090
C           -3.50895660585475        0.55335531704111       -0.53922586386246
C           -2.04536607013323        0.17221534203677       -0.73595430941318
O           -1.35277019182668        0.49069463243173        0.45336977300241
C           -0.01450480447009        0.25710221490988        0.51921213468151
C            0.60464582231282        0.60661855869077        1.72128773217004
C            1.95689370807205        0.40939874447901        1.89642006908033
C            2.73176137385869       -0.13482791466997        0.87803341316924
C            4.21495382651356       -0.34617809207317        1.05758486877494
O            4.71200730538051       -1.47448756238643        0.37485938763545
C            2.11404771555436       -0.47931614759509       -0.31390421747071
C            0.75491167203833       -0.29233102045923       -0.50016369871229
H           -3.96404291185477        0.77579913292278       -2.63954699099032
H           -4.30404719185016       -0.83087492282169       -1.99538264623412
H           -5.37624563849482        0.51699864894472       -1.61499136726576
H           -3.56292998674487        1.61964381818609       -0.31499268126820
H           -3.89564727746936        0.01129079766703        0.32494885461940
H           -1.96213467533027       -0.90336108764185       -0.94845785265685
H           -1.62259725455696        0.72994351308999       -1.58368877431066
H           -0.00354882780707        1.02965550634452        2.50510420360997
H            2.41993604520106        0.68313585054025        2.83355971913134
H            4.76485587659998        0.50480341401912        0.64069800990803
H            4.45183446827817       -0.40918984824833        2.13054279766822
H            4.20559185537915       -2.24621561537153        0.65162764612452
H            2.70864281778626       -0.90204539618255       -1.11084290555184
H            0.31207318249840       -0.57544422600540       -1.44210304087863

 Bond Distances (Angstroems)
 ---------------------------
C1-C2=1.5224         C1-H13=1.0877        C1-H14=1.0877        C1-H15=1.0867        C2-C1=1.5224         C2-C3=1.5251         
C2-H16=1.0909        C2-H17=1.0909        C3-C2=1.5251         C3-O4=1.4127         C3-H18=1.0995        C3-H19=1.0993        
O4-C3=1.4127         O4-C5=1.3601         C5-O4=1.3601         C5-C6=1.3966         C5-C12=1.3903        C6-C5=1.3966         
C6-C7=1.3777         C6-H20=1.0785        C7-C6=1.3777         C7-C8=1.3906         C7-H21=1.0805        C8-C7=1.3906         
C8-C9=1.5089         C8-C11=1.3860        C9-C8=1.5089         C9-O10=1.4093        C9-H22=1.0956        C9-H23=1.1006        
O10-C9=1.4093        O10-H24=0.9637       C11-C8=1.3860        C11-C12=1.3845       C11-H25=1.0804       C12-C5=1.3903        
C12-C11=1.3845       C12-H26=1.0787       H13-C1=1.0877        H14-C1=1.0877        H15-C1=1.0867        H16-C2=1.0909        
H17-C2=1.0909        H18-C3=1.0995        H19-C3=1.0993        H20-C6=1.0785        H21-C7=1.0805        H22-C9=1.0956        
H23-C9=1.1006        H24-O10=0.9637       H25-C11=1.0804       H26-C12=1.0787       
 C  H  Rav=1.0890 sigma=0.0077  Rmin=1.0785  Rmax=1.1006    13
 C  C  Rav=1.4314 sigma=0.0622  Rmin=1.3777  Rmax=1.5251     9
 O  H  Rav=0.9637 sigma=0.0000  Rmin=0.9637  Rmax=0.9637     1
 O  C  Rav=1.3940 sigma=0.0240  Rmin=1.3601  Rmax=1.4127     3

 selected bond angles (degree)
 --------------------
H13-C1-C2=110.63               H14-C1-C2=110.65               H14-C1-H13=108.37              H15-C1-C2=110.28               
H15-C1-H13=108.42              H15-C1-H14=108.42              C3-C2-C1=111.49                H16-C2-C1=110.19               
H16-C2-C3=108.56               H17-C2-C1=110.18               H17-C2-C3=108.55               H17-C2-H16=107.78              
O4-C3-C2=107.79                H18-C3-C2=110.00               H18-C3-O4=110.25               H19-C3-C2=109.98               
H19-C3-O4=110.26               H19-C3-H18=108.55              C5-O4-C3=118.98                C6-C5-O4=115.78                
C12-C5-O4=125.23               C12-C5-C6=118.99               C7-C6-C5=120.58                H20-C6-C5=118.27               
H20-C6-C7=121.15               C8-C7-C6=120.65                H21-C7-C6=119.64               H21-C7-C8=119.70               
C9-C8-C7=121.02                C11-C8-C7=118.60               C11-C8-C9=120.37               O10-C9-C8=113.65               
H22-C9-C8=109.83               H22-C9-O10=105.10              H23-C9-C8=109.61               H23-C9-O10=110.52              
H23-C9-H22=107.90              H24-O10-C9=108.46              

 selected dihedral angles (degree)
 ---------------------------------
C3-C2-C1-H13=300.21           C3-C2-C1-H14= 60.33           C3-C2-C1-H15=180.27           H16-C2-C1-H13= 60.82          
H16-C2-C1-H14=180.93          H16-C2-C1-H15=300.88          H17-C2-C1-H13=179.62          H17-C2-C1-H14=299.73          
H17-C2-C1-H15= 59.68          O4-C3-C2-C1=180.45            O4-C3-C2-H16= 58.89           O4-C3-C2-H17=302.00           
H18-C3-C2-C1=300.69           H18-C3-C2-H16=179.13          H18-C3-C2-H17= 62.24          H19-C3-C2-C1= 60.20           
H19-C3-C2-H16=298.65          H19-C3-C2-H17=181.75          C5-O4-C3-C2=180.85            C5-O4-C3-H18= 60.77           
C5-O4-C3-H19=300.92           C6-C5-O4-C3=179.50            C12-C5-O4-C3=359.39           C7-C6-C5-O4=179.84            
C7-C6-C5-C12=359.94           H20-C6-C5-O4=  0.05           H20-C6-C5-C12=180.15          C8-C7-C6-C5=  0.32            
C8-C7-C6-H20=180.11           H21-C7-C6-C5=180.15           H21-C7-C6-H20=359.93          C9-C8-C7-C6=179.60            
C9-C8-C7-H21=359.78           C11-C8-C7-C6=359.74           C11-C8-C7-H21=179.92          O10-C9-C8-C7=146.94           
O10-C9-C8-C11=326.79          H22-C9-C8-C7=264.34           H22-C9-C8-C11= 84.20          H23-C9-C8-C7= 22.73           
H23-C9-C8-C11=202.58          H24-O10-C9-C8=304.91          H24-O10-C9-H22=184.79         H24-O10-C9-H23= 68.63         
           -------------------------------------------------
          |                Final Singlepoint                |
           -------------------------------------------------

          ...................................................
          :                      SETUP                      :
          :.................................................:
          :  # basis functions                  62          :
          :  # atomic orbitals                  62          :
          :  # shells                           38          :
          :  # electrons                        66          :
          :  max. iterations                   250          :
          :  Hamiltonian                  GFN2-xTB          :
          :  restarted?                      false          :
          :  GBSA solvation                  false          :
          :  PC potential                    false          :
          :  electronic temp.          300.0000000     K    :
          :  accuracy                    1.0000000          :
          :  -> integral cutoff          0.2500000E+02      :
          :  -> integral neglect         0.1000000E-07      :
          :  -> SCF convergence          0.1000000E-05 Eh   :
          :  -> wf. convergence          0.1000000E-03 e    :
          :  Broyden damping             0.4000000          :
          :  net charge                          0          :
          :  unpaired electrons                  0          :
          ...................................................

 iter      E             dE          RMSdq      gap      omega  full diag
   1    -37.1813969 -0.371814E+02  0.295E-05    4.13       0.0  T
   2    -37.1813969 -0.426326E-11  0.177E-05    4.13    1110.8  T
   3    -37.1813969 -0.168399E-11  0.109E-05    4.13    1796.9  T

   *** convergence criteria satisfied after 3 iterations ***

         #    Occupation            Energy/Eh            Energy/eV
      -------------------------------------------------------------
         1        2.0000           -0.7127221             -19.3942
       ...           ...                  ...                  ...
        27        2.0000           -0.4464559             -12.1487
        28        2.0000           -0.4396846             -11.9644
        29        2.0000           -0.4324619             -11.7679
        30        2.0000           -0.4192999             -11.4097
        31        2.0000           -0.4094448             -11.1416
        32        2.0000           -0.4051813             -11.0255
        33        2.0000           -0.3746837             -10.1957 (HOMO)
        34                         -0.2230574              -6.0697 (LUMO)
        35                         -0.2138066              -5.8180
        36                         -0.0910015              -2.4763
        37                          0.0143598               0.3907
        38                          0.0687506               1.8708
       ...                                ...                  ...
        62                          0.6655918              18.1117
      -------------------------------------------------------------
                  HL-Gap            0.1516263 Eh            4.1260 eV
             Fermi-level           -0.2988705 Eh           -8.1327 eV

 SCC (total)                   0 d,  0 h,  0 min,  0.094 sec
 SCC setup                      ...        0 min,  0.003 sec (  3.232%)
 Dispersion                     ...        0 min,  0.006 sec (  5.993%)
 classical contributions        ...        0 min,  0.003 sec (  3.125%)
 integral evaluation            ...        0 min,  0.012 sec ( 12.725%)
 iterations                     ...        0 min,  0.036 sec ( 37.974%)
 molecular gradient             ...        0 min,  0.035 sec ( 36.781%)
 printout                       ...        0 min,  0.000 sec (  0.140%)

         :::::::::::::::::::::::::::::::::::::::::::::::::::::
         ::                     SUMMARY                     ::
         :::::::::::::::::::::::::::::::::::::::::::::::::::::
         :: total energy             -36.670960382943 Eh    ::
         :: gradient norm              0.000162789009 Eh/a0 ::
         :: HOMO-LUMO gap              4.125962006142 eV    ::
         ::.................................................::
         :: SCC energy               -37.181502386012 Eh    ::
         :: -> isotropic ES            0.040788180549 Eh    ::
         :: -> anisotropic ES          0.005273866841 Eh    ::
         :: -> anisotropic XC          0.011884620252 Eh    ::
         :: -> dispersion             -0.019654850458 Eh    ::
         :: repulsion energy           0.510542003069 Eh    ::
         :: add. restraining           0.000000000000 Eh    ::
         :: total charge               0.000000000000 e     ::
         :::::::::::::::::::::::::::::::::::::::::::::::::::::

           -------------------------------------------------
          |                Property Printout                |
           -------------------------------------------------

    * Orbital Energies and Occupations

         #    Occupation            Energy/Eh            Energy/eV
      -------------------------------------------------------------
         1        2.0000           -0.7127221             -19.3942
       ...           ...                  ...                  ...
        21        2.0000           -0.4828969             -13.1403
        22        2.0000           -0.4775895             -12.9959
        23        2.0000           -0.4753249             -12.9342
        24        2.0000           -0.4687938             -12.7565
        25        2.0000           -0.4636774             -12.6173
        26        2.0000           -0.4517014             -12.2914
        27        2.0000           -0.4464559             -12.1487
        28        2.0000           -0.4396846             -11.9644
        29        2.0000           -0.4324619             -11.7679
        30        2.0000           -0.4192999             -11.4097
        31        2.0000           -0.4094448             -11.1416
        32        2.0000           -0.4051813             -11.0255
        33        2.0000           -0.3746837             -10.1957 (HOMO)
        34                         -0.2230574              -6.0697 (LUMO)
        35                         -0.2138066              -5.8180
        36                         -0.0910015              -2.4763
        37                          0.0143598               0.3907
        38                          0.0687506               1.8708
        39                          0.0886223               2.4115
        40                          0.1002433               2.7278
        41                          0.1216307               3.3097
        42                          0.1251814               3.4064
        43                          0.1323346               3.6010
        44                          0.1411238               3.8402
       ...                                ...                  ...
        62                          0.6655918              18.1117
      -------------------------------------------------------------
                  HL-Gap            0.1516263 Eh            4.1260 eV
             Fermi-level           -0.2988705 Eh           -8.1327 eV

     #   Z          covCN         q      C6AA      α(0)
     1   6 C        3.753    -0.108    22.625     6.783
     2   6 C        3.800    -0.061    21.669     6.628
     3   6 C        3.694     0.085    19.339     6.292
     4   8 O        1.706    -0.278    18.608     5.824
     5   6 C        2.864     0.142    24.896     8.179
     6   6 C        2.920    -0.055    29.364     8.886
     7   6 C        2.923    -0.040    29.003     8.832
     8   6 C        2.966    -0.019    28.480     8.754
     9   6 C        3.679     0.078    19.488     6.323
    10   8 O        1.655    -0.438    21.598     6.274
    11   6 C        2.925    -0.036    28.905     8.817
    12   6 C        2.917    -0.069    29.711     8.938
    13   1 H        0.925     0.039     2.468     2.456
    14   1 H        0.925     0.038     2.470     2.458
    15   1 H        0.925     0.045     2.383     2.414
    16   1 H        0.924     0.049     2.327     2.386
    17   1 H        0.924     0.049     2.327     2.385
    18   1 H        0.923     0.027     2.629     2.536
    19   1 H        0.923     0.028     2.620     2.531
    20   1 H        0.926     0.048     2.346     2.395
    21   1 H        0.926     0.033     2.539     2.492
    22   1 H        0.924     0.054     2.269     2.356
    23   1 H        0.923     0.021     2.712     2.575
    24   1 H        0.805     0.286     0.763     1.372
    25   1 H        0.926     0.047     2.355     2.400
    26   1 H        0.926     0.033     2.551     2.498

 Mol. C6AA /au·bohr⁶  :       6435.844323
 Mol. C8AA /au·bohr⁸  :     146860.963136
 Mol. α(0) /au        :        123.781960


Wiberg/Mayer (AO) data.
largest (>0.10) Wiberg bond orders for each atom

 ---------------------------------------------------------------------------
     #   Z sym  total        # sym  WBO       # sym  WBO       # sym  WBO
 ---------------------------------------------------------------------------
     1   6 C    3.995 --     2 C    1.019    14 H    0.987    13 H    0.987
                            15 H    0.987
     2   6 C    3.994 --     1 C    1.019     3 C    1.002    16 H    0.977
                            17 H    0.977
     3   6 C    3.947 --     2 C    1.002     4 O    0.968    19 H    0.968
                            18 H    0.968
     4   8 O    2.229 --     5 C    1.064     3 C    0.968
     5   6 C    3.935 --    12 C    1.376     6 C    1.344     4 O    1.064
     6   6 C    3.988 --     7 C    1.476     5 C    1.344    20 H    0.968
                            11 C    0.108
     7   6 C    3.991 --     6 C    1.476     8 C    1.391    21 H    0.969
                            12 C    0.102
     8   6 C    3.987 --    11 C    1.423     7 C    1.391     9 C    0.998
     9   6 C    3.957 --    10 O    0.998     8 C    0.998    23 H    0.966
                            22 H    0.958
    10   8 O    1.963 --     9 C    0.998    24 H    0.904
    11   6 C    3.991 --    12 C    1.437     8 C    1.423    25 H    0.968
                             6 C    0.108
    12   6 C    3.988 --    11 C    1.437     5 C    1.376    26 H    0.966
                             7 C    0.102
    13   1 H    0.999 --     1 C    0.987
    14   1 H    0.999 --     1 C    0.987
    15   1 H    0.998 --     1 C    0.987
    16   1 H    0.998 --     2 C    0.977
    17   1 H    0.998 --     2 C    0.977
    18   1 H    0.999 --     3 C    0.968
    19   1 H    0.999 --     3 C    0.968
    20   1 H    0.997 --     6 C    0.968
    21   1 H    0.998 --     7 C    0.969
    22   1 H    0.996 --     9 C    0.958
    23   1 H    0.999 --     9 C    0.966
    24   1 H    0.918 --    10 O    0.904
    25   1 H    0.998 --    11 C    0.968
    26   1 H    0.999 --    12 C    0.966
 ---------------------------------------------------------------------------

Topologies differ in total number of bonds
Writing topology from bond orders to xtbtopo.mol

molecular dipole:
                 x           y           z       tot (Debye)
 q only:       -0.749      -0.097      -0.097
   full:       -0.848      -0.204      -0.095       2.229
molecular quadrupole (traceless):
                xx          xy          yy          xz          yz          zz
 q only:       -4.252       1.379       1.621       6.353      -0.662       2.631
  q+dip:       -8.249       1.848       2.435       7.503      -0.887       5.814
   full:       -8.637       2.171       3.846       7.762      -1.549       4.791

           -------------------------------------------------
          |                Geometry Summary                 |
           -------------------------------------------------

      molecular mass/u    :      166.2173393
   center of mass at/Å    :        0.4664137      -0.0238818       0.2237820
  moments of inertia/u·Å² :        0.1592212E+03   0.1475870E+04   0.1610949E+04
rotational constants/cm⁻¹ :        0.1058755E+00   0.1142217E-01   0.1046441E-01

 * 25 selected distances

     #   Z          #   Z                                           value/Å
     1   6 C        2   6 C                                       1.5224058
     2   6 C        3   6 C                                       1.5251451 (max)
     3   6 C        4   8 O                                       1.4126607
     4   8 O        5   6 C                                       1.3600938
     5   6 C        6   6 C                                       1.3966013
     6   6 C        7   6 C                                       1.3777306
     7   6 C        8   6 C                                       1.3905806
     9   6 C       10   8 O                                       1.4093470
     8   6 C       11   6 C                                       1.3859863
     5   6 C       12   6 C                                       1.3903259
    11   6 C       12   6 C                                       1.3845242
     1   6 C       13   1 H                                       1.0877177
     1   6 C       14   1 H                                       1.0877394
     1   6 C       15   1 H                                       1.0866797
     2   6 C       16   1 H                                       1.0909469
     2   6 C       17   1 H                                       1.0909454
     3   6 C       18   1 H                                       1.0995227
     3   6 C       19   1 H                                       1.0992944
     6   6 C       20   1 H                                       1.0785312
     7   6 C       21   1 H                                       1.0805421
     9   6 C       22   1 H                                       1.0956079
     9   6 C       23   1 H                                       1.1006007
    10   8 O       24   1 H                                       0.9636502 (min)
    11   6 C       25   1 H                                       1.0804420
    12   6 C       26   1 H                                       1.0786607

 * 4 distinct bonds (by element types)

   Z      Z             #   av. dist./Å        max./Å        min./Å
   1 H    6 C          13     1.0890177     1.1006007     1.0785312
   6 C    6 C           8     1.4216625     1.5251451     1.3777306
   1 H    8 O           1     0.9636502     0.9636502     0.9636502
   6 C    8 O           3     1.3940338     1.4126607     1.3600938


optimized geometry written to: xtbopt.xyz


           -------------------------------------------------
          | TOTAL ENERGY              -36.670960382943 Eh   |
          | GRADIENT NORM               0.000162789009 Eh/α |
          | HOMO-LUMO GAP               4.125962006142 eV   |
           -------------------------------------------------

------------------------------------------------------------------------
 * finished run on 2026/07/08 at 02:42:37.993     
------------------------------------------------------------------------
 total:
 * wall-time:     0 d,  0 h,  0 min,  8.980 sec
 *  cpu-time:     0 d,  0 h,  2 min, 23.094 sec
 * ratio c/w:    15.935 speedup
 SCF:
 * wall-time:     0 d,  0 h,  0 min,  0.291 sec
 *  cpu-time:     0 d,  0 h,  0 min,  4.646 sec
 * ratio c/w:    15.974 speedup
 ANC optimizer:
 * wall-time:     0 d,  0 h,  0 min,  8.632 sec
 *  cpu-time:     0 d,  0 h,  2 min, 17.582 sec
 * ratio c/w:    15.938 speedup

