      -----------------------------------------------------------      
     |                   =====================                   |     
     |                           x T B                           |     
     |                   =====================                   |     
     |                         S. Grimme                         |     
     |          Mulliken Center for Theoretical Chemistry        |     
     |                    University of Bonn                     |     
      -----------------------------------------------------------      

   * xtb version 6.7.1 (edcfbbe) compiled by 'conda@5dfe00f5fb80' on 2026-06-10

   xtb is free software: you can redistribute it and/or modify it under
   the terms of the GNU Lesser General Public License as published by
   the Free Software Foundation, either version 3 of the License, or
   (at your option) any later version.
   
   xtb is distributed in the hope that it will be useful,
   but WITHOUT ANY WARRANTY; without even the implied warranty of
   MERCHANTABILITY or FITNESS FOR A PARTICULAR PURPOSE.  See the
   GNU Lesser General Public License for more details.
   
   Cite this work as:
   * C. Bannwarth, E. Caldeweyher, S. Ehlert, A. Hansen, P. Pracht,
     J. Seibert, S. Spicher, S. Grimme, WIREs Comput. Mol. Sci., 2020, 11,
     e01493. DOI: 10.1002/wcms.1493
   
   for GFN2-xTB:
   * C. Bannwarth, S. Ehlert and S. Grimme., J. Chem. Theory Comput., 2019,
     15, 1652-1671. DOI: 10.1021/acs.jctc.8b01176
   for GFN1-xTB:
   * S. Grimme, C. Bannwarth, P. Shushkov, J. Chem. Theory Comput., 2017,
     13, 1989-2009. DOI: 10.1021/acs.jctc.7b00118
   for GFN0-xTB:
   * P. Pracht, E. Caldeweyher, S. Ehlert, S. Grimme, ChemRxiv, 2019, preprint.
     DOI: 10.26434/chemrxiv.8326202.v1
   for GFN-FF:
   * S. Spicher and S. Grimme, Angew. Chem. Int. Ed., 2020, 59, 15665-15673.
     DOI: 10.1002/anie.202004239
   
   for ALPB and GBSA implicit solvation:
   * S. Ehlert, M. Stahn, S. Spicher, S. Grimme, J. Chem. Theory Comput.,
     2021, 17, 4250-4261. DOI: 10.1021/acs.jctc.1c00471
   
   for ddCOSMO and CPCM-X implicit solvation:
   * M. Stahn, S. Ehlert, S. Grimme, J. Phys. Chem. A,
     2023, XX, XXXX-XXXX. DOI: 10.1021/acs.jpca.3c04382
   
   for DFT-D4:
   * E. Caldeweyher, C. Bannwarth and S. Grimme, J. Chem. Phys., 2017,
     147, 034112. DOI: 10.1063/1.4993215
   * E. Caldeweyher, S. Ehlert, A. Hansen, H. Neugebauer, S. Spicher,
     C. Bannwarth and S. Grimme, J. Chem. Phys., 2019, 150, 154122.
     DOI: 10.1063/1.5090222
   * E. Caldeweyher, J.-M. Mewes, S. Ehlert and S. Grimme, Phys. Chem. Chem. Phys.
     2020, 22, 8499-8512. DOI: 10.1039/D0CP00502A
   
   for sTDA-xTB:
   * S. Grimme and C. Bannwarth, J. Chem. Phys., 2016, 145, 054103.
     DOI: 10.1063/1.4959605
   
   in the mass-spec context:
   * V. Asgeirsson, C. Bauer and S. Grimme, Chem. Sci., 2017, 8, 4879.
     DOI: 10.1039/c7sc00601b
   * J. Koopman and S. Grimme, ACS Omega 2019, 4, 12, 15120-15133.
     DOI: 10.1021/acsomega.9b02011
   
   for metadynamics refer to:
   * S. Grimme, J. Chem. Theory Comput., 2019, 155, 2847-2862
     DOI: 10.1021/acs.jctc.9b00143
   
   for SPH calculations refer to:
   * S. Spicher and S. Grimme, J. Chem. Theory Comput., 2021, 17, 1701-1714
     DOI: 10.1021/acs.jctc.0c01306
   
   for ONIOM refer to:
   * C. Plett, A. Katbashev, S. Ehlert, S. Grimme, M. Bursch,
     Phys. Chem. Chem. Phys., 2023, 25, 17860-17868. DOI: 10.1039/D3CP02178E
   
   for DIPRO refer to:
   * J. Kohn, N. Gildemeister, S. Grimme, D. Fazzi, A. Hansen,
     J. Chem. Phys., 2023, just accepted.
   
   for PTB refer to:
   * S. Grimme, M. Mueller, A. Hansen, J. Chem. Phys., 2023, 158, 124111.
     DOI: 10.1063/5.0137838
   
   with help from (in alphabetical order)
   P. Atkinson, C. Bannwarth, F. Bohle, G. Brandenburg, E. Caldeweyher
   M. Checinski, S. Dohm, S. Ehlert, S. Ehrlich, I. Gerasimov, C. Hölzer
   A. Katbashev, J. Kohn, J. Koopman, C. Lavigne, S. Lehtola, F. März, M. Müller,
   F. Musil, H. Neugebauer, J. Pisarek, C. Plett, P. Pracht, F. Pultar,
   J. Seibert, P. Shushkov, S. Spicher, M. Stahn, M. Steiner, T. Strunk,
   J. Stückrath, T. Rose, and J. Unsleber
   
 * started run on 2026/07/07 at 11:11:53.150     
   ID    Z sym.   atoms
    1    6 C      1-6, 8-12
    2    8 O      7, 13, 14
    3    1 H      15-34

           -------------------------------------------------
          |                Calculation Setup                |
           -------------------------------------------------

          program call               : /home/ws/xd2484/miniforge3/envs/p3z_dft/bin/xtb xtb_input.xyz --gfn 2 --opt tight --cycles 500 --chrg 0 --uhf 0
          hostname                   : gpu10
          coordinate file            : xtb_input.xyz
          omp threads                :                    16


           -------------------------------------------------
          |                 G F N 2 - x T B                 |
           -------------------------------------------------

        Reference                      10.1021/acs.jctc.8b01176
      * Hamiltonian:
        H0-scaling (s, p, d)           1.850000    2.230000    2.230000
        zeta-weighting                 0.500000
      * Dispersion:
        s8                             2.700000
        a1                             0.520000
        a2                             5.000000
        s9                             5.000000
      * Repulsion:
        kExp                           1.500000    1.000000
        rExp                           1.000000
      * Coulomb:
        alpha                          2.000000
        third order                    shell-resolved
        anisotropic                    true
        a3                             3.000000
        a5                             4.000000
        cn-shift                       1.200000
        cn-exp                         4.000000
        max-rad                        5.000000


          ...................................................
          :                      SETUP                      :
          :.................................................:
          :  # basis functions                  76          :
          :  # atomic orbitals                  76          :
          :  # shells                           48          :
          :  # electrons                        82          :
          :  max. iterations                   250          :
          :  Hamiltonian                  GFN2-xTB          :
          :  restarted?                      false          :
          :  GBSA solvation                  false          :
          :  PC potential                    false          :
          :  electronic temp.          300.0000000     K    :
          :  accuracy                    1.0000000          :
          :  -> integral cutoff          0.2500000E+02      :
          :  -> integral neglect         0.1000000E-07      :
          :  -> SCF convergence          0.1000000E-05 Eh   :
          :  -> wf. convergence          0.1000000E-03 e    :
          :  Broyden damping             0.4000000          :
          :  net charge                          0          :
          :  unpaired electrons                  0          :
          ...................................................

 iter      E             dE          RMSdq      gap      omega  full diag
   1    -46.3716803 -0.463717E+02  0.383E+00    4.21       0.0  T
   2    -46.4689411 -0.972608E-01  0.195E+00    3.33       1.0  T
   3    -46.4752026 -0.626147E-02  0.126E+00    3.75       1.0  T
   4    -46.4830368 -0.783422E-02  0.201E-01    3.41       1.0  T
   5    -46.4836907 -0.653915E-03  0.946E-02    3.51       1.0  T
   6    -46.4837608 -0.700883E-04  0.447E-02    3.49       1.0  T
   7    -46.4837716 -0.108477E-04  0.129E-02    3.50       1.3  T
   8    -46.4837723 -0.645546E-06  0.330E-03    3.50       5.2  T
   9    -46.4837723 -0.607067E-07  0.160E-03    3.50      10.7  T
  10    -46.4837723 -0.760944E-08  0.505E-04    3.50      34.0  T
  11    -46.4837723 -0.156761E-08  0.190E-04    3.50      90.1  T

   *** convergence criteria satisfied after 11 iterations ***

         #    Occupation            Energy/Eh            Energy/eV
      -------------------------------------------------------------
         1        2.0000           -0.7480061             -20.3543
       ...           ...                  ...                  ...
        35        2.0000           -0.4451158             -12.1122
        36        2.0000           -0.4392616             -11.9529
        37        2.0000           -0.4324269             -11.7669
        38        2.0000           -0.4287038             -11.6656
        39        2.0000           -0.4273358             -11.6284
        40        2.0000           -0.4248676             -11.5612
        41        2.0000           -0.3952115             -10.7543 (HOMO)
        42                         -0.2667153              -7.2577 (LUMO)
        43                         -0.2432562              -6.6193
        44                          0.0018605               0.0506
        45                          0.0395722               1.0768
        46                          0.0482132               1.3119
       ...                                ...                  ...
        76                          0.5823633              15.8469
      -------------------------------------------------------------
                  HL-Gap            0.1284962 Eh            3.4966 eV
             Fermi-level           -0.3309634 Eh           -9.0060 eV

 SCC (total)                   0 d,  0 h,  0 min,  0.273 sec
 SCC setup                      ...        0 min,  0.006 sec (  2.246%)
 Dispersion                     ...        0 min,  0.014 sec (  4.970%)
 classical contributions        ...        0 min,  0.007 sec (  2.431%)
 integral evaluation            ...        0 min,  0.021 sec (  7.852%)
 iterations                     ...        0 min,  0.188 sec ( 69.030%)
 molecular gradient             ...        0 min,  0.036 sec ( 13.378%)
 printout                       ...        0 min,  0.000 sec (  0.081%)

         :::::::::::::::::::::::::::::::::::::::::::::::::::::
         ::                     SUMMARY                     ::
         :::::::::::::::::::::::::::::::::::::::::::::::::::::
         :: total energy             -45.956554437709 Eh    ::
         :: gradient norm              0.072060629735 Eh/a0 ::
         :: HOMO-LUMO gap              3.496560787562 eV    ::
         ::.................................................::
         :: SCC energy               -46.483494001485 Eh    ::
         :: -> isotropic ES            0.075916569950 Eh    ::
         :: -> anisotropic ES          0.006488938851 Eh    ::
         :: -> anisotropic XC          0.016114958632 Eh    ::
         :: -> dispersion             -0.028173228956 Eh    ::
         :: repulsion energy           0.526939563775 Eh    ::
         :: add. restraining           0.000000000000 Eh    ::
         :: total charge              -0.000000000000 e     ::
         :::::::::::::::::::::::::::::::::::::::::::::::::::::

      ----------------------------------------------------------- 
     |                   =====================                   |
     |                        A N C O P T                        |
     |                   =====================                   |
     |               Approximate Normal Coordinate               |
     |                Rational Function Optimizer                |
      ----------------------------------------------------------- 
      ----------------------------------------------------------- 
     |                   =====================                   |
     |                        A N C O P T                        |
     |                   =====================                   |
     |               Approximate Normal Coordinate               |
     |                Rational Function Optimizer                |
      ----------------------------------------------------------- 

          ...................................................
          :                      SETUP                      :
          :.................................................:
          :   optimization level             tight          :
          :   max. optcycles                   500          :
          :   ANC micro-cycles                  20          :
          :   degrees of freedom                96          :
          :.................................................:
          :   RF solver                   davidson          :
          :   write xtbopt.log                true          :
          :   linear?                        false          :
          :   energy convergence         0.1000000E-05 Eh   :
          :   grad. convergence          0.8000000E-03 Eh/α :
          :   maxmium RF displ.          1.0000000          :
          :   Hlow (freq-cutoff)         0.1000000E-01      :
          :   Hmax (freq-cutoff)         5.0000000          :
          :   S6 in model hess.         20.0000000          :
          ...................................................

generating ANC from exact Hessian ...
Using Lindh-Hessian (1995)
 Shifting diagonal of input Hessian by    9.4754149122909179E-003
 Lowest  eigenvalues of input Hessian
    0.000000    0.000000    0.000000    0.000000    0.000000    0.000000
    0.010000    0.010325    0.010609    0.011385    0.011737    0.012323
    0.013578    0.014503    0.015062    0.015379    0.017072    0.018087
 Highest eigenvalues
    1.265932    1.274449    1.293131    1.716165    2.053111    2.276250


........................................................................
.............................. CYCLE    1 ..............................
........................................................................

 iter      E             dE          RMSdq      gap      omega  full diag
   1    -46.4837723 -0.464838E+02  0.701E-05    3.50       0.0  T
   2    -46.4837723 -0.325784E-10  0.408E-05    3.50     420.7  T
   3    -46.4837723 -0.512301E-11  0.247E-05    3.50     693.4  T
     SCC iter.                  ...        0 min,  0.033 sec
     gradient                   ...        0 min,  0.031 sec
 * total energy  :   -45.9565544 Eh     change       -0.1564331E-09 Eh
   gradient norm :     0.0720618 Eh/α   predicted     0.0000000E+00 (-100.00%)
   displ. norm   :     0.2404504 α      lambda       -0.6833889E-02
   maximum displ.:     0.1260186 α      in ANC's #26, #35, #15, ...

........................................................................
.............................. CYCLE    2 ..............................
........................................................................

 iter      E             dE          RMSdq      gap      omega  full diag
   1    -46.5126945 -0.465127E+02  0.159E-01    3.68       0.0  T
   2    -46.5127922 -0.977213E-04  0.902E-02    3.64       1.0  T
   3    -46.5127898  0.242689E-05  0.390E-02    3.66       1.0  T
   4    -46.5128016 -0.117869E-04  0.707E-03    3.64       2.4  T
   5    -46.5128022 -0.609149E-06  0.293E-03    3.65       5.9  T
   6    -46.5128022 -0.685589E-07  0.121E-03    3.65      14.2  T
   7    -46.5128022 -0.891183E-08  0.595E-04    3.65      28.8  T
   8    -46.5128022 -0.113547E-08  0.156E-04    3.65     109.7  T
     SCC iter.                  ...        0 min,  0.143 sec
     gradient                   ...        0 min,  0.036 sec
 * total energy  :   -45.9607692 Eh     change       -0.4214742E-02 Eh
   gradient norm :     0.0187584 Eh/α   predicted    -0.3616498E-02 ( -14.19%)
   displ. norm   :     0.2208835 α      lambda       -0.1785902E-02
   maximum displ.:     0.0703923 α      in ANC's #5, #6, #13, ...

........................................................................
.............................. CYCLE    3 ..............................
........................................................................

 iter      E             dE          RMSdq      gap      omega  full diag
   1    -46.5256084 -0.465256E+02  0.135E-01    3.71       0.0  T
   2    -46.5256343 -0.259668E-04  0.793E-02    3.70       1.0  T
   3    -46.5256315  0.282953E-05  0.213E-02    3.71       1.0  T
   4    -46.5256368 -0.530412E-05  0.376E-03    3.70       4.6  T
   5    -46.5256370 -0.177532E-06  0.184E-03    3.70       9.3  T
   6    -46.5256370 -0.120977E-07  0.778E-04    3.70      22.0  T
   7    -46.5256370 -0.357684E-08  0.287E-04    3.70      59.7  T
     SCC iter.                  ...        0 min,  0.088 sec
     gradient                   ...        0 min,  0.044 sec
 * total energy  :   -45.9613030 Eh     change       -0.5338083E-03 Eh
   gradient norm :     0.0158878 Eh/α   predicted    -0.9365204E-03 (  75.44%)
   displ. norm   :     0.1294913 α      lambda       -0.8712200E-03
   maximum displ.:     0.0512591 α      in ANC's #2, #10, #5, ...

........................................................................
.............................. CYCLE    4 ..............................
........................................................................

 iter      E             dE          RMSdq      gap      omega  full diag
   1    -46.5261905 -0.465262E+02  0.863E-02    3.71       0.0  T
   2    -46.5261930 -0.245332E-05  0.522E-02    3.71       1.0  T
   3    -46.5261918  0.121518E-05  0.908E-03    3.71       1.9  T
   4    -46.5261938 -0.200332E-05  0.234E-03    3.71       7.3  T
   5    -46.5261938 -0.199303E-07  0.121E-03    3.71      14.1  T
   6    -46.5261938 -0.394175E-08  0.261E-04    3.71      65.7  T
   7    -46.5261938 -0.291855E-09  0.747E-05    3.71     229.5  T
     SCC iter.                  ...        0 min,  0.109 sec
     gradient                   ...        0 min,  0.048 sec
 * total energy  :   -45.9617487 Eh     change       -0.4456878E-03 Eh
   gradient norm :     0.0087215 Eh/α   predicted    -0.4429152E-03 (  -0.62%)
   displ. norm   :     0.0829779 α      lambda       -0.1673460E-03
   maximum displ.:     0.0493587 α      in ANC's #2, #5, #1, ...

........................................................................
.............................. CYCLE    5 ..............................
........................................................................

 iter      E             dE          RMSdq      gap      omega  full diag
   1    -46.5234428 -0.465234E+02  0.290E-02    3.69       0.0  T
   2    -46.5234442 -0.132378E-05  0.166E-02    3.69       1.0  T
   3    -46.5234441  0.306289E-07  0.426E-03    3.69       4.0  T
   4    -46.5234443 -0.161321E-06  0.110E-03    3.69      15.6  T
   5    -46.5234443 -0.152756E-07  0.360E-04    3.69      47.6  T
   6    -46.5234443 -0.763883E-09  0.178E-04    3.69      96.6  T
     SCC iter.                  ...        0 min,  0.092 sec
     gradient                   ...        0 min,  0.044 sec
 * total energy  :   -45.9618670 Eh     change       -0.1183112E-03 Eh
   gradient norm :     0.0027551 Eh/α   predicted    -0.8425911E-04 ( -28.78%)
   displ. norm   :     0.1431318 α      lambda       -0.1259653E-03
   maximum displ.:     0.0885575 α      in ANC's #2, #5, #6, ...

........................................................................
.............................. CYCLE    6 ..............................
........................................................................

 iter      E             dE          RMSdq      gap      omega  full diag
   1    -46.5221299 -0.465221E+02  0.417E-02    3.68       0.0  T
   2    -46.5221312 -0.126433E-05  0.245E-02    3.68       1.0  T
   3    -46.5221307  0.451700E-06  0.604E-03    3.69       2.8  T
   4    -46.5221314 -0.706562E-06  0.115E-03    3.68      14.9  T
   5    -46.5221314 -0.102895E-07  0.496E-04    3.68      34.6  T
   6    -46.5221314 -0.171249E-08  0.205E-04    3.68      83.5  T
     SCC iter.                  ...        0 min,  0.097 sec
     gradient                   ...        0 min,  0.034 sec
 * total energy  :   -45.9619546 Eh     change       -0.8762029E-04 Eh
   gradient norm :     0.0035432 Eh/α   predicted    -0.6429267E-04 ( -26.62%)
   displ. norm   :     0.1432452 α      lambda       -0.7981039E-04
   maximum displ.:     0.0895353 α      in ANC's #2, #1, #5, ...

........................................................................
.............................. CYCLE    7 ..............................
........................................................................

 iter      E             dE          RMSdq      gap      omega  full diag
   1    -46.5220043 -0.465220E+02  0.409E-02    3.69       0.0  T
   2    -46.5220051 -0.805698E-06  0.242E-02    3.68       1.0  T
   3    -46.5220046  0.450400E-06  0.536E-03    3.69       3.2  T
   4    -46.5220053 -0.654326E-06  0.872E-04    3.69      19.7  T
   5    -46.5220053 -0.310135E-08  0.473E-04    3.69      36.3  T
     SCC iter.                  ...        0 min,  0.062 sec
     gradient                   ...        0 min,  0.034 sec
 * total energy  :   -45.9620183 Eh     change       -0.6370337E-04 Eh
   gradient norm :     0.0037079 Eh/α   predicted    -0.4072616E-04 ( -36.07%)
   displ. norm   :     0.2073279 α      lambda       -0.1065224E-03
   maximum displ.:     0.1255790 α      in ANC's #2, #1, #5, ...

........................................................................
.............................. CYCLE    8 ..............................
........................................................................

 iter      E             dE          RMSdq      gap      omega  full diag
   1    -46.5221904 -0.465222E+02  0.585E-02    3.69       0.0  T
   2    -46.5221913 -0.921685E-06  0.345E-02    3.69       1.0  T
   3    -46.5221908  0.478871E-06  0.548E-03    3.69       3.1  T
   4    -46.5221916 -0.737954E-06  0.112E-03    3.69      15.3  T
   5    -46.5221916 -0.445235E-08  0.663E-04    3.69      25.9  T
   6    -46.5221916 -0.177504E-08  0.171E-04    3.69     100.5  T
     SCC iter.                  ...        0 min,  0.077 sec
     gradient                   ...        0 min,  0.040 sec
 * total energy  :   -45.9621058 Eh     change       -0.8752633E-04 Eh
   gradient norm :     0.0034283 Eh/α   predicted    -0.5555095E-04 ( -36.53%)
   displ. norm   :     0.2975306 α      lambda       -0.1403858E-03
   maximum displ.:     0.1793368 α      in ANC's #2, #1, #5, ...

........................................................................
.............................. CYCLE    9 ..............................
........................................................................

 iter      E             dE          RMSdq      gap      omega  full diag
   1    -46.5224432 -0.465224E+02  0.859E-02    3.69       0.0  T
   2    -46.5224444 -0.120502E-05  0.507E-02    3.68       1.0  T
   3    -46.5224441  0.248038E-06  0.544E-03    3.69       3.2  T
   4    -46.5224448 -0.677419E-06  0.175E-03    3.68       9.8  T
   5    -46.5224448 -0.772999E-08  0.965E-04    3.69      17.8  T
   6    -46.5224448 -0.402257E-08  0.162E-04    3.69     106.0  T
     SCC iter.                  ...        0 min,  0.083 sec
     gradient                   ...        0 min,  0.036 sec
 * total energy  :   -45.9622138 Eh     change       -0.1079522E-03 Eh
   gradient norm :     0.0025798 Eh/α   predicted    -0.7640918E-04 ( -29.22%)
   displ. norm   :     0.2903351 α      lambda       -0.1146658E-03
   maximum displ.:     0.1767967 α      in ANC's #2, #1, #5, ...

........................................................................
.............................. CYCLE   10 ..............................
........................................................................

 iter      E             dE          RMSdq      gap      omega  full diag
   1    -46.5227065 -0.465227E+02  0.827E-02    3.68       0.0  T
   2    -46.5227075 -0.949133E-06  0.487E-02    3.68       1.0  T
   3    -46.5227076 -0.146586E-06  0.388E-03    3.68       4.4  T
   4    -46.5227079 -0.256341E-06  0.184E-03    3.68       9.3  T
   5    -46.5227079 -0.658537E-08  0.878E-04    3.68      19.5  T
   6    -46.5227079 -0.496824E-08  0.128E-04    3.68     133.5  T
     SCC iter.                  ...        0 min,  0.079 sec
     gradient                   ...        0 min,  0.032 sec
 * total energy  :   -45.9622948 Eh     change       -0.8100659E-04 Eh
   gradient norm :     0.0030358 Eh/α   predicted    -0.6216941E-04 ( -23.25%)
   displ. norm   :     0.1858946 α      lambda       -0.7489020E-04
   maximum displ.:     0.1156661 α      in ANC's #2, #1, #5, ...

........................................................................
.............................. CYCLE   11 ..............................
........................................................................

 iter      E             dE          RMSdq      gap      omega  full diag
   1    -46.5236732 -0.465237E+02  0.514E-02    3.68       0.0  T
   2    -46.5236739 -0.753199E-06  0.301E-02    3.68       1.0  T
   3    -46.5236740 -0.617806E-07  0.292E-03    3.68       5.9  T
   4    -46.5236741 -0.138393E-06  0.131E-03    3.68      13.0  T
   5    -46.5236741 -0.731437E-08  0.700E-04    3.68      24.5  T
   6    -46.5236741 -0.100619E-08  0.132E-04    3.68     129.9  T
     SCC iter.                  ...        0 min,  0.077 sec
     gradient                   ...        0 min,  0.028 sec
 * total energy  :   -45.9623483 Eh     change       -0.5348962E-04 Eh
   gradient norm :     0.0034890 Eh/α   predicted    -0.3874213E-04 ( -27.57%)
   displ. norm   :     0.1656562 α      lambda       -0.5649726E-04
   maximum displ.:     0.1028882 α      in ANC's #2, #1, #5, ...

........................................................................
.............................. CYCLE   12 ..............................
........................................................................

 iter      E             dE          RMSdq      gap      omega  full diag
   1    -46.5239280 -0.465239E+02  0.444E-02    3.67       0.0  T
   2    -46.5239287 -0.695142E-06  0.259E-02    3.68       1.0  T
   3    -46.5239287 -0.241502E-07  0.287E-03    3.67       6.0  T
   4    -46.5239289 -0.131015E-06  0.121E-03    3.68      14.2  T
   5    -46.5239289 -0.970735E-08  0.666E-04    3.68      25.8  T
   6    -46.5239289 -0.675122E-09  0.147E-04    3.68     116.6  T
     SCC iter.                  ...        0 min,  0.068 sec
     gradient                   ...        0 min,  0.023 sec
 * total energy  :   -45.9623919 Eh     change       -0.4365204E-04 Eh
   gradient norm :     0.0034998 Eh/α   predicted    -0.2902563E-04 ( -33.51%)
   displ. norm   :     0.2152891 α      lambda       -0.7246787E-04
   maximum displ.:     0.1314314 α      in ANC's #2, #1, #5, ...

........................................................................
.............................. CYCLE   13 ..............................
........................................................................

 iter      E             dE          RMSdq      gap      omega  full diag
   1    -46.5239108 -0.465239E+02  0.605E-02    3.67       0.0  T
   2    -46.5239124 -0.160612E-05  0.353E-02    3.67       1.0  T
   3    -46.5239124  0.591708E-07  0.440E-03    3.67       3.9  T
   4    -46.5239127 -0.322386E-06  0.166E-03    3.67      10.3  T
   5    -46.5239127 -0.266834E-07  0.883E-04    3.67      19.4  T
   6    -46.5239127 -0.740052E-09  0.202E-04    3.67      84.9  T
     SCC iter.                  ...        0 min,  0.128 sec
     gradient                   ...        0 min,  0.037 sec
 * total energy  :   -45.9624474 Eh     change       -0.5542408E-04 Eh
   gradient norm :     0.0033448 Eh/α   predicted    -0.3791455E-04 ( -31.59%)
   displ. norm   :     0.2654490 α      lambda       -0.7906463E-04
   maximum displ.:     0.1638631 α      in ANC's #2, #1, #8, ...

........................................................................
.............................. CYCLE   14 ..............................
........................................................................

 iter      E             dE          RMSdq      gap      omega  full diag
   1    -46.5232787 -0.465233E+02  0.744E-02    3.66       0.0  T
   2    -46.5232797 -0.997482E-06  0.436E-02    3.66       1.0  T
   3    -46.5232799 -0.120812E-06  0.361E-03    3.66       4.8  T
   4    -46.5232801 -0.203198E-06  0.171E-03    3.66      10.0  T
   5    -46.5232801 -0.142851E-07  0.882E-04    3.66      19.4  T
   6    -46.5232801 -0.173399E-08  0.166E-04    3.66     103.3  T
     SCC iter.                  ...        0 min,  0.076 sec
     gradient                   ...        0 min,  0.030 sec
 * total energy  :   -45.9625050 Eh     change       -0.5761392E-04 Eh
   gradient norm :     0.0029164 Eh/α   predicted    -0.4231953E-04 ( -26.55%)
   displ. norm   :     0.1854625 α      lambda       -0.6313882E-04
   maximum displ.:     0.1003618 α      in ANC's #2, #8, #3, ...

........................................................................
.............................. CYCLE   15 ..............................
........................................................................

 iter      E             dE          RMSdq      gap      omega  full diag
   1    -46.5238117 -0.465238E+02  0.655E-02    3.65       0.0  T
   2    -46.5238150 -0.328720E-05  0.385E-02    3.65       1.0  T
   3    -46.5238143  0.738111E-06  0.807E-03    3.65       2.1  T
   4    -46.5238155 -0.119636E-05  0.142E-03    3.65      12.1  T
   5    -46.5238155 -0.193338E-07  0.753E-04    3.65      22.8  T
   6    -46.5238155 -0.791118E-09  0.324E-04    3.65      53.0  T
     SCC iter.                  ...        0 min,  0.067 sec
     gradient                   ...        0 min,  0.029 sec
 * total energy  :   -45.9625378 Eh     change       -0.3284202E-04 Eh
   gradient norm :     0.0025203 Eh/α   predicted    -0.3265867E-04 (  -0.56%)
   displ. norm   :     0.3659539 α      lambda       -0.7535070E-04
   maximum displ.:     0.2463741 α      in ANC's #2, #1, #5, ...

........................................................................
.............................. CYCLE   16 ..............................
........................................................................

 iter      E             dE          RMSdq      gap      omega  full diag
   1    -46.5209633 -0.465210E+02  0.104E-01    3.63       0.0  T
   2    -46.5209693 -0.603017E-05  0.614E-02    3.63       1.0  T
   3    -46.5209669  0.241040E-05  0.129E-02    3.63       1.3  T
   4    -46.5209709 -0.395396E-05  0.244E-03    3.63       7.0  T
   5    -46.5209709 -0.767713E-08  0.130E-03    3.63      13.2  T
   6    -46.5209709 -0.287251E-08  0.179E-04    3.63      95.6  T
   7    -46.5209709 -0.413323E-09  0.900E-05    3.63     190.6  T
     SCC iter.                  ...        0 min,  0.083 sec
     gradient                   ...        0 min,  0.031 sec
 * total energy  :   -45.9625180 Eh     change        0.1982150E-04 Eh
   gradient norm :     0.0068562 Eh/α   predicted    -0.4272143E-04 (-315.53%)
   displ. norm   :     0.1831841 α      lambda       -0.1109118E-03
   maximum displ.:     0.1082765 α      in ANC's #2, #1, #15, ...

........................................................................
.............................. CYCLE   17 ..............................
........................................................................

 iter      E             dE          RMSdq      gap      omega  full diag
   1    -46.5233857 -0.465234E+02  0.573E-02    3.65       0.0  T
   2    -46.5233887 -0.305330E-05  0.339E-02    3.64       1.0  T
   3    -46.5233877  0.102802E-05  0.940E-03    3.65       1.8  T
   4    -46.5233895 -0.175945E-05  0.143E-03    3.64      12.0  T
   5    -46.5233895 -0.192823E-08  0.767E-04    3.64      22.4  T
   6    -46.5233895 -0.934783E-09  0.193E-04    3.64      88.8  T
     SCC iter.                  ...        0 min,  0.078 sec
     gradient                   ...        0 min,  0.033 sec
 * total energy  :   -45.9625694 Eh     change       -0.5138750E-04 Eh
   gradient norm :     0.0012130 Eh/α   predicted    -0.5731744E-04 (  11.54%)
   displ. norm   :     0.0402640 α      lambda       -0.8124211E-05
   maximum displ.:     0.0301928 α      in ANC's #2, #3, #18, ...

........................................................................
.............................. CYCLE   18 ..............................
........................................................................

 iter      E             dE          RMSdq      gap      omega  full diag
   1    -46.5236698 -0.465237E+02  0.102E-02    3.64       0.0  T
   2    -46.5236701 -0.276593E-06  0.586E-03    3.64       2.9  T
   3    -46.5236701  0.171099E-08  0.173E-03    3.64       9.9  T
   4    -46.5236701 -0.986203E-08  0.413E-04    3.64      41.6  T
   5    -46.5236701 -0.326978E-08  0.149E-04    3.64     115.4  T
     SCC iter.                  ...        0 min,  0.058 sec
     gradient                   ...        0 min,  0.035 sec
 * total energy  :   -45.9625781 Eh     change       -0.8704067E-05 Eh
   gradient norm :     0.0008602 Eh/α   predicted    -0.4067954E-05 ( -53.26%)
   displ. norm   :     0.0914762 α      lambda       -0.1265417E-04
   maximum displ.:     0.0726549 α      in ANC's #2, #3, #18, ...

........................................................................
.............................. CYCLE   19 ..............................
........................................................................

 iter      E             dE          RMSdq      gap      omega  full diag
   1    -46.5239819 -0.465240E+02  0.174E-02    3.64       0.0  T
   2    -46.5239821 -0.248391E-06  0.104E-02    3.64       1.7  T
   3    -46.5239821  0.476981E-07  0.200E-03    3.64       8.6  T
   4    -46.5239821 -0.756813E-07  0.507E-04    3.64      33.8  T
   5    -46.5239821 -0.369647E-08  0.220E-04    3.64      77.9  T
     SCC iter.                  ...        0 min,  0.075 sec
     gradient                   ...        0 min,  0.042 sec
 * total energy  :   -45.9625911 Eh     change       -0.1301988E-04 Eh
   gradient norm :     0.0014192 Eh/α   predicted    -0.6353127E-05 ( -51.20%)
   displ. norm   :     0.0724419 α      lambda       -0.8837852E-05
   maximum displ.:     0.0551504 α      in ANC's #2, #3, #1, ...

........................................................................
.............................. CYCLE   20 ..............................
........................................................................

 iter      E             dE          RMSdq      gap      omega  full diag
   1    -46.5237476 -0.465237E+02  0.135E-02    3.64       0.0  T
   2    -46.5237477 -0.851636E-07  0.794E-03    3.64       2.2  T
   3    -46.5237477  0.652533E-08  0.108E-03    3.64      15.9  T
   4    -46.5237477 -0.174131E-07  0.365E-04    3.64      46.9  T
   5    -46.5237477 -0.160868E-08  0.173E-04    3.64      99.3  T
     SCC iter.                  ...        0 min,  0.057 sec
     gradient                   ...        0 min,  0.030 sec
 * total energy  :   -45.9626026 Eh     change       -0.1148386E-04 Eh
   gradient norm :     0.0008907 Eh/α   predicted    -0.4431066E-05 ( -61.41%)
   displ. norm   :     0.1316998 α      lambda       -0.1484609E-04
   maximum displ.:     0.0897596 α      in ANC's #2, #3, #1, ...
 * RMSD in coord.:     0.4296792 α      energy gain  -0.6048154E-02 Eh

generating ANC from exact Hessian ...
Using Lindh-Hessian (1995)
 Shifting diagonal of input Hessian by    9.4606468101778845E-003
 Lowest  eigenvalues of input Hessian
    0.000000    0.000000    0.000000    0.000000    0.000000    0.000000
    0.010000    0.010423    0.010606    0.011495    0.011914    0.012417
    0.013880    0.014885    0.015500    0.015961    0.017710    0.018791
 Highest eigenvalues
    1.281431    1.296108    1.344331    1.787891    2.200209    2.373324


........................................................................
.............................. CYCLE   21 ..............................
........................................................................

 iter      E             dE          RMSdq      gap      omega  full diag
   1    -46.5235331 -0.465235E+02  0.289E-02    3.65       0.0  T
   2    -46.5235332 -0.135938E-06  0.171E-02    3.65       1.0  T
   3    -46.5235332  0.366626E-07  0.200E-03    3.65       8.6  T
   4    -46.5235333 -0.932182E-07  0.622E-04    3.65      27.6  T
   5    -46.5235333 -0.632497E-09  0.272E-04    3.65      63.0  T
     SCC iter.                  ...        0 min,  0.061 sec
     gradient                   ...        0 min,  0.034 sec
 * total energy  :   -45.9626214 Eh     change       -0.1876234E-04 Eh
   gradient norm :     0.0008677 Eh/α   predicted     0.0000000E+00 (-100.00%)
   displ. norm   :     0.0263348 α      lambda       -0.4579190E-05
   maximum displ.:     0.0149086 α      in ANC's #2, #1, #4, ...

........................................................................
.............................. CYCLE   22 ..............................
........................................................................

 iter      E             dE          RMSdq      gap      omega  full diag
   1    -46.5236316 -0.465236E+02  0.451E-03    3.65       0.0  T
   2    -46.5236317 -0.388129E-07  0.273E-03    3.65       6.3  T
   3    -46.5236317  0.503289E-08  0.848E-04    3.65      20.2  T
   4    -46.5236317 -0.942484E-08  0.174E-04    3.65      98.5  T
     SCC iter.                  ...        0 min,  0.050 sec
     gradient                   ...        0 min,  0.038 sec
 * total energy  :   -45.9626273 Eh     change       -0.5929045E-05 Eh
   gradient norm :     0.0003171 Eh/α   predicted    -0.2374800E-05 ( -59.95%)
   displ. norm   :     0.0791851 α      lambda       -0.1012077E-04
   maximum displ.:     0.0434431 α      in ANC's #2, #1, #4, ...

........................................................................
.............................. CYCLE   23 ..............................
........................................................................

 iter      E             dE          RMSdq      gap      omega  full diag
   1    -46.5235924 -0.465236E+02  0.127E-02    3.65       0.0  T
   2    -46.5235925 -0.629059E-07  0.760E-03    3.65       2.3  T
   3    -46.5235925  0.232380E-07  0.134E-03    3.65      12.8  T
   4    -46.5235925 -0.420836E-07  0.359E-04    3.65      47.7  T
   5    -46.5235925 -0.526299E-09  0.181E-04    3.65      94.8  T
     SCC iter.                  ...        0 min,  0.122 sec
     gradient                   ...        0 min,  0.037 sec
 * total energy  :   -45.9626379 Eh     change       -0.1062920E-04 Eh
   gradient norm :     0.0008811 Eh/α   predicted    -0.5074854E-05 ( -52.26%)
   displ. norm   :     0.0838773 α      lambda       -0.7282705E-05
   maximum displ.:     0.0474098 α      in ANC's #2, #1, #4, ...

........................................................................
.............................. CYCLE   24 ..............................
........................................................................

 iter      E             dE          RMSdq      gap      omega  full diag
   1    -46.5235415 -0.465235E+02  0.145E-02    3.65       0.0  T
   2    -46.5235416 -0.551381E-07  0.870E-03    3.65       2.0  T
   3    -46.5235415  0.217292E-07  0.135E-03    3.65      12.7  T
   4    -46.5235416 -0.440093E-07  0.395E-04    3.65      43.4  T
   5    -46.5235416 -0.313030E-09  0.173E-04    3.65      99.3  T
     SCC iter.                  ...        0 min,  0.063 sec
     gradient                   ...        0 min,  0.031 sec
 * total energy  :   -45.9626450 Eh     change       -0.7075116E-05 Eh
   gradient norm :     0.0009224 Eh/α   predicted    -0.3654010E-05 ( -48.35%)
   displ. norm   :     0.0919546 α      lambda       -0.7872141E-05
   maximum displ.:     0.0523297 α      in ANC's #2, #1, #3, ...

........................................................................
.............................. CYCLE   25 ..............................
........................................................................

 iter      E             dE          RMSdq      gap      omega  full diag
   1    -46.5235840 -0.465236E+02  0.169E-02    3.65       0.0  T
   2    -46.5235840 -0.403955E-07  0.101E-02    3.65       1.7  T
   3    -46.5235840 -0.177372E-07  0.739E-04    3.65      23.2  T
   4    -46.5235841 -0.494255E-08  0.436E-04    3.65      39.3  T
     SCC iter.                  ...        0 min,  0.058 sec
     gradient                   ...        0 min,  0.037 sec
 * total energy  :   -45.9626536 Eh     change       -0.8637630E-05 Eh
   gradient norm :     0.0007381 Eh/α   predicted    -0.3951202E-05 ( -54.26%)
   displ. norm   :     0.1582060 α      lambda       -0.1378720E-04
   maximum displ.:     0.0904576 α      in ANC's #2, #1, #3, ...

........................................................................
.............................. CYCLE   26 ..............................
........................................................................

 iter      E             dE          RMSdq      gap      omega  full diag
   1    -46.5235549 -0.465236E+02  0.299E-02    3.65       0.0  T
   2    -46.5235550 -0.149582E-06  0.178E-02    3.65       1.0  T
   3    -46.5235550 -0.307390E-07  0.150E-03    3.65      11.4  T
   4    -46.5235551 -0.349584E-07  0.739E-04    3.65      23.2  T
   5    -46.5235551 -0.932459E-09  0.298E-04    3.65      57.6  T
     SCC iter.                  ...        0 min,  0.077 sec
     gradient                   ...        0 min,  0.043 sec
 * total energy  :   -45.9626687 Eh     change       -0.1510949E-04 Eh
   gradient norm :     0.0009997 Eh/α   predicted    -0.6971850E-05 ( -53.86%)
   displ. norm   :     0.2739118 α      lambda       -0.2202789E-04
   maximum displ.:     0.1551241 α      in ANC's #2, #1, #3, ...

........................................................................
.............................. CYCLE   27 ..............................
........................................................................

 iter      E             dE          RMSdq      gap      omega  full diag
   1    -46.5229088 -0.465229E+02  0.538E-02    3.65       0.0  T
   2    -46.5229094 -0.591918E-06  0.320E-02    3.65       1.0  T
   3    -46.5229093  0.757828E-07  0.382E-03    3.65       4.5  T
   4    -46.5229097 -0.325531E-06  0.133E-03    3.65      12.9  T
   5    -46.5229097 -0.265207E-08  0.430E-04    3.65      39.9  T
   6    -46.5229097 -0.113944E-08  0.162E-04    3.65     106.0  T
     SCC iter.                  ...        0 min,  0.090 sec
     gradient                   ...        0 min,  0.036 sec
 * total energy  :   -45.9626921 Eh     change       -0.2332255E-04 Eh
   gradient norm :     0.0022755 Eh/α   predicted    -0.1138180E-04 ( -51.20%)
   displ. norm   :     0.1690135 α      lambda       -0.1953270E-04
   maximum displ.:     0.0952942 α      in ANC's #2, #1, #3, ...

........................................................................
.............................. CYCLE   28 ..............................
........................................................................

 iter      E             dE          RMSdq      gap      omega  full diag
   1    -46.5229390 -0.465229E+02  0.352E-02    3.65       0.0  T
   2    -46.5229392 -0.188614E-06  0.209E-02    3.65       1.0  T
   3    -46.5229392 -0.347092E-07  0.172E-03    3.65      10.0  T
   4    -46.5229393 -0.485087E-07  0.822E-04    3.65      20.9  T
   5    -46.5229393 -0.132895E-08  0.352E-04    3.65      48.7  T
     SCC iter.                  ...        0 min,  0.075 sec
     gradient                   ...        0 min,  0.051 sec
 * total energy  :   -45.9627076 Eh     change       -0.1553342E-04 Eh
   gradient norm :     0.0022744 Eh/α   predicted    -0.1005416E-04 ( -35.27%)
   displ. norm   :     0.2203362 α      lambda       -0.2523130E-04
   maximum displ.:     0.1232444 α      in ANC's #2, #1, #3, ...

........................................................................
.............................. CYCLE   29 ..............................
........................................................................

 iter      E             dE          RMSdq      gap      omega  full diag
   1    -46.5231966 -0.465232E+02  0.491E-02    3.65       0.0  T
   2    -46.5231969 -0.320228E-06  0.291E-02    3.65       1.0  T
   3    -46.5231970 -0.862174E-07  0.204E-03    3.65       8.4  T
   4    -46.5231971 -0.569293E-07  0.109E-03    3.65      15.7  T
   5    -46.5231971 -0.262268E-08  0.477E-04    3.65      36.0  T
   6    -46.5231971 -0.185579E-08  0.119E-04    3.65     144.6  T
     SCC iter.                  ...        0 min,  0.093 sec
     gradient                   ...        0 min,  0.043 sec
 * total energy  :   -45.9627250 Eh     change       -0.1743147E-04 Eh
   gradient norm :     0.0017272 Eh/α   predicted    -0.1323264E-04 ( -24.09%)
   displ. norm   :     0.1857678 α      lambda       -0.1231865E-04
   maximum displ.:     0.1027009 α      in ANC's #2, #1, #5, ...

........................................................................
.............................. CYCLE   30 ..............................
........................................................................

 iter      E             dE          RMSdq      gap      omega  full diag
   1    -46.5236481 -0.465236E+02  0.452E-02    3.65       0.0  T
   2    -46.5236484 -0.315774E-06  0.267E-02    3.65       1.0  T
   3    -46.5236485 -0.447250E-07  0.210E-03    3.65       8.2  T
   4    -46.5236485 -0.766465E-07  0.989E-04    3.65      17.3  T
   5    -46.5236485 -0.179798E-08  0.427E-04    3.65      40.2  T
     SCC iter.                  ...        0 min,  0.078 sec
     gradient                   ...        0 min,  0.053 sec
 * total energy  :   -45.9627366 Eh     change       -0.1159146E-04 Eh
   gradient norm :     0.0011204 Eh/α   predicted    -0.6257300E-05 ( -46.02%)
   displ. norm   :     0.1233256 α      lambda       -0.7518147E-05
   maximum displ.:     0.0684081 α      in ANC's #2, #1, #5, ...

........................................................................
.............................. CYCLE   31 ..............................
........................................................................

 iter      E             dE          RMSdq      gap      omega  full diag
   1    -46.5234525 -0.465235E+02  0.307E-02    3.65       0.0  T
   2    -46.5234527 -0.143957E-06  0.181E-02    3.65       1.0  T
   3    -46.5234527 -0.573815E-07  0.110E-03    3.65      15.6  T
   4    -46.5234527 -0.455189E-08  0.640E-04    3.65      26.8  T
   5    -46.5234527 -0.768829E-09  0.179E-04    3.65      95.9  T
     SCC iter.                  ...        0 min,  0.066 sec
     gradient                   ...        0 min,  0.033 sec
 * total energy  :   -45.9627458 Eh     change       -0.9231001E-05 Eh
   gradient norm :     0.0010108 Eh/α   predicted    -0.3784824E-05 ( -59.00%)
   displ. norm   :     0.2098153 α      lambda       -0.2066601E-04
   maximum displ.:     0.1028322 α      in ANC's #5, #2, #1, ...

........................................................................
.............................. CYCLE   32 ..............................
........................................................................

 iter      E             dE          RMSdq      gap      omega  full diag
   1    -46.5250058 -0.465250E+02  0.590E-02    3.64       0.0  T
   2    -46.5250072 -0.141669E-05  0.345E-02    3.64       1.0  T
   3    -46.5250071  0.146163E-06  0.498E-03    3.64       3.4  T
   4    -46.5250076 -0.476049E-06  0.150E-03    3.64      11.4  T
   5    -46.5250076 -0.862757E-08  0.768E-04    3.64      22.3  T
   6    -46.5250076 -0.101390E-08  0.179E-04    3.64      95.8  T
     SCC iter.                  ...        0 min,  0.085 sec
     gradient                   ...        0 min,  0.030 sec
 * total energy  :   -45.9627563 Eh     change       -0.1042218E-04 Eh
   gradient norm :     0.0022644 Eh/α   predicted    -0.1053595E-04 (   1.09%)
   displ. norm   :     0.2180132 α      lambda       -0.1838577E-04
   maximum displ.:     0.1245030 α      in ANC's #2, #1, #5, ...

........................................................................
.............................. CYCLE   33 ..............................
........................................................................

 iter      E             dE          RMSdq      gap      omega  full diag
   1    -46.5229781 -0.465230E+02  0.534E-02    3.63       0.0  T
   2    -46.5229798 -0.176077E-05  0.319E-02    3.63       1.0  T
   3    -46.5229793  0.585105E-06  0.676E-03    3.63       2.5  T
   4    -46.5229803 -0.103688E-05  0.140E-03    3.63      12.2  T
   5    -46.5229803 -0.333867E-08  0.751E-04    3.63      22.8  T
   6    -46.5229803 -0.124309E-08  0.127E-04    3.63     135.6  T
     SCC iter.                  ...        0 min,  0.084 sec
     gradient                   ...        0 min,  0.026 sec
 * total energy  :   -45.9627585 Eh     change       -0.2279945E-05 Eh
   gradient norm :     0.0023856 Eh/α   predicted    -0.9630918E-05 ( 322.42%)
   displ. norm   :     0.1303636 α      lambda       -0.1717492E-04
   maximum displ.:     0.0714455 α      in ANC's #2, #1, #5, ...

........................................................................
.............................. CYCLE   34 ..............................
........................................................................

 iter      E             dE          RMSdq      gap      omega  full diag
   1    -46.5237225 -0.465237E+02  0.341E-02    3.64       0.0  T
   2    -46.5237232 -0.697575E-06  0.204E-02    3.64       1.0  T
   3    -46.5237230  0.218909E-06  0.419E-03    3.64       4.1  T
   4    -46.5237234 -0.392715E-06  0.875E-04    3.64      19.6  T
   5    -46.5237234 -0.145135E-08  0.479E-04    3.64      35.8  T
     SCC iter.                  ...        0 min,  0.128 sec
     gradient                   ...        0 min,  0.036 sec
 * total energy  :   -45.9627668 Eh     change       -0.8293514E-05 Eh
   gradient norm :     0.0005959 Eh/α   predicted    -0.8734059E-05 (   5.31%)
   displ. norm   :     0.1990826 α      lambda        0.1581050E-04
   maximum displ.:     0.1090837 α      in ANC's #2, #1, #5, ...

........................................................................
.............................. CYCLE   35 ..............................
........................................................................

 iter      E             dE          RMSdq      gap      omega  full diag
   1    -46.5243570 -0.465244E+02  0.517E-02    3.65       0.0  T
   2    -46.5243579 -0.932851E-06  0.308E-02    3.65       1.0  T
   3    -46.5243577  0.221787E-06  0.469E-03    3.65       3.7  T
   4    -46.5243582 -0.514126E-06  0.132E-03    3.65      13.0  T
   5    -46.5243582 -0.280180E-08  0.608E-04    3.65      28.2  T
   6    -46.5243582 -0.102607E-08  0.123E-04    3.65     139.5  T
     SCC iter.                  ...        0 min,  0.092 sec
     gradient                   ...        0 min,  0.045 sec
 * total energy  :   -45.9627562 Eh     change        0.1064388E-04 Eh
   gradient norm :     0.0028369 Eh/α   predicted     0.8040940E-05 ( -24.45%)
   displ. norm   :     0.1474998 α      lambda       -0.1528636E-04
   maximum displ.:     0.0820077 α      in ANC's #2, #1, #5, ...

........................................................................
.............................. CYCLE   36 ..............................
........................................................................

 iter      E             dE          RMSdq      gap      omega  full diag
   1    -46.5240158 -0.465240E+02  0.382E-02    3.64       0.0  T
   2    -46.5240162 -0.440945E-06  0.227E-02    3.64       1.0  T
   3    -46.5240161  0.967169E-07  0.328E-03    3.64       5.2  T
   4    -46.5240164 -0.251980E-06  0.985E-04    3.64      17.4  T
   5    -46.5240164 -0.138692E-08  0.390E-04    3.64      43.9  T
     SCC iter.                  ...        0 min,  0.069 sec
     gradient                   ...        0 min,  0.038 sec
 * total energy  :   -45.9627682 Eh     change       -0.1204159E-04 Eh
   gradient norm :     0.0010571 Eh/α   predicted    -0.7809892E-05 ( -35.14%)
   displ. norm   :     0.2885293 α      lambda       -0.9744117E-05
   maximum displ.:     0.1612990 α      in ANC's #2, #1, #5, ...

........................................................................
.............................. CYCLE   37 ..............................
........................................................................

 iter      E             dE          RMSdq      gap      omega  full diag
   1    -46.5224416 -0.465224E+02  0.736E-02    3.63       0.0  T
   2    -46.5224443 -0.269902E-05  0.439E-02    3.63       1.0  T
   3    -46.5224434  0.851759E-06  0.829E-03    3.63       2.1  T
   4    -46.5224450 -0.160405E-05  0.193E-03    3.63       8.9  T
   5    -46.5224450 -0.612182E-08  0.100E-03    3.63      17.1  T
   6    -46.5224450 -0.232243E-08  0.163E-04    3.63     105.3  T
   7    -46.5224450 -0.154181E-09  0.823E-05    3.63     208.4  T
     SCC iter.                  ...        0 min,  0.093 sec
     gradient                   ...        0 min,  0.031 sec
 * total energy  :   -45.9627595 Eh     change        0.8746277E-05 Eh
   gradient norm :     0.0036487 Eh/α   predicted    -0.5053301E-05 (-157.78%)
   displ. norm   :     0.1439679 α      lambda       -0.2341901E-04
   maximum displ.:     0.0800884 α      in ANC's #2, #1, #5, ...

........................................................................
.............................. CYCLE   38 ..............................
........................................................................

 iter      E             dE          RMSdq      gap      omega  full diag
   1    -46.5234878 -0.465235E+02  0.369E-02    3.64       0.0  T
   2    -46.5234887 -0.854429E-06  0.220E-02    3.64       1.0  T
   3    -46.5234884  0.271109E-06  0.466E-03    3.64       3.7  T
   4    -46.5234889 -0.483757E-06  0.957E-04    3.64      17.9  T
   5    -46.5234889 -0.169517E-08  0.524E-04    3.64      32.7  T
     SCC iter.                  ...        0 min,  0.054 sec
     gradient                   ...        0 min,  0.032 sec
 * total energy  :   -45.9627724 Eh     change       -0.1291155E-04 Eh
   gradient norm :     0.0010661 Eh/α   predicted    -0.1195727E-04 (  -7.39%)
   displ. norm   :     0.0294691 α      lambda       -0.2013327E-05
   maximum displ.:     0.0141947 α      in ANC's #1, #2, #3, ...

........................................................................
.............................. CYCLE   39 ..............................
........................................................................

 iter      E             dE          RMSdq      gap      omega  full diag
   1    -46.5237098 -0.465237E+02  0.761E-03    3.64       0.0  T
   2    -46.5237099 -0.822753E-07  0.458E-03    3.64       3.7  T
   3    -46.5237099  0.158623E-07  0.145E-03    3.64      11.8  T
   4    -46.5237099 -0.325963E-07  0.206E-04    3.64      83.3  T
   5    -46.5237099 -0.121197E-09  0.124E-04    3.64     138.0  T
     SCC iter.                  ...        0 min,  0.062 sec
     gradient                   ...        0 min,  0.033 sec
 * total energy  :   -45.9627745 Eh     change       -0.2108089E-05 Eh
   gradient norm :     0.0002261 Eh/α   predicted    -0.1010953E-05 ( -52.04%)
   displ. norm   :     0.0264605 α      lambda       -0.1371179E-05
   maximum displ.:     0.0161377 α      in ANC's #5, #3, #6, ...

........................................................................
.............................. CYCLE   40 ..............................
........................................................................

 iter      E             dE          RMSdq      gap      omega  full diag
   1    -46.5238761 -0.465239E+02  0.504E-03    3.64       0.0  T
   2    -46.5238761 -0.153796E-07  0.297E-03    3.64       5.8  T
   3    -46.5238761  0.492297E-08  0.633E-04    3.64      27.1  T
   4    -46.5238761 -0.773660E-08  0.980E-05    3.64     175.0  T
     SCC iter.                  ...        0 min,  0.056 sec
     gradient                   ...        0 min,  0.036 sec
 * total energy  :   -45.9627761 Eh     change       -0.1557374E-05 Eh
   gradient norm :     0.0002670 Eh/α   predicted    -0.6882145E-06 ( -55.81%)
   displ. norm   :     0.0473479 α      lambda       -0.1256421E-05
   maximum displ.:     0.0306286 α      in ANC's #5, #2, #3, ...

........................................................................
.............................. CYCLE   41 ..............................
........................................................................

 iter      E             dE          RMSdq      gap      omega  full diag
   1    -46.5238059 -0.465238E+02  0.977E-03    3.64       0.0  T
   2    -46.5238059 -0.123693E-07  0.578E-03    3.64       3.0  T
   3    -46.5238059 -0.279967E-08  0.451E-04    3.64      38.0  T
   4    -46.5238059 -0.314724E-08  0.230E-04    3.64      74.5  T
     SCC iter.                  ...        0 min,  0.047 sec
     gradient                   ...        0 min,  0.041 sec
 * total energy  :   -45.9627774 Eh     change       -0.1334090E-05 Eh
   gradient norm :     0.0002933 Eh/α   predicted    -0.6299429E-06 ( -52.78%)
   displ. norm   :     0.0333757 α      lambda       -0.5639146E-06
   maximum displ.:     0.0211938 α      in ANC's #5, #2, #3, ...

........................................................................
.............................. CYCLE   42 ..............................
........................................................................

 iter      E             dE          RMSdq      gap      omega  full diag
   1    -46.5238350 -0.465238E+02  0.733E-03    3.64       0.0  T
   2    -46.5238350 -0.947190E-08  0.434E-03    3.64       3.9  T
   3    -46.5238350  0.119285E-08  0.495E-04    3.64      34.6  T
   4    -46.5238350 -0.536296E-08  0.179E-04    3.64      95.7  T
     SCC iter.                  ...        0 min,  0.049 sec
     gradient                   ...        0 min,  0.029 sec
 * total energy  :   -45.9627780 Eh     change       -0.6182602E-06 Eh
   gradient norm :     0.0001947 Eh/α   predicted    -0.2851559E-06 ( -53.88%)
   displ. norm   :     0.0287276 α      lambda       -0.3936350E-06
   maximum displ.:     0.0174935 α      in ANC's #5, #2, #1, ...

   *** GEOMETRY OPTIMIZATION CONVERGED AFTER 42 ITERATIONS ***

------------------------------------------------------------------------
 total energy gain   :        -0.0062236 Eh       -3.9054 kcal/mol
 total RMSD          :         0.5999416 a0        0.3175 Å
 total power (kW/mol):        -0.3890480 (step)   -2.6172 (real)
------------------------------------------------------------------------

 ANCopt (total)                0 d,  0 h,  0 min,  6.243 sec
 optimizer setup                ...        0 min,  0.001 sec (  0.012%)
 model hessian                  ...        0 min,  0.076 sec (  1.218%)
 ANC generation                 ...        0 min,  0.003 sec (  0.055%)
 coordinate transformation      ...        0 min,  0.001 sec (  0.013%)
 single point calculation       ...        0 min,  5.986 sec ( 95.874%)
 optimization log               ...        0 min,  0.006 sec (  0.095%)
 hessian update                 ...        0 min,  0.153 sec (  2.445%)
 rational function              ...        0 min,  0.008 sec (  0.126%)

================
 final structure:
================
34
 xtb: 6.7.1 (edcfbbe)
C            4.47537198564892       -0.06277358332145       -0.61077231124273
C            3.34876002366593        0.00674882904934        0.41246719731952
C            1.97559583378268       -0.05406859174216       -0.25394395062969
C            0.85108141859955        0.00287655523345        0.77914387977388
C           -0.56221052776836        0.13072770878869        0.17193130342496
C           -0.58677472344692        1.43209595154121       -0.60490358013722
O           -0.90683860922910        1.55791500330316       -1.75386868852910
C           -0.91409886938699       -1.02378113935462       -0.77901739347102
C           -0.93746129712749       -2.40515266982716       -0.13690227202070
C           -1.55399723526270        0.26651265421391        1.34881679826118
C           -3.02846668247301        0.33875647720080        0.94048912517261
C           -3.28263406245130        1.55055999003303        0.07622602139833
O           -2.99625279513421        2.67902343740419        0.37632177659480
O           -3.87221146752715        1.23082887477985       -1.07585707018436
H            4.42126068909481       -0.99033651900309       -1.17629602682934
H            5.44374713189164       -0.01697182225465       -0.11837325928019
H            4.40558021587805        0.76755133119438       -1.30973649236535
H            3.43445779556623        0.93456170881090        0.98253349866330
H            3.44480903518399       -0.82354840119409        1.11623830667312
H            1.90813812858487       -0.97728556335481       -0.83123674729476
H            1.87510460008941        0.78208637175914       -0.95016253515621
H            1.02004174468508        0.86563043851099        1.42939446998401
H            0.89077876176581       -0.88777968647511        1.40871719970502
H           -0.26206928620060        2.30451513887595       -0.00529957062298
H           -0.19157922590693       -1.01937166219058       -1.59628584501579
H           -1.88494352304404       -0.81345124778827       -1.23010794367157
H           -1.67096741437667       -2.46173111951228        0.66333870647730
H            0.03631322055337       -2.66848876865421        0.26790405309176
H           -1.20035741547254       -3.14855725592657       -0.88604062565576
H           -1.31133811436794        1.17840402543143        1.89959808838657
H           -1.41555402263948       -0.57926695055100        2.02380643142105
H           -3.63177350438290        0.44577892510581        1.84498909309469
H           -3.35031775746216       -0.55429157201955        0.40883476121909
H           -3.97119405408415        2.01228313293384       -1.64312572397083

 Bond Distances (Angstroems)
 ---------------------------
C1-C2=1.5235         C1-H15=1.0877        C1-H16=1.0873        C1-H17=1.0876        C2-C1=1.5235         C2-C3=1.5275         
C2-H18=1.0923        C2-H19=1.0927        C3-C2=1.5275         C3-C4=1.5281         C3-H20=1.0909        C3-H21=1.0927        
C4-C3=1.5281         C4-C5=1.5435         C4-H22=1.0935        C4-H23=1.0914        C5-C4=1.5435         C5-C6=1.5158         
C5-C8=1.5366         C5-C10=1.5450        C6-C5=1.5158         C6-O7=1.1993         C6-H24=1.1073        O7-C6=1.1993         
C8-C5=1.5366         C8-C9=1.5235         C8-H25=1.0909        C8-H26=1.0910        C9-C8=1.5235         C9-H27=1.0870        
C9-H28=1.0869        C9-H29=1.0876        C10-C5=1.5450        C10-C11=1.5317       C10-H30=1.0926       C10-H31=1.0909       
C11-C10=1.5317       C11-C12=1.5100       C11-H32=1.0925       C11-H33=1.0880       C12-C11=1.5100       C12-O13=1.2023       
C12-O14=1.3331       O13-C12=1.2023       O14-C12=1.3331       O14-H34=0.9707       H15-C1=1.0877        H16-C1=1.0873        
H17-C1=1.0876        H18-C2=1.0923        H19-C2=1.0927        H20-C3=1.0909        H21-C3=1.0927        H22-C4=1.0935        
H23-C4=1.0914        H24-C6=1.1073        H25-C8=1.0909        H26-C8=1.0910        H27-C9=1.0870        H28-C9=1.0869        
H29-C9=1.0876        H30-C10=1.0926       H31-C10=1.0909       H32-C11=1.0925       H33-C11=1.0880       H34-O14=0.9707       
 C  H  Rav=1.0911 sigma=0.0044  Rmin=1.0869  Rmax=1.1073    19
 C  C  Rav=1.5285 sigma=0.0106  Rmin=1.5100  Rmax=1.5450    10
 O  H  Rav=0.9707 sigma=0.0000  Rmin=0.9707  Rmax=0.9707     1
 O  C  Rav=1.2449 sigma=0.0624  Rmin=1.1993  Rmax=1.3331     3

 selected bond angles (degree)
 --------------------
H15-C1-C2=110.57               H16-C1-C2=110.64               H16-C1-H15=108.40              H17-C1-C2=110.45               
H17-C1-H15=108.28              H17-C1-H16=108.42              C3-C2-C1=111.71                H18-C2-C1=109.35               
H18-C2-C3=109.39               H19-C2-C1=109.45               H19-C2-C3=109.25               H19-C2-H18=107.60              
C4-C3-C2=111.41                H20-C3-C2=108.67               H20-C3-C4=110.11               H21-C3-C2=109.28               
H21-C3-C4=109.55               H21-C3-H20=107.74              C5-C4-C3=114.26                H22-C4-C3=108.53               
H22-C4-C5=108.06               H23-C4-C3=109.44               H23-C4-C5=109.14               H23-C4-H22=107.17              
C6-C5-C4=106.71                C8-C5-C4=113.01                C8-C5-C6=108.92                C10-C5-C4=107.18               
C10-C5-C6=107.73               C10-C5-C8=112.98               O7-C6-C5=125.83                H24-C6-C5=113.21               
H24-C6-O7=120.96               C9-C8-C5=115.08                H25-C8-C5=108.00               H25-C8-C9=109.24               
H26-C8-C5=108.35               H26-C8-C9=109.60               H26-C8-H25=106.19              H27-C9-C8=111.58               
H28-C9-C8=111.28               H28-C9-H27=108.53              H29-C9-C8=109.46               H29-C9-H27=107.96              
H29-C9-H28=107.91              C11-C10-C5=114.77              H30-C10-C5=108.35              H30-C10-C11=107.99             
H31-C10-C5=108.77              H31-C10-C11=108.89             H31-C10-H30=107.88             

 selected dihedral angles (degree)
 ---------------------------------
C3-C2-C1-H15=300.04           C3-C2-C1-H16=179.93           C3-C2-C1-H17= 59.88           H18-C2-C1-H15=178.81          
H18-C2-C1-H16= 58.70          H18-C2-C1-H17=298.64          H19-C2-C1-H15= 61.17          H19-C2-C1-H16=301.06          
H19-C2-C1-H17=181.01          C4-C3-C2-C1=179.46            C4-C3-C2-H18=300.67           C4-C3-C2-H19= 58.22           
H20-C3-C2-C1= 57.98           H20-C3-C2-H18=179.18          H20-C3-C2-H19=296.74          H21-C3-C2-C1=300.66           
H21-C3-C2-H18= 61.86          H21-C3-C2-H19=179.42          C5-C4-C3-C2=172.46            C5-C4-C3-H20=293.11           
C5-C4-C3-H21= 51.42           H22-C4-C3-C2= 51.81           H22-C4-C3-H20=172.46          H22-C4-C3-H21=290.78          
H23-C4-C3-C2=295.17           H23-C4-C3-H20= 55.82          H23-C4-C3-H21=174.13          C6-C5-C4-C3=298.81            
C6-C5-C4-H22= 59.71           C6-C5-C4-H23=175.93           C8-C5-C4-C3= 58.49            C8-C5-C4-H22=179.40           
C8-C5-C4-H23=295.62           C10-C5-C4-C3=183.62           C10-C5-C4-H22=304.52          C10-C5-C4-H23= 60.74          
O7-C6-C5-C4=126.47            O7-C6-C5-C8=  4.17            O7-C6-C5-C10=241.29           H24-C6-C5-C4=306.99           
H24-C6-C5-C8=184.69           H24-C6-C5-C10= 61.81          C9-C8-C5-C4= 61.90            C9-C8-C5-C6=180.32            
C9-C8-C5-C10=299.99           H25-C8-C5-C4=299.58           H25-C8-C5-C6= 57.99           H25-C8-C5-C10=177.66          
H26-C8-C5-C4=184.96           H26-C8-C5-C6=303.37           H26-C8-C5-C10= 63.04          H27-C9-C8-C5= 60.25           
H27-C9-C8-H25=181.90          H27-C9-C8-H26=297.86          H28-C9-C8-C5=298.87           H28-C9-C8-H25= 60.52          
H28-C9-C8-H26=176.48          H29-C9-C8-C5=179.69           H29-C9-C8-H25=301.34          H29-C9-C8-H26= 57.30          
C11-C10-C5-C4=182.77          C11-C10-C5-C6= 68.26          C11-C10-C5-C8=307.91          H30-C10-C5-C4= 62.02          
H30-C10-C5-C6=307.51          H30-C10-C5-C8=187.16          H31-C10-C5-C4=305.00          H31-C10-C5-C6=190.49          
H31-C10-C5-C8= 70.14          
           -------------------------------------------------
          |                Final Singlepoint                |
           -------------------------------------------------

          ...................................................
          :                      SETUP                      :
          :.................................................:
          :  # basis functions                  76          :
          :  # atomic orbitals                  76          :
          :  # shells                           48          :
          :  # electrons                        82          :
          :  max. iterations                   250          :
          :  Hamiltonian                  GFN2-xTB          :
          :  restarted?                      false          :
          :  GBSA solvation                  false          :
          :  PC potential                    false          :
          :  electronic temp.          300.0000000     K    :
          :  accuracy                    1.0000000          :
          :  -> integral cutoff          0.2500000E+02      :
          :  -> integral neglect         0.1000000E-07      :
          :  -> SCF convergence          0.1000000E-05 Eh   :
          :  -> wf. convergence          0.1000000E-03 e    :
          :  Broyden damping             0.4000000          :
          :  net charge                          0          :
          :  unpaired electrons                  0          :
          ...................................................

 iter      E             dE          RMSdq      gap      omega  full diag
   1    -46.5238350 -0.465238E+02  0.674E-05    3.64       0.0  T
   2    -46.5238350 -0.305533E-10  0.420E-05    3.64     408.3  T
   3    -46.5238350 -0.836309E-11  0.266E-05    3.64     644.5  T

   *** convergence criteria satisfied after 3 iterations ***

         #    Occupation            Energy/Eh            Energy/eV
      -------------------------------------------------------------
         1        2.0000           -0.7464706             -20.3125
       ...           ...                  ...                  ...
        35        2.0000           -0.4457577             -12.1297
        36        2.0000           -0.4397190             -11.9654
        37        2.0000           -0.4323241             -11.7641
        38        2.0000           -0.4287881             -11.6679
        39        2.0000           -0.4262407             -11.5986
        40        2.0000           -0.4217634             -11.4768
        41        2.0000           -0.3961865             -10.7808 (HOMO)
        42                         -0.2625827              -7.1452 (LUMO)
        43                         -0.2324780              -6.3260
        44                          0.0186850               0.5084
        45                          0.0512499               1.3946
        46                          0.0573728               1.5612
       ...                                ...                  ...
        76                          0.6444579              17.5366
      -------------------------------------------------------------
                  HL-Gap            0.1336038 Eh            3.6355 eV
             Fermi-level           -0.3293846 Eh           -8.9630 eV

 SCC (total)                   0 d,  0 h,  0 min,  0.138 sec
 SCC setup                      ...        0 min,  0.004 sec (  2.785%)
 Dispersion                     ...        0 min,  0.006 sec (  4.398%)
 classical contributions        ...        0 min,  0.003 sec (  2.216%)
 integral evaluation            ...        0 min,  0.010 sec (  7.149%)
 iterations                     ...        0 min,  0.072 sec ( 52.111%)
 molecular gradient             ...        0 min,  0.043 sec ( 31.165%)
 printout                       ...        0 min,  0.000 sec (  0.151%)

         :::::::::::::::::::::::::::::::::::::::::::::::::::::
         ::                     SUMMARY                     ::
         :::::::::::::::::::::::::::::::::::::::::::::::::::::
         :: total energy             -45.962778021022 Eh    ::
         :: gradient norm              0.000194842305 Eh/a0 ::
         :: HOMO-LUMO gap              3.635543158544 eV    ::
         ::.................................................::
         :: SCC energy               -46.523527818574 Eh    ::
         :: -> isotropic ES            0.074167882194 Eh    ::
         :: -> anisotropic ES          0.005332050611 Eh    ::
         :: -> anisotropic XC          0.014876593565 Eh    ::
         :: -> dispersion             -0.029214005876 Eh    ::
         :: repulsion energy           0.560749797552 Eh    ::
         :: add. restraining           0.000000000000 Eh    ::
         :: total charge              -0.000000000000 e     ::
         :::::::::::::::::::::::::::::::::::::::::::::::::::::

           -------------------------------------------------
          |                Property Printout                |
           -------------------------------------------------

    * Orbital Energies and Occupations

         #    Occupation            Energy/Eh            Energy/eV
      -------------------------------------------------------------
         1        2.0000           -0.7464706             -20.3125
       ...           ...                  ...                  ...
        29        2.0000           -0.4768400             -12.9755
        30        2.0000           -0.4735466             -12.8859
        31        2.0000           -0.4720907             -12.8462
        32        2.0000           -0.4645539             -12.6412
        33        2.0000           -0.4618743             -12.5682
        34        2.0000           -0.4491432             -12.2218
        35        2.0000           -0.4457577             -12.1297
        36        2.0000           -0.4397190             -11.9654
        37        2.0000           -0.4323241             -11.7641
        38        2.0000           -0.4287881             -11.6679
        39        2.0000           -0.4262407             -11.5986
        40        2.0000           -0.4217634             -11.4768
        41        2.0000           -0.3961865             -10.7808 (HOMO)
        42                         -0.2625827              -7.1452 (LUMO)
        43                         -0.2324780              -6.3260
        44                          0.0186850               0.5084
        45                          0.0512499               1.3946
        46                          0.0573728               1.5612
        47                          0.0777443               2.1155
        48                          0.0809201               2.2019
        49                          0.1047963               2.8517
        50                          0.1088341               2.9615
        51                          0.1124737               3.0606
        52                          0.1209442               3.2911
       ...                                ...                  ...
        76                          0.6444579              17.5366
      -------------------------------------------------------------
                  HL-Gap            0.1336038 Eh            3.6355 eV
             Fermi-level           -0.3293846 Eh           -8.9630 eV

     #   Z          covCN         q      C6AA      α(0)
     1   6 C        3.752    -0.104    22.539     6.770
     2   6 C        3.801    -0.053    21.533     6.607
     3   6 C        3.802    -0.058    21.625     6.621
     4   6 C        3.813    -0.065    21.727     6.634
     5   6 C        3.899    -0.007    20.639     6.458
     6   6 C        2.772     0.215    23.451     7.931
     7   8 O        0.856    -0.333    20.379     6.052
     8   6 C        3.806    -0.060    21.647     6.623
     9   6 C        3.751    -0.104    22.546     6.772
    10   6 C        3.812    -0.059    21.623     6.619
    11   6 C        3.802    -0.092    22.255     6.716
    12   6 C        2.690     0.364    20.833     7.470
    13   8 O        0.856    -0.415    21.978     6.285
    14   8 O        1.660    -0.369    20.261     6.076
    15   1 H        0.925     0.035     2.514     2.480
    16   1 H        0.925     0.036     2.510     2.477
    17   1 H        0.925     0.036     2.496     2.471
    18   1 H        0.924     0.030     2.584     2.514
    19   1 H        0.924     0.030     2.584     2.514
    20   1 H        0.924     0.040     2.447     2.446
    21   1 H        0.924     0.032     2.565     2.505
    22   1 H        0.924     0.035     2.514     2.480
    23   1 H        0.924     0.044     2.396     2.421
    24   1 H        0.922     0.025     2.656     2.549
    25   1 H        0.924     0.048     2.347     2.396
    26   1 H        0.924     0.052     2.300     2.372
    27   1 H        0.925     0.034     2.528     2.486
    28   1 H        0.925     0.037     2.494     2.470
    29   1 H        0.925     0.037     2.484     2.465
    30   1 H        0.924     0.053     2.279     2.361
    31   1 H        0.924     0.055     2.259     2.350
    32   1 H        0.924     0.072     2.068     2.249
    33   1 H        0.925     0.073     2.055     2.242
    34   1 H        0.804     0.335     0.625     1.242

 Mol. C6AA /au·bohr⁶  :       9072.820217
 Mol. C8AA /au·bohr⁸  :     195954.052947
 Mol. α(0) /au        :        141.122399


Wiberg/Mayer (AO) data.
largest (>0.10) Wiberg bond orders for each atom

 ---------------------------------------------------------------------------
     #   Z sym  total        # sym  WBO       # sym  WBO       # sym  WBO
 ---------------------------------------------------------------------------
     1   6 C    3.996 --     2 C    1.019    15 H    0.988    17 H    0.988
                            16 H    0.987
     2   6 C    3.997 --     1 C    1.019     3 C    1.007    18 H    0.978
                            19 H    0.978
     3   6 C    3.996 --     4 C    1.007     2 C    1.007    21 H    0.974
                            20 H    0.974
     4   6 C    3.994 --     3 C    1.007    22 H    0.973    23 H    0.971
                             5 C    0.962
     5   6 C    3.989 --     8 C    0.986     6 C    0.975     4 C    0.962
                            10 C    0.961
     6   6 C    3.902 --     7 O    1.920     5 C    0.975    24 H    0.929
     7   8 O    2.090 --     6 C    1.920
     8   6 C    3.993 --     9 C    1.020     5 C    0.986    25 H    0.972
                            26 H    0.971
     9   6 C    3.997 --     8 C    1.020    29 H    0.986    27 H    0.985
                            28 H    0.985
    10   6 C    3.992 --    11 C    0.992    30 H    0.973    31 H    0.969
                             5 C    0.961
    11   6 C    3.993 --    10 C    0.992    12 C    0.974    33 H    0.971
                            32 H    0.952
    12   6 C    3.911 --    13 O    1.755    14 O    1.146    11 C    0.974
    13   8 O    2.034 --    12 C    1.755    14 O    0.175
    14   8 O    2.213 --    12 C    1.146    34 H    0.862    13 O    0.175
    15   1 H    0.999 --     1 C    0.988
    16   1 H    0.998 --     1 C    0.987
    17   1 H    0.999 --     1 C    0.988
    18   1 H    0.999 --     2 C    0.978
    19   1 H    0.999 --     2 C    0.978
    20   1 H    0.998 --     3 C    0.974
    21   1 H    0.999 --     3 C    0.974
    22   1 H    0.999 --     4 C    0.973
    23   1 H    0.998 --     4 C    0.971
    24   1 H    0.999 --     6 C    0.929
    25   1 H    0.998 --     8 C    0.972
    26   1 H    0.997 --     8 C    0.971
    27   1 H    0.999 --     9 C    0.985
    28   1 H    0.999 --     9 C    0.985
    29   1 H    0.998 --     9 C    0.986
    30   1 H    0.997 --    10 C    0.973
    31   1 H    0.997 --    10 C    0.969
    32   1 H    0.995 --    11 C    0.952
    33   1 H    0.995 --    11 C    0.971
    34   1 H    0.888 --    14 O    0.862
 ---------------------------------------------------------------------------

Topologies differ in total number of bonds
Writing topology from bond orders to xtbtopo.mol

molecular dipole:
                 x           y           z       tot (Debye)
 q only:        0.189      -1.138       0.612
   full:        0.160      -1.025       0.699       3.180
molecular quadrupole (traceless):
                xx          xy          yy          xz          yz          zz
 q only:        6.020       5.315      -6.802       0.820      -0.848       0.782
  q+dip:        5.436       4.603      -5.370       1.084      -1.183      -0.066
   full:        7.314       4.219      -6.808       0.304      -1.255      -0.506

           -------------------------------------------------
          |                Geometry Summary                 |
           -------------------------------------------------

      molecular mass/u    :      200.2751247
   center of mass at/Å    :       -0.5938179       0.4193126      -0.1038532
  moments of inertia/u·Å² :        0.4236415E+03   0.1417609E+04   0.1538270E+04
rotational constants/cm⁻¹ :        0.3979221E-01   0.1189159E-01   0.1095882E-01

 * 28 selected distances

     #   Z          #   Z                                           value/Å
     1   6 C        2   6 C                                       1.5235181
     2   6 C        3   6 C                                       1.5275415
     3   6 C        4   6 C                                       1.5280858
     6   6 C        7   8 O                                       1.1993300
     5   6 C        8   6 C                                       1.5365611 (max)
     8   6 C        9   6 C                                       1.5234977
    10   6 C       11   6 C                                       1.5316694
    12   6 C       13   8 O                                       1.2022902
    12   6 C       14   8 O                                       1.3330886
     1   6 C       15   1 H                                       1.0877124
     1   6 C       16   1 H                                       1.0873386
     1   6 C       17   1 H                                       1.0875944
     2   6 C       18   1 H                                       1.0923171
     2   6 C       19   1 H                                       1.0926632
     3   6 C       20   1 H                                       1.0909387
     3   6 C       21   1 H                                       1.0926912
     4   6 C       22   1 H                                       1.0934889
     4   6 C       23   1 H                                       1.0914244
     8   6 C       25   1 H                                       1.0908630
     8   6 C       26   1 H                                       1.0909908
     9   6 C       27   1 H                                       1.0870226
     9   6 C       28   1 H                                       1.0869458
     9   6 C       29   1 H                                       1.0876457
    10   6 C       30   1 H                                       1.0926068
    10   6 C       31   1 H                                       1.0909266
    11   6 C       32   1 H                                       1.0924987
    11   6 C       33   1 H                                       1.0880163
    14   8 O       34   1 H                                       0.9707019 (min)

 * 4 distinct bonds (by element types)

   Z      Z             #   av. dist./Å        max./Å        min./Å
   1 H    6 C          18     1.0902047     1.0934889     1.0869458
   6 C    6 C           6     1.5284789     1.5365611     1.5234977
   1 H    8 O           1     0.9707019     0.9707019     0.9707019
   6 C    8 O           3     1.2449029     1.3330886     1.1993300


optimized geometry written to: xtbopt.xyz


           -------------------------------------------------
          | TOTAL ENERGY              -45.962778021022 Eh   |
          | GRADIENT NORM               0.000194842305 Eh/α |
          | HOMO-LUMO GAP               3.635543158544 eV   |
           -------------------------------------------------

------------------------------------------------------------------------
 * finished run on 2026/07/07 at 11:11:59.875     
------------------------------------------------------------------------
 total:
 * wall-time:     0 d,  0 h,  0 min,  6.725 sec
 *  cpu-time:     0 d,  0 h,  1 min, 47.193 sec
 * ratio c/w:    15.940 speedup
 SCF:
 * wall-time:     0 d,  0 h,  0 min,  0.273 sec
 *  cpu-time:     0 d,  0 h,  0 min,  4.364 sec
 * ratio c/w:    15.999 speedup
 ANC optimizer:
 * wall-time:     0 d,  0 h,  0 min,  6.389 sec
 *  cpu-time:     0 d,  0 h,  1 min, 41.865 sec
 * ratio c/w:    15.944 speedup

