20
DEC_00075 MMFF geometry for GFN2-xTB preoptimization
C  -2.331938236953  0.406522213626 -1.771120547591
C  -1.525838227780 -0.011218900638 -0.554134741480
C  -0.093605158056 -0.370294958355 -0.904926999147
O   0.401708633992 -0.138932313885 -2.011412621555
C   0.741551497329 -1.069983895098  0.177506495193
O   2.026677451385 -1.424982459352 -0.329969729845
C   0.917368437173 -0.227897113975  1.440627316766
C   1.675910057328  1.073051157348  1.204167483438
H  -1.902332028722  1.297480510565 -2.240973410584
H  -3.363088223709  0.635490288160 -1.485040059488
H  -2.352885041598 -0.390941415786 -2.521269854821
H  -1.996260173927 -0.885718888582 -0.092797694750
H  -1.512192860750  0.806547214660  0.172663913963
H   0.230130856490 -2.006496660242  0.425124310876
H   2.051921606132 -1.106552197494 -1.256767242358
H   1.480727723946 -0.812374489260  2.178500608711
H  -0.056478294804  0.000713134143  1.887110040653
H   1.142806638964  1.723943086994  0.504503623629
H   1.788383479422  1.617185495739  2.147498236680
H   2.677431864135  0.884460191433  0.805314700290
