29
REP_00350 MMFF geometry for GFN2-xTB preoptimization
O  -0.815776937595 -1.903062268050 -1.341664862674
C  -0.917908259060 -0.492573676375 -1.130758303069
C  -2.381883462519 -0.107407248187 -1.354775896923
C  -2.646078495546  1.358930346359 -1.038996296398
C  -2.207872823783  1.708306070563  0.378853316253
C  -0.739869128521  1.359967839334  0.610220771171
C  -0.446107964249 -0.117594098004  0.293858228608
C   1.027537661464 -0.438056592248  0.514685072396
C   2.039344897258  0.175294847845 -0.240222483974
C   3.381230447325 -0.146691387006 -0.027328905177
C   3.729762994970 -1.084766018309  0.941259007748
C   2.737131590854 -1.701372466043  1.698705637428
C   1.394943968064 -1.380597227558  1.487558536086
H   0.115035399413 -2.148572898776 -1.189109973175
H  -0.301422394068 -0.000210815494 -1.892329491284
H  -2.664738108143 -0.323789282363 -2.392280003443
H  -3.028989549317 -0.742577349936 -0.735366813752
H  -3.713636442193  1.575246264643 -1.158385635917
H  -2.108787335636  1.991278675724 -1.756315431087
H  -2.831302463333  1.166507910535  1.100641732555
H  -2.365163615691  2.777575603727  0.559991321843
H  -0.121746906754  2.018973168873 -0.012626734818
H  -0.475460138470  1.579820067234  1.652154286493
H  -1.026464192047 -0.729980160740  0.999339202476
H   1.795073775359  0.911942592243 -1.002157194404
H   4.155545629822  0.336650042640 -0.617648890155
H   4.774516953196 -1.334001953420  1.106984778452
H   3.007137359608 -2.433005233038  2.455936010012
H   0.635947539591 -1.876234754172  2.089779014731
