39
REP_00035 MMFF geometry for GFN2-xTB preoptimization
C   5.915724087588  0.066007474553  0.286835935598
C   4.703251927932 -0.596704674942 -0.346213012092
C   3.371349899885  0.068901637927  0.023013084182
C   3.047933236098 -0.056180963382  1.509654088452
O   2.349313836073 -0.614279388717 -0.733068447285
C   1.212864259001  0.092254178498 -0.985685461850
O   1.023919383426  1.263661926755 -0.686116240943
C   0.236051283677 -0.766671168383 -1.751710228326
C  -1.195241041248 -0.277829454161 -1.549974770506
C  -1.683916862073 -0.534565862874 -0.131808830095
O  -1.030528223460 -1.237155290416  0.641541006239
N  -2.905475633937  0.024385109790  0.231432258060
C  -3.743099297983  0.844016989189 -0.646102172940
C  -3.463345383375  2.329062685643 -0.472923636530
C  -3.391131854660 -0.204473687501  1.592572855993
C  -4.229436435587 -1.469880034568  1.684500555970
H   6.834621436976 -0.394314491060 -0.090378155982
H   5.912768158188 -0.046405289737  1.374836129974
H   5.949530742055  1.133564588623  0.047855161577
H   4.816528205329 -0.576273713860 -1.437758997814
H   4.679045834017 -1.659550493914 -0.074489437548
H   3.412518836552  1.125720376186 -0.268803200430
H   3.774557246650  0.476996124077  2.128770436322
H   3.027524819734 -1.107644634695  1.816721968390
H   2.055426484771  0.351357045329  1.728994947418
H   0.333612506839 -1.809144821242 -1.428175062041
H   0.504647314658 -0.708258845679 -2.811920421055
H  -1.851858524970 -0.827685385485 -2.233551888527
H  -1.261486712344  0.789515731046 -1.780499301647
H  -4.794420225816  0.629465830087 -0.423675866805
H  -3.580814193861  0.562784504712 -1.690131006300
H  -4.089975665779  2.914727574505 -1.152531570256
H  -3.675785621752  2.654853601457  0.550322234641
H  -2.415610308472  2.564749240803 -0.683727422011
H  -3.976597382542  0.663424296475  1.914729072420
H  -2.538741473883 -0.286633897036  2.276372768337
H  -3.649742515802 -2.349941167725  1.387511347996
H  -4.579041330701 -1.620571189990  2.710416962124
H  -5.104940811205 -1.411284460287  1.029860620066
